%chk=ADN.chk
# opt freq b3lyp/6-311+g(d,p)

ADN

0 1
 C        -0.65279369   -1.32394763    1.41351072
 H        -1.00946653   -1.82829960    0.53980648
 H        -1.00947527   -1.82839870    2.28710889
 C        -1.16611384    0.12798187    1.41352670
 H        -0.80928601    0.63243947    0.53993654
 H        -0.80959554    0.63232325    2.28723913
 C        -2.70610963    0.12800096    1.41321585
 H        -3.06294247   -0.37649309    2.28674409
 H        -3.06262829   -0.37630541    0.53944143
 C        -3.21943838    1.57992111    1.41327162
 H        -2.86287840    2.08427062    2.28701066
 H        -2.86266094    2.08440703    0.53970856
 C        -4.75943029    1.57992927    1.41308487
 C         0.88719051   -1.32396680    1.41349293
 N        -5.90603012    1.58000100    1.41294581
 N         2.03380808   -1.32401054    1.41347933
