%chk=BC.chk
# opt freq b3lyp/6-311+g(d,p)

BC

0 1
 C        -1.15967918    2.03740757    0.84400990
 C        -1.62302739    0.62142769    0.56439495
 H        -1.77598482    2.77722509    0.37738651
 H        -2.58272478    0.40223686    0.98372333
 H        -1.66917271    0.44966121   -0.49071968
 C         0.54394454    0.69256530    0.76053012
 O         1.73825093    0.29759922    0.79523719
 O         0.16440526    2.02428069    0.32833442
 O        -0.57666638   -0.14346829    1.14940685
 C        -1.14857888    2.30547380    2.36045881
 H        -0.75521799    3.28290337    2.54700277
 H        -0.53599051    1.57559956    2.84720214
 C        -2.58529341    2.21724546    2.90787741
 H        -2.97865430    1.23981589    2.72133345
 H        -2.57758086    2.40349927    3.96151398
 H        -3.19788178    2.94711970    2.42113408
