%chk=BCN4.chk
# opt freq b3lyp/6-311+g(d,p)

BCN4

-1 1
 B         0.95041597    0.53981427   -0.32840095
 C         0.21383606   -0.80435988    0.28149974
 C         0.24720462    1.88943263    0.30917898
 C         2.55255995    0.51544320    0.06621103
 C         0.78848696    0.55937034   -1.97044945
 N         0.67078605    0.57301886   -3.11066417
 N        -0.29905959   -1.73874454    0.70525705
 N         3.66615651    0.49541039    0.33862198
 N        -0.24468501    2.82637257    0.75086589
