%chk=BTFE.chk
# opt freq b3lyp/6-311+g(d,p)

BTFE

0 1
 C        -2.56936581   -0.15796896    0.72114242
 C        -4.10936581   -0.15794999    0.72114242
 H        -4.46601973    0.85086017    0.72133799
 H        -4.46603888   -0.66251764    1.59469597
 C        -6.16270762   -0.88369020   -0.53637648
 H        -6.51939162    0.12510932   -0.53615546
 H        -6.51935062   -1.38828522    0.33717354
 C        -6.67604944   -1.60939469   -1.79392694
 O        -4.62270763   -0.88366326   -0.53640298
 F        -2.11935802    0.47842128   -0.38112817
 F        -2.11935802    0.47842128    1.82341301
 F        -2.11938125   -1.43076663    0.72114242
 F        -6.22607960   -0.97275622   -2.89606968
 F        -6.22602650   -2.88217876   -1.79420515
 F        -8.02604944   -1.60941832   -1.79390371
