%chk=BzTh.chk
# sp M062X/def2TZVP scrf=(smd,solvent=n-hexadecane) empiricaldispersion=gd3 int=ultrafine

BzTh

0 1
 C                 -0.11145771    0.85240224    0.00019907
 C                  0.06121313   -0.55290941   -0.00015438
 C                 -1.02781628   -1.42636449    0.00032257
 C                 -2.30594863   -0.88514371    0.00023125
 C                 -2.49867039    0.50670929   -0.00010327
 C                 -1.41665470    1.37232066   -0.00042648
 C                  1.14877580    1.54900878    0.00047699
 C                  2.21508207    0.71246304    0.00018902
 H                 -0.88056308   -2.49971112    0.00036300
 H                 -3.16498922   -1.54578744    0.00024339
 H                 -3.50647712    0.90510809   -0.00028424
 H                 -1.56912963    2.44573464   -0.00094901
 H                  1.23726300    2.62744837    0.00037551
 H                  3.26295923    0.97381752   -0.00007951
 S                  1.76461232   -0.97984553   -0.00025486

