%chk=DEC.chk
# opt freq b3lyp/6-311+g(d,p)

DEC

0 1
 C        -0.33219136    2.34609207    1.61723317
 H         0.02446306    1.33728207    1.61723317
 H         0.02448148    2.85049026    0.74358167
 C        -4.43887635    0.89872816   -0.90017451
 H        -4.08190605   -0.10996764   -0.90240627
 H        -4.08251962    1.40511428   -1.77280444
 C        -2.38553388    1.62259401    0.35842320
 O        -1.87219136    2.34611105    1.61723317
 O        -3.92553379    1.62214224    0.35869462
 O        -1.65900727    1.11414876   -0.53444470
 C         0.18115086    3.07204835    2.87463814
 H        -0.17567457    2.56775717    3.74828911
 H         1.25115084    3.07187362    2.87473107
 H        -0.17535102    4.08091226    2.87454535
 C        -5.97887626    0.89826484   -0.89989645
 H        -6.33584570    1.90696098   -0.89768179
 H        -6.33554933    0.39561770   -1.77455648
 H        -6.33523322    0.39189388   -0.02725782
