%chk=DFEC.chk
# opt freq b3lyp/6-311+g(d,p)

DFEC

0 1
 C        -0.33219136    2.34609207    1.61723317
 H         0.02446306    1.33728207    1.61723317
 H         0.02448148    2.85049026    0.74358167
 C        -4.43887635    0.89872816   -0.90017451
 H        -4.08190605   -0.10996764   -0.90240627
 H        -4.08251962    1.40511428   -1.77280444
 C        -2.38553388    1.62259401    0.35842320
 O        -1.87219136    2.34611105    1.61723317
 O        -3.92553379    1.62214224    0.35869462
 O        -1.65900727    1.11414876   -0.53444470
 C         0.18115086    3.07204835    2.87463814
 C        -5.97887626    0.89826484   -0.89989645
 F        -0.26864123    4.34491404    2.87452107
 F        -0.26904945    2.43579312    3.97690806
 F         1.53115084    3.07182790    2.87475539
 F        -6.42925827    2.17091885   -0.89710225
 F        -6.42848551    0.25938559    0.20109621
 F        -6.42888434    0.26408387   -2.00343948
