%chk=DFOB.chk
# opt freq b3lyp/6-311+g(d,p)

DFOB

-1 1
 B         0.08320425    2.93041888    0.13780999
 O        -1.14889275    2.03730588    0.16740599
 O         1.31094425    2.04085088    0.27099599
 C        -0.67968675    0.59298588    0.27099599
 C         0.84217125    0.59298588    0.27099599
 O        -1.42265044   -0.42007358    0.34370110
 O         1.58538785   -0.42249412    0.27089703
 F         0.13304081    3.70959259   -1.16850407
 F         0.04181457    3.93403609    1.28148162
