%chk=DGM.chk
# opt freq b3lyp/6-311+g(d,p)

DGM

0 1
 C        -1.82798628    0.09979586   -1.03271087
 H        -1.47133185   -0.90901415   -1.03271087
 H        -1.47131344    0.60419405   -0.15905937
 H        -1.47131344    0.60419405   -1.90636237
 C        -3.88132880   -0.62370221   -2.29152084
 H        -3.52436605   -1.63240088   -2.29366545
 H        -3.52496449   -0.11739281   -3.16419218
 C        -5.42132871   -0.62415398   -2.29124942
 H        -5.77829059    0.38454481   -2.28902178
 H        -5.77769324   -1.13053483   -1.41861963
 C        -7.47467117   -1.34803139   -3.54984049
 H        -7.83164062   -0.33933529   -3.54760646
 H        -7.83102813   -1.85441910   -2.67721158
 C        -7.98801373   -2.07144328   -4.80871088
 H        -7.63104486   -3.08013958   -4.81094351
 H        -7.63165558   -1.56505665   -5.68133992
 C       -10.04135620   -2.79531852   -6.06730319
 H        -9.68438877   -3.80401534   -6.06953317
 H       -11.11135614   -2.79563740   -6.06711173
 H        -9.68499661   -2.28893444   -6.93993312
 O        -3.36798628    0.09981483   -1.03271087
 O        -5.93467127   -1.34756805   -3.55011855
 O        -9.52801364   -2.07190444   -4.80843406
