%chk=D:\Work\Gaussian\GaussianField\MY-DMA\DMAA.chk
# opt freq b3lyp/6-311+g(d,p)

DMAA

0 1
 C                  2.69923367    0.22012571    0.03189096
 H                  2.92293612   -0.82794476    0.19508765
 H                  3.52534764    0.91788515   -0.03999243
 C                  1.43559399    0.62680236   -0.08113648
 H                  1.22095135    1.67316452   -0.25780159
 C                 -1.33008316    1.54153339    0.04809589
 H                 -0.58855162    2.13823050    0.57507499
 H                 -1.46711673    1.94919030   -0.96151270
 H                 -2.27448454    1.65107031    0.58603129
 C                 -2.08518825   -0.80705413   -0.03909206
 H                 -2.70640218   -0.59598099   -0.91683786
 H                 -1.69086881   -1.81723099   -0.10915242
 H                 -2.71004454   -0.72445244    0.85665357
 N                 -0.96910705    0.12890424    0.02807223
 C                  0.31420751   -0.36539134   -0.00411612
 O                  0.54367501   -1.57029464    0.01776134

