%chk=DMC.chk
# opt freq b3lyp/6-311+g(d,p)

DMC

0 1
 C        -0.33219136    2.34609207    1.61723317
 H         0.02446306    1.33728207    1.61723317
 H         0.02448148    2.85049026    2.49088467
 H         0.02448148    2.85049026    0.74358167
 C        -4.43887635    0.89872816   -0.90017451
 H        -4.08190605   -0.10996764   -0.90240627
 H        -5.50887629    0.89840624   -0.89998131
 H        -4.08251962    1.40511428   -1.77280444
 C        -2.38553388    1.62259401    0.35842320
 O        -1.87219136    2.34611105    1.61723317
 O        -3.92553379    1.62214224    0.35869462
 O        -1.65900727    1.11414876   -0.53444470
