%chk=DME.chk
# opt freq b3lyp/6-311+g(d,p)

DME

0 1
 C                 -3.36030209   -0.79541921    0.08819204
 H                 -3.00408999   -1.80437178    0.08293372
 H                 -3.00040434   -0.28558000   -0.78096708
 H                 -4.43029565   -0.79491569    0.08451236
 C                 -3.36833957   -0.81042671    2.42331020
 H                 -3.01212747   -1.81937928    2.41805188
 H                 -4.43833313   -0.80992319    2.41963052
 C                 -2.85901163   -0.09280135    3.68711355
 H                 -2.08973234   -0.67913198    4.14463486
 H                 -3.66805471    0.03398267    4.37578990
 C                 -1.85997465    1.85409190    4.50234264
 H                 -1.09069535    1.26776126    4.95986395
 H                 -1.46632718    2.81224834    4.23424210
 H                 -2.66901773    1.98087591    5.19101899
 O                 -2.33292203    1.18772549    3.32881096
 O                 -2.88735472   -0.12905280    1.26172372
