%chk=DOL.chk
# opt freq b3lyp/6-311+g(d,p)

DOL

0 1
 C        -3.47700606    0.67611246    1.75008684
 C        -1.48637506    2.12397746    1.75008684
 C        -3.94621206    2.12043246    1.64649684
 H        -3.86896806    0.07366746    0.89257884
 H        -3.86712106    0.20570146    2.68759084
 H        -0.93944006    2.35567046    2.69867484
 H        -0.77441406    2.30715346    0.90687084
 H        -4.59859006    2.38223446    2.51716084
 H        -4.55795806    2.26805446    0.72129384
 O        -1.95514806    0.67611246    1.75008684
 O        -2.71411506    3.01354546    1.61690084
