%chk=DXA.chk
# opt freq b3lyp/6-311+g(d,p)

DXA

0 1
 C        -8.04053035    1.89641809   -0.71818467
 C        -5.97349335    3.30749609   -0.71818467
 C        -6.52315635    4.11203309    0.44247633
 C        -8.59108135    2.70207309    0.44069133
 H        -4.85489435    3.27350509   -0.65547067
 H        -8.41321835    2.32944709   -1.68356967
 H        -8.41612735    0.84219809   -0.65468267
 H        -6.15062135    3.67718809    1.40708733
 H        -6.14713335    5.16617009    0.38048133
 H        -8.32507735    2.19635109    1.40600633
 H        -9.70962935    2.73713409    0.37575333
 H        -6.24211135    3.81312909   -1.68273067
 O        -6.52542435    1.89641809   -0.71818467
 O        -8.03828135    4.11269409    0.44198733
