Generated by Multiwfn
SP        RB3LYP                                              6-31G(d)
Number of atoms                            I               10
Charge                                     I                0
Multiplicity                               I                1
Number of electrons                        I               46
Number of alpha electrons                  I               23
Number of beta electrons                   I               23
Number of basis functions                  I              156
Number of independent functions            I              156
Atomic numbers                             I   N=          10
           6           6           1           1           1           1
           6           8           8           8
Nuclear charges                            R   N=          10
  6.00000000E+00  6.00000000E+00  1.00000000E+00  1.00000000E+00  1.00000000E+00
  1.00000000E+00  6.00000000E+00  8.00000000E+00  8.00000000E+00  8.00000000E+00
Current cartesian coordinates              R   N=          30
  2.86889000E-05 -1.44623500E+00 -2.45840182E+00 -3.99123000E-05  1.44623412E+00
 -2.45840293E+00  1.46175409E+00 -2.28034830E+00 -3.64286399E+00 -1.84174473E+00
 -2.24204258E+00 -2.95005123E+00  1.84174219E+00  2.24203184E+00 -2.95003403E+00
 -1.46175156E+00  2.28035569E+00 -3.64287665E+00  3.16200000E-06  1.00290000E-06
  1.61027294E+00 -5.38074457E-01  2.03948666E+00  1.37011315E-01  5.38077874E-01
 -2.03948405E+00  1.37009780E-01  4.65010000E-06  6.13300000E-07  3.85576834E+00
Translation vectors                        R   N=           0
Number of contracted shells                I               76
Number of primitive shells                 I              138
Highest angular momentum                   I                2
Largest degree of contraction              I                6
Shell types                                I   N=          76
           0           0           1           0           1           0
           1           0           1          -2           0           0
           1           0           1           0           1           0
           1          -2           0           0           0           1
           0           0           0           1           0           0
           0           1           0           0           0           1
           0           0           1           0           1           0
           1           0           1          -2           0           0
           1           0           1           0           1           0
           1          -2           0           0           1           0
           1           0           1           0           1          -2
           0           0           1           0           1           0
           1           0           1          -2
Number of primitives per shell             I   N=          76
           6           3           3           1           1           1
           1           1           1           1           6           3
           3           1           1           1           1           1
           1           1           3           1           1           1
           3           1           1           1           3           1
           1           1           3           1           1           1
           6           3           3           1           1           1
           1           1           1           1           6           3
           3           1           1           1           1           1
           1           1           6           3           3           1
           1           1           1           1           1           1
           6           3           3           1           1           1
           1           1           1           1
Shell to atom map                          I   N=          76
           1           1           1           1           1           1
           1           1           1           1           2           2
           2           2           2           2           2           2
           2           2           3           3           3           3
           4           4           4           4           5           5
           5           5           6           6           6           6
           7           7           7           7           7           7
           7           7           7           7           8           8
           8           8           8           8           8           8
           8           8           9           9           9           9
           9           9           9           9           9           9
          10          10          10          10          10          10
          10          10          10          10
Primitive exponents                        R   N=         138
  4.56324000E+03  6.82024000E+02  1.54973000E+02  4.44553000E+01  1.30290000E+01
  1.82773000E+00  2.09642000E+01  4.80331000E+00  1.45933000E+00  2.09642000E+01
  4.80331000E+00  1.45933000E+00  4.83456000E-01  4.83456000E-01  1.45585000E-01
  1.45585000E-01  4.38000000E-02  4.38000000E-02  6.26000000E-01  4.56324000E+03
  6.82024000E+02  1.54973000E+02  4.44553000E+01  1.30290000E+01  1.82773000E+00
  2.09642000E+01  4.80331000E+00  1.45933000E+00  2.09642000E+01  4.80331000E+00
  1.45933000E+00  4.83456000E-01  4.83456000E-01  1.45585000E-01  1.45585000E-01
  4.38000000E-02  4.38000000E-02  6.26000000E-01  3.38650000E+01  5.09479000E+00
  1.15879000E+00  3.25840000E-01  1.02741000E-01  7.50000000E-01  3.38650000E+01
  5.09479000E+00  1.15879000E+00  3.25840000E-01  1.02741000E-01  7.50000000E-01
  3.38650000E+01  5.09479000E+00  1.15879000E+00  3.25840000E-01  1.02741000E-01
  7.50000000E-01  3.38650000E+01  5.09479000E+00  1.15879000E+00  3.25840000E-01
  1.02741000E-01  7.50000000E-01  4.56324000E+03  6.82024000E+02  1.54973000E+02
  4.44553000E+01  1.30290000E+01  1.82773000E+00  2.09642000E+01  4.80331000E+00
  1.45933000E+00  2.09642000E+01  4.80331000E+00  1.45933000E+00  4.83456000E-01
  4.83456000E-01  1.45585000E-01  1.45585000E-01  4.38000000E-02  4.38000000E-02
  6.26000000E-01  8.58850000E+03  1.29723000E+03  2.99296000E+02  8.73771000E+01
  2.56789000E+01  3.74004000E+00  4.21175000E+01  9.62837000E+00  2.85332000E+00
  4.21175000E+01  9.62837000E+00  2.85332000E+00  9.05661000E-01  9.05661000E-01
  2.55611000E-01  2.55611000E-01  8.45000000E-02  8.45000000E-02  1.29200000E+00
  8.58850000E+03  1.29723000E+03  2.99296000E+02  8.73771000E+01  2.56789000E+01
  3.74004000E+00  4.21175000E+01  9.62837000E+00  2.85332000E+00  4.21175000E+01
  9.62837000E+00  2.85332000E+00  9.05661000E-01  9.05661000E-01  2.55611000E-01
  2.55611000E-01  8.45000000E-02  8.45000000E-02  1.29200000E+00  8.58850000E+03
  1.29723000E+03  2.99296000E+02  8.73771000E+01  2.56789000E+01  3.74004000E+00
  4.21175000E+01  9.62837000E+00  2.85332000E+00  4.21175000E+01  9.62837000E+00
  2.85332000E+00  9.05661000E-01  9.05661000E-01  2.55611000E-01  2.55611000E-01
  8.45000000E-02  8.45000000E-02  1.29200000E+00
Contraction coefficients                   R   N=         138
  1.96665025E-03  1.52306019E-02  7.61269097E-02  2.60801033E-01  6.16462078E-01
  2.21006028E-01  1.14660081E-01  9.19999648E-01 -3.03068210E-03  4.02486927E-02
  2.37593957E-01  8.15853851E-01  1.00000000E+00  1.00000000E+00  1.00000000E+00
  1.00000000E+00  1.00000000E+00  1.00000000E+00  1.00000000E+00  1.96665025E-03
  1.52306019E-02  7.61269097E-02  2.60801033E-01  6.16462078E-01  2.21006028E-01
  1.14660081E-01  9.19999648E-01 -3.03068210E-03  4.02486927E-02  2.37593957E-01
  8.15853851E-01  1.00000000E+00  1.00000000E+00  1.00000000E+00  1.00000000E+00
  1.00000000E+00  1.00000000E+00  1.00000000E+00  2.54938145E-02  1.90373109E-01
  8.52161486E-01  1.00000000E+00  1.00000000E+00  1.00000000E+00  2.54938145E-02
  1.90373109E-01  8.52161486E-01  1.00000000E+00  1.00000000E+00  1.00000000E+00
  2.54938145E-02  1.90373109E-01  8.52161486E-01  1.00000000E+00  1.00000000E+00
  1.00000000E+00  2.54938145E-02  1.90373109E-01  8.52161486E-01  1.00000000E+00
  1.00000000E+00  1.00000000E+00  1.96665025E-03  1.52306019E-02  7.61269097E-02
  2.60801033E-01  6.16462078E-01  2.21006028E-01  1.14660081E-01  9.19999648E-01
 -3.03068210E-03  4.02486927E-02  2.37593957E-01  8.15853851E-01  1.00000000E+00
  1.00000000E+00  1.00000000E+00  1.00000000E+00  1.00000000E+00  1.00000000E+00
  1.00000000E+00  1.89515008E-03  1.43859006E-02  7.07320031E-02  2.40001011E-01
  5.94797026E-01  2.80802012E-01  1.13889012E-01  9.20811101E-01 -3.27447039E-03
  3.65113974E-02  2.37152983E-01  8.19701941E-01  1.00000000E+00  1.00000000E+00
  1.00000000E+00  1.00000000E+00  1.00000000E+00  1.00000000E+00  1.00000000E+00
  1.89515008E-03  1.43859006E-02  7.07320031E-02  2.40001011E-01  5.94797026E-01
  2.80802012E-01  1.13889012E-01  9.20811101E-01 -3.27447039E-03  3.65113974E-02
  2.37152983E-01  8.19701941E-01  1.00000000E+00  1.00000000E+00  1.00000000E+00
  1.00000000E+00  1.00000000E+00  1.00000000E+00  1.00000000E+00  1.89515008E-03
  1.43859006E-02  7.07320031E-02  2.40001011E-01  5.94797026E-01  2.80802012E-01
  1.13889012E-01  9.20811101E-01 -3.27447039E-03  3.65113974E-02  2.37152983E-01
  8.19701941E-01  1.00000000E+00  1.00000000E+00  1.00000000E+00  1.00000000E+00
  1.00000000E+00  1.00000000E+00  1.00000000E+00
Coordinates of each shell                  R   N=         228
  2.86889000E-05 -1.44623500E+00 -2.45840182E+00  2.86889000E-05 -1.44623500E+00
 -2.45840182E+00  2.86889000E-05 -1.44623500E+00 -2.45840182E+00  2.86889000E-05
 -1.44623500E+00 -2.45840182E+00  2.86889000E-05 -1.44623500E+00 -2.45840182E+00
  2.86889000E-05 -1.44623500E+00 -2.45840182E+00  2.86889000E-05 -1.44623500E+00
 -2.45840182E+00  2.86889000E-05 -1.44623500E+00 -2.45840182E+00  2.86889000E-05
 -1.44623500E+00 -2.45840182E+00  2.86889000E-05 -1.44623500E+00 -2.45840182E+00
 -3.99123000E-05  1.44623412E+00 -2.45840293E+00 -3.99123000E-05  1.44623412E+00
 -2.45840293E+00 -3.99123000E-05  1.44623412E+00 -2.45840293E+00 -3.99123000E-05
  1.44623412E+00 -2.45840293E+00 -3.99123000E-05  1.44623412E+00 -2.45840293E+00
 -3.99123000E-05  1.44623412E+00 -2.45840293E+00 -3.99123000E-05  1.44623412E+00
 -2.45840293E+00 -3.99123000E-05  1.44623412E+00 -2.45840293E+00 -3.99123000E-05
  1.44623412E+00 -2.45840293E+00 -3.99123000E-05  1.44623412E+00 -2.45840293E+00
  1.46175409E+00 -2.28034830E+00 -3.64286399E+00  1.46175409E+00 -2.28034830E+00
 -3.64286399E+00  1.46175409E+00 -2.28034830E+00 -3.64286399E+00  1.46175409E+00
 -2.28034830E+00 -3.64286399E+00 -1.84174473E+00 -2.24204258E+00 -2.95005123E+00
 -1.84174473E+00 -2.24204258E+00 -2.95005123E+00 -1.84174473E+00 -2.24204258E+00
 -2.95005123E+00 -1.84174473E+00 -2.24204258E+00 -2.95005123E+00  1.84174219E+00
  2.24203184E+00 -2.95003403E+00  1.84174219E+00  2.24203184E+00 -2.95003403E+00
  1.84174219E+00  2.24203184E+00 -2.95003403E+00  1.84174219E+00  2.24203184E+00
 -2.95003403E+00 -1.46175156E+00  2.28035569E+00 -3.64287665E+00 -1.46175156E+00
  2.28035569E+00 -3.64287665E+00 -1.46175156E+00  2.28035569E+00 -3.64287665E+00
 -1.46175156E+00  2.28035569E+00 -3.64287665E+00  3.16200000E-06  1.00290000E-06
  1.61027294E+00  3.16200000E-06  1.00290000E-06  1.61027294E+00  3.16200000E-06
  1.00290000E-06  1.61027294E+00  3.16200000E-06  1.00290000E-06  1.61027294E+00
  3.16200000E-06  1.00290000E-06  1.61027294E+00  3.16200000E-06  1.00290000E-06
  1.61027294E+00  3.16200000E-06  1.00290000E-06  1.61027294E+00  3.16200000E-06
  1.00290000E-06  1.61027294E+00  3.16200000E-06  1.00290000E-06  1.61027294E+00
  3.16200000E-06  1.00290000E-06  1.61027294E+00 -5.38074457E-01  2.03948666E+00
  1.37011315E-01 -5.38074457E-01  2.03948666E+00  1.37011315E-01 -5.38074457E-01
  2.03948666E+00  1.37011315E-01 -5.38074457E-01  2.03948666E+00  1.37011315E-01
 -5.38074457E-01  2.03948666E+00  1.37011315E-01 -5.38074457E-01  2.03948666E+00
  1.37011315E-01 -5.38074457E-01  2.03948666E+00  1.37011315E-01 -5.38074457E-01
  2.03948666E+00  1.37011315E-01 -5.38074457E-01  2.03948666E+00  1.37011315E-01
 -5.38074457E-01  2.03948666E+00  1.37011315E-01  5.38077874E-01 -2.03948405E+00
  1.37009780E-01  5.38077874E-01 -2.03948405E+00  1.37009780E-01  5.38077874E-01
 -2.03948405E+00  1.37009780E-01  5.38077874E-01 -2.03948405E+00  1.37009780E-01
  5.38077874E-01 -2.03948405E+00  1.37009780E-01  5.38077874E-01 -2.03948405E+00
  1.37009780E-01  5.38077874E-01 -2.03948405E+00  1.37009780E-01  5.38077874E-01
 -2.03948405E+00  1.37009780E-01  5.38077874E-01 -2.03948405E+00  1.37009780E-01
  5.38077874E-01 -2.03948405E+00  1.37009780E-01  4.65010000E-06  6.13300000E-07
  3.85576834E+00  4.65010000E-06  6.13300000E-07  3.85576834E+00  4.65010000E-06
  6.13300000E-07  3.85576834E+00  4.65010000E-06  6.13300000E-07  3.85576834E+00
  4.65010000E-06  6.13300000E-07  3.85576834E+00  4.65010000E-06  6.13300000E-07
  3.85576834E+00  4.65010000E-06  6.13300000E-07  3.85576834E+00  4.65010000E-06
  6.13300000E-07  3.85576834E+00  4.65010000E-06  6.13300000E-07  3.85576834E+00
  4.65010000E-06  6.13300000E-07  3.85576834E+00
Virial Ratio                               R      2.000000000000000E+00
Total Energy                               R      0.000000000000000E+00
Alpha Orbital Energies                     R   N=         156
 -1.91891246E+01 -1.91891069E+01 -1.91180314E+01 -1.03527942E+01 -1.02634255E+01
 -1.02632011E+01 -1.17052934E+00 -1.05851149E+00 -1.05419530E+00 -7.98190556E-01
 -6.92870045E-01 -6.19667923E-01 -5.58629201E-01 -5.31422738E-01 -5.18497889E-01
 -4.57428699E-01 -4.52383861E-01 -4.50845651E-01 -3.93891816E-01 -3.89958791E-01
 -3.25585252E-01 -3.23398267E-01 -3.07693045E-01 -7.64790869E-03  6.87438694E-04
  1.33561144E-02  2.03001202E-02  2.91893149E-02  5.83115102E-02  6.57472200E-02
  6.91466419E-02  7.18706672E-02  8.26955056E-02  1.07762941E-01  1.16368644E-01
  1.22645531E-01  1.22860226E-01  1.50854199E-01  1.74418487E-01  1.92767398E-01
  2.01361884E-01  2.14948110E-01  2.15737134E-01  2.25057468E-01  2.28673807E-01
  2.43835701E-01  2.57770642E-01  2.68192217E-01  2.84401431E-01  2.93064525E-01
  3.06583873E-01  3.07703486E-01  3.27566700E-01  3.37479227E-01  3.46661919E-01
  3.67987153E-01  3.76596025E-01  4.18603166E-01  4.18888333E-01  4.72932211E-01
  4.89079423E-01  5.26645266E-01  5.60171959E-01  5.92652286E-01  6.13875325E-01
  6.34422680E-01  6.46404949E-01  6.61591949E-01  6.82153351E-01  7.35945078E-01
  7.76748415E-01  8.42962208E-01  9.13406621E-01  9.27382718E-01  9.90901763E-01
  9.99422559E-01  1.05388026E+00  1.10713543E+00  1.12422864E+00  1.12602057E+00
  1.15760951E+00  1.18777443E+00  1.19008015E+00  1.19882870E+00  1.23170284E+00
  1.28788458E+00  1.35903205E+00  1.36987050E+00  1.41474975E+00  1.48923105E+00
  1.51327591E+00  1.55455056E+00  1.58869485E+00  1.59400208E+00  1.61463009E+00
  1.63021873E+00  1.67045064E+00  1.69401435E+00  1.70143426E+00  1.72653213E+00
  1.77025483E+00  1.82991383E+00  1.84472723E+00  1.86573371E+00  1.97690923E+00
  2.08235008E+00  2.10723477E+00  2.15104936E+00  2.20109459E+00  2.37459884E+00
  2.40072444E+00  2.50458301E+00  2.53722911E+00  2.55806403E+00  2.57435198E+00
  2.61711804E+00  2.71769689E+00  2.75166166E+00  2.78086462E+00  2.81651974E+00
  2.87600856E+00  2.88237471E+00  2.90684816E+00  2.96942917E+00  3.05718930E+00
  3.07150651E+00  3.07302910E+00  3.11563078E+00  3.18429941E+00  3.23610606E+00
  3.39852456E+00  3.48303886E+00  3.55763390E+00  3.65043625E+00  3.68332124E+00
  3.87964926E+00  3.92072687E+00  3.97725828E+00  4.03907326E+00  4.07954534E+00
  4.19349843E+00  4.97064994E+00  4.97444812E+00  5.04217962E+00  5.11696699E+00
  5.23658363E+00  5.38927827E+00  5.42707398E+00  5.83889998E+00  5.86189621E+00
  2.37736781E+01  2.38078950E+01  2.38182311E+01  4.98144622E+01  4.98930019E+01
  5.00255553E+01
Alpha MO coefficients                      R   N=       24336
 -1.40906970E-05  5.66879920E-05 -3.69732990E-05  2.64062720E-05 -1.00048456E-04
  6.06693200E-05  6.25705310E-05  8.48450250E-05 -1.00474951E-04 -5.66190075E-03
 -1.33985040E-04 -2.09701110E-03 -1.19870772E-03  1.58100494E-02  5.31653020E-05
  3.40840248E-03  2.24738880E-03  1.70929202E-04  3.12661150E-05 -1.27961766E-04
 -8.88516570E-05 -7.39507370E-05  1.41612570E-05 -5.69572670E-05 -3.70491170E-05
  2.64695410E-05  1.00322748E-04 -6.01923430E-05  6.19261370E-05  8.65397080E-05
  1.02346830E-04  5.68121735E-03 -1.41426716E-04 -2.09307584E-03  1.20417634E-03
 -1.58030231E-02  5.48242020E-05  3.40581374E-03 -2.24612350E-03 -1.70258282E-04
  3.18112040E-05 -1.28430788E-04  8.91744030E-05  7.39591380E-05 -7.13422150E-05
  9.28455214E-04 -3.95841787E-04 -4.26893530E-05  1.43508408E-04  2.22057128E-04
 -1.31493120E-05  1.05162957E-03 -7.87785497E-04  1.78084997E-04  1.13007013E-04
  1.58852090E-04  1.32238800E-05 -1.05289368E-03  7.87466932E-04  1.78690537E-04
  1.13133295E-04 -1.59223567E-04  7.16437830E-05 -9.34435706E-04  3.94485374E-04
 -4.34104850E-05  1.43757866E-04 -2.23110659E-04  3.77010000E-08 -1.47351000E-07
 -9.07669790E-05  2.68017459E-04 -4.33801000E-07  1.07484000E-06  8.62379890E-05
  9.55374200E-06 -2.82579000E-07  1.34122410E-05 -1.13039433E-03  3.14559539E-03
 -1.61467580E-05 -1.22289840E-05  1.25256325E-04  1.19424850E-03  3.07983800E-06
  1.34801300E-06 -5.29985970E-05  3.90236912E-04  7.59570000E-08  5.83180000E-08
  3.91098797E-01  3.33182150E-01  2.94724767E-04 -8.05973392E-04 -3.37478996E-04
  9.94496071E-03  6.75756210E-05 -1.73648691E-04  1.27331454E-04 -8.51771271E-03
 -4.43322334E-04  1.10613646E-03  2.92188069E-04  3.30018125E-03  1.72456159E-04
 -5.15754450E-05 -1.32627647E-03 -6.32280830E-05  2.10646110E-05 -5.10471500E-05
 -3.51483700E-05 -2.02256700E-06 -3.88597413E-01 -3.31050957E-01  2.92602079E-04
 -8.00411493E-04  3.35464993E-04 -9.88229710E-03  6.80425090E-05 -1.74111798E-04
 -1.27285457E-04  8.46063684E-03 -4.40409272E-04  1.09473715E-03 -2.87164280E-04
 -3.29824292E-03  1.73342118E-04 -5.43576430E-05  1.33261569E-03  6.32305610E-05
  2.09252270E-05 -5.08596510E-05  3.56061920E-05  2.31204100E-06 -3.15363000E-07
 -9.93570000E-08  1.33078540E-05  1.29239940E-05 -2.14107000E-07 -1.26323300E-06
 -5.18719200E-05 -3.17119770E-05  1.13636300E-06  4.15094300E-06  3.14056036E-04
 -7.00854367E-04 -9.95261000E-07  5.16138900E-06  1.45004600E-05 -4.02603702E-04
 -8.80733000E-07 -3.20671000E-07 -3.42813420E-05  1.64198345E-04 -6.56120000E-08
 -3.93820000E-08 -1.10332170E-05  4.26460660E-05 -1.03808960E-05  9.97583700E-06
 -4.35191960E-05 -7.54594370E-05 -1.05300660E-04  2.64897783E-04 -2.90338048E-04
 -3.03349125E-03 -1.17944945E-03  6.08676975E-04 -8.53272847E-04 -1.04295818E-03
  2.57450014E-04 -3.91397953E-04 -1.90160769E-04 -1.04396522E-04  8.68651190E-05
 -7.41248670E-05 -5.08132280E-05 -9.88073000E-07 -1.09436340E-05  4.22825480E-05
  1.01330710E-05 -9.80652800E-06 -4.28787660E-05 -7.58505360E-05  1.05726666E-04
 -2.64356363E-04 -2.89674100E-04 -2.99712091E-03  1.17853665E-03 -6.22123379E-04
 -8.45557531E-04 -1.14439509E-03 -2.57112067E-04  4.13258578E-04 -2.04588571E-04
 -1.05496009E-04 -8.66732670E-05  7.33065880E-05 -5.02454000E-05 -5.03583000E-07
 -4.77279690E-05  9.46901430E-04  2.14070784E-04 -1.14704678E-04  4.14750960E-05
  1.66954552E-04 -1.22710080E-05  1.94228574E-04  4.19578240E-05  9.40894040E-05
  1.95015390E-05  5.87692340E-05 -1.21915040E-05  1.87480870E-04  4.70337050E-05
 -9.29380890E-05 -1.87794350E-05  5.77437490E-05 -4.72701560E-05  9.40956219E-04
  2.16583461E-04  1.14440299E-04 -4.05630150E-05  1.65543722E-04 -1.17308420E-05
  4.57287680E-05 -2.90817000E-07  8.58841000E-07  1.35371688E-04 -3.34179513E-04
  2.75854000E-07  3.29570000E-08  8.73817340E-05 -4.17773623E-03 -3.61773300E-06
  1.00904110E-05  5.04095089E-03  3.80837699E-03  4.01840000E-07  3.83574700E-06
 -9.56997315E-04 -4.20306148E-04 -1.70499000E-07  1.24934900E-06 -2.40980730E-05
 -1.79700690E-05 -3.88600485E-01 -3.31089990E-01 -3.31320986E-04  8.63801873E-04
  3.15265676E-04 -9.73480903E-03  7.37439480E-05 -7.24590520E-05 -8.87923900E-06
  8.87053326E-03  4.50629483E-04 -1.77311694E-03 -7.81963855E-04 -2.89290351E-04
  1.36059777E-04 -4.32797814E-04 -9.96355306E-04 -5.57833000E-07 -2.13177950E-05
  2.91722840E-05 -7.14695410E-05 -4.50240020E-05 -3.91101849E-01 -3.33220933E-01
  3.33207904E-04 -8.68956169E-04  3.17405690E-04 -9.79841867E-03 -7.33081030E-05
  7.13462790E-05 -9.67877600E-06  8.92501101E-03 -4.53471976E-04  1.78017837E-03
 -7.83834597E-04 -3.10460380E-04 -1.34954550E-04  4.32459817E-04 -9.87813308E-04
 -1.52630000E-07  2.14534390E-05 -2.94981220E-05 -7.12431780E-05 -4.50106110E-05
  9.89593390E-05  3.14675740E-05  4.22860000E-08  3.98420000E-08  6.61053510E-05
  3.94585693E-04 -1.66076000E-07 -1.00059000E-07 -3.53858299E-04 -1.29854097E-03
  1.00613200E-06 -2.24937200E-06  3.11292658E-04 -1.60920972E-03  4.58010000E-08
 -1.29052500E-06  2.73573376E-04  9.99804940E-05 -1.09812000E-07  5.26458000E-07
  2.04533860E-05  1.23189220E-05 -6.70850500E-06  3.56520750E-05  2.44931390E-05
  9.08159400E-06  2.52816920E-05 -3.85106258E-04 -1.52074190E-04 -1.19099798E-04
 -2.44575378E-04  2.98255669E-04 -1.96180434E-03  7.93077629E-04  9.44534042E-04
 -1.39174802E-03 -4.21911052E-04 -3.06534550E-05 -4.36012686E-04 -3.31773520E-05
  5.15804300E-06  1.33660855E-04  4.13735990E-05  4.63983710E-05 -6.70656300E-06
  3.56436710E-05 -2.45151100E-05 -9.08092800E-06  2.52978270E-05 -3.85103057E-04
  1.52213133E-04  1.19131003E-04 -2.44633504E-04  2.98799652E-04  1.96186287E-03
 -7.93256737E-04  9.44653437E-04 -1.39175988E-03  4.21901030E-04  3.06582760E-05
 -4.35996189E-04 -3.32600630E-05 -5.11264900E-06 -1.33582967E-04  4.14299410E-05
  4.64723520E-05 -4.19868880E-05  5.10241406E-04  8.15360114E-04 -4.03799200E-06
 -2.14686180E-05  1.41777380E-05  8.62292520E-05 -9.43218838E-04 -2.09759178E-04
 -8.52401350E-05 -1.40402038E-04 -1.24214379E-04  8.62325570E-05 -9.43474296E-04
 -2.09735734E-04  8.53350330E-05  1.40482815E-04 -1.24324159E-04 -4.19843940E-05
  5.10246397E-04  8.15382474E-04  4.05927800E-06  2.14926690E-05  1.41822380E-05
 -3.55604290E-05  1.41415874E-04 -1.50000000E-09 -2.85800000E-09  4.37182803E-04
  4.00920698E-04  8.51300000E-09  5.77200000E-09 -1.47005969E-03  5.54330242E-03
  5.11800000E-09 -5.93110000E-08  9.45335716E-03  1.34784785E-03 -1.41420000E-08
 -1.47400000E-08 -1.38769905E-03 -1.07252531E-03  7.48000000E-10 -2.68100000E-09
 -2.05820366E-04 -6.06447730E-05  7.29590810E-05  9.67015430E-05  3.35998300E-06
 -5.27196450E-05  5.06466500E-05 -2.31487489E-04 -1.33816560E-05  2.30826123E-04
 -1.36831800E-04  1.14632899E-03 -7.16377250E-05 -7.83290487E-04 -8.44451987E-04
  1.00782692E-03 -2.19531034E-04  2.13818846E-04 -5.93878290E-04 -8.93461150E-05
 -2.81109130E-05  1.78582231E-04 -2.46376990E-05 -1.10471900E-06  7.29622720E-05
  9.67059600E-05 -3.37140200E-06  5.27087860E-05  5.05984540E-05 -2.31493567E-04
  1.34004910E-05 -2.30815716E-04 -1.36765054E-04  1.14636741E-03  7.15779520E-05
  7.83246675E-04 -8.44535392E-04  1.00783048E-03  2.19560575E-04 -2.13798461E-04
 -5.93885616E-04 -8.93597950E-05  2.81188960E-05 -1.78563696E-04 -2.46275480E-05
 -1.10393600E-06  5.51302762E-01  4.69679509E-01 -5.00000000E-12  5.84000000E-10
 -1.26581225E-03  1.42332437E-02 -2.10000000E-09 -8.44000000E-10 -9.55658667E-04
 -1.26614776E-02  2.76000000E-10  9.31200000E-09  2.69973452E-03 -1.38887030E-03
  7.86600000E-09  1.06100000E-08  1.37911428E-03  3.58378694E-04  1.30200000E-09
 -1.06800000E-09  8.80130000E-07  1.82822700E-06 -4.96302300E-06 -1.91410750E-05
  2.11769800E-05 -6.48169180E-05 -1.08353776E-04 -1.01527198E-04 -1.49946191E-04
  1.84351141E-04  4.02588903E-04 -4.16728850E-04 -2.12445971E-03  4.66040200E-05
  3.54920600E-05  7.12499800E-03 -4.08240930E-05 -1.67366751E-04  2.05635147E-03
  1.81374861E-04  6.76317640E-05  1.44784309E-04  2.61677960E-05  8.96718830E-05
 -4.97308800E-06 -1.91407080E-05 -2.11781470E-05  6.48188980E-05 -1.08352826E-04
 -1.01544799E-04  1.49952892E-04 -1.84350734E-04  4.02584269E-04 -4.16529870E-04
  2.12448517E-03 -4.66702550E-05  3.55575950E-05  7.12498681E-03  4.08394780E-05
  1.67376946E-04  2.05638620E-03  1.81373724E-04 -6.76291230E-05 -1.44784421E-04
  2.61713440E-05  8.96762780E-05 -4.71734410E-05  8.41611942E-04 -6.08334952E-04
 -6.15203470E-05  1.42714300E-05  1.13436854E-04  9.69167950E-05 -8.64637173E-04
 -1.76464031E-03 -5.23423700E-05 -1.45113162E-04 -1.74544605E-04  9.69332700E-05
 -8.64702904E-04 -1.76463743E-03  5.23530900E-05  1.45118696E-04 -1.74550346E-04
 -4.71743270E-05  8.41603906E-04 -6.08296519E-04  6.15114570E-05 -1.42697430E-05
  1.13444069E-04  5.63062824E-01  4.63308478E-01  4.88000000E-10 -2.80000000E-11
 -8.21824281E-04  1.87468277E-02  1.87100000E-09  1.13900000E-09  2.55745370E-03
 -1.13367926E-02  2.11700000E-09 -1.70090000E-08  5.88323743E-03 -1.61464126E-02
  1.03760000E-08 -5.09100000E-09  7.29824643E-03  2.30106681E-03  4.37700000E-09
 -1.92000000E-10 -4.50039788E-04 -1.91148569E-04 -3.16718670E-05 -7.33171870E-05
  5.49789960E-05 -2.07840947E-04  8.11514640E-05  6.95034733E-04 -5.47586260E-05
  2.73526868E-04  1.69229060E-05 -1.05127836E-03 -4.09071052E-04  4.77062342E-04
 -7.16044512E-04  7.08279503E-03  5.93049183E-04 -2.99978524E-03  5.88435852E-04
  1.26832660E-05 -4.15141350E-05  3.35086731E-04  3.30238960E-04  2.11554302E-04
 -3.16715350E-05 -7.33175900E-05 -5.49790590E-05  2.07840417E-04  8.11512880E-05
  6.95030094E-04  5.47603120E-05 -2.73525630E-04  1.69235260E-05 -1.05123590E-03
  4.09057124E-04 -4.77060283E-04 -7.16069693E-04  7.08280174E-03 -5.93035431E-04
  2.99977528E-03  5.88417755E-04  1.26828910E-05  4.15146490E-05 -3.35087294E-04
  3.30239476E-04  2.11553356E-04 -1.12697949E-04 -6.39482730E-05 -1.02000000E-10
  2.63000000E-10 -5.43765833E-04  3.75335102E-04  2.80000000E-10 -9.53000000E-10
  1.94763518E-03 -7.55488002E-03  4.35400000E-09  2.33700000E-09  3.85524885E-03
  1.76977578E-03 -3.50200000E-09 -5.55000000E-10 -3.13564695E-03 -1.16182040E-03
 -1.11400000E-09  3.02000000E-10  3.34572930E-05  1.76359520E-05 -3.98111513E-01
 -3.27569512E-01 -1.50739189E-04 -3.78186105E-04 -6.92476815E-04 -1.36901338E-02
  1.85984227E-04  1.61058670E-03  1.22115247E-03  7.93317472E-03 -9.87434025E-04
  5.01712090E-05  1.82986374E-03  2.92895485E-03 -2.99039147E-04 -4.49491533E-04
  3.22330051E-04  2.41242750E-04  4.26460349E-04 -6.24911233E-04 -1.06842996E-03
 -1.34602560E-05 -3.98111195E-01 -3.27569250E-01  1.50746837E-04  3.78186153E-04
 -6.92473769E-04 -1.36901340E-02 -1.86007694E-04 -1.61058588E-03  1.22114605E-03
  7.93328045E-03  9.87465786E-04 -5.02074880E-05  1.82992251E-03  2.92889230E-03
  2.99048443E-04  4.49507854E-04  3.22348016E-04  2.41235992E-04 -4.26477452E-04
  6.24912046E-04 -1.06842478E-03 -1.34543630E-05  1.89633460E-05  3.12431440E-03
 -1.86255165E-03 -1.42199241E-03  6.81063269E-04  1.03307040E-03  6.26271900E-05
  2.10534674E-03 -2.90339721E-03  1.57012594E-03  5.10029151E-04  2.41911712E-04
  6.26320160E-05  2.10530675E-03 -2.90338831E-03 -1.57012622E-03 -5.10014211E-04
  2.41893681E-04  1.89620530E-05  3.12432249E-03 -1.86252262E-03  1.42198081E-03
 -6.81075674E-04  1.03308083E-03 -5.33627600E-06 -2.26690200E-06  1.17000000E-10
  2.41900000E-09 -1.59863323E-04  2.42492376E-04  1.21900000E-09 -1.04000000E-10
  5.68837855E-04  3.56408704E-03  2.76600000E-09 -6.16200000E-09  3.77549093E-03
  2.07471098E-04 -2.68500000E-09  4.57000000E-10 -7.98248018E-04 -1.94083130E-04
 -1.00100000E-09 -1.22700000E-09  2.17636570E-05  2.03917880E-05  1.54839730E-05
  5.00072410E-05 -3.55884820E-05  3.92640460E-05  7.35514940E-05 -4.36812673E-04
  5.76444710E-05 -8.45621250E-05  1.36115524E-04  9.27146423E-04 -1.01837946E-04
 -2.01443200E-06 -7.01762305E-04 -4.42109595E-03 -4.37673898E-04  3.22933081E-04
  2.47309525E-03  1.54070091E-04 -6.29899290E-05  5.23978230E-05 -7.76962000E-07
 -3.65776330E-05  1.54865100E-05  5.00041710E-05  3.55883400E-05 -3.92663240E-05
  7.35530850E-05 -4.36819724E-04 -5.76384170E-05  8.45632340E-05  1.36115053E-04
  9.27186191E-04  1.01823616E-04  2.02004800E-06 -7.01781977E-04 -4.42109059E-03
  4.37694655E-04 -3.22937407E-04  2.47308602E-03  1.54071886E-04  6.29898840E-05
 -5.23975560E-05 -7.76918000E-07 -3.65770910E-05 -4.34396300E-06 -4.00857340E-05
 -7.80000000E-11 -8.50000000E-11  3.45914500E-06  4.68055799E-04  6.90000000E-11
  8.70000000E-11 -4.58631580E-05 -2.94338419E-03  7.95000000E-10  1.28900000E-09
  1.24001247E-03 -3.43775788E-03 -5.20000000E-11 -2.45900000E-09  1.40665204E-03
 -4.99176040E-05 -7.10000000E-11 -2.80000000E-10 -8.32080000E-07  3.93423800E-06
 -3.98125252E-01 -3.27607739E-01 -1.46955356E-04  3.02974844E-04 -7.20343081E-04
 -1.32806851E-02  2.35661864E-04  1.85535170E-05  1.16300490E-03  1.38304725E-02
  4.68204992E-04  1.96372247E-03  1.60244001E-03  2.84147766E-02  9.55018870E-05
  5.77519886E-03  1.90058537E-03  7.05197092E-04  2.46329218E-04 -4.42226903E-04
  1.12489590E-05 -1.16864351E-04  3.98125571E-01  3.27608001E-01 -1.46963482E-04
  3.02974987E-04  7.20340469E-04  1.32806990E-02  2.35686304E-04  1.85531210E-05
 -1.16299807E-03 -1.38304770E-02  4.68044037E-04  1.96373085E-03 -1.60246700E-03
 -2.84147170E-02  9.54675790E-05  5.77519193E-03 -1.90057428E-03 -7.05194201E-04
  2.46343154E-04 -4.42227737E-04 -1.12499930E-05  1.16853322E-04 -7.78235830E-05
  1.55214469E-03 -3.00270930E-03 -1.03883147E-03  4.50017381E-04  6.77645199E-04
 -1.06992511E-04  1.71168337E-03 -3.03929920E-03  1.25836001E-03  4.63394072E-04
  2.01318810E-04  1.06987717E-04 -1.71162757E-03  3.03934272E-03  1.25836169E-03
  4.63387889E-04 -2.01301371E-04  7.78285880E-05 -1.55219760E-03  3.00266312E-03
 -1.03882497E-03  4.50022858E-04 -6.77660879E-04  1.01590000E-08 -3.74600000E-09
  4.00800710E-05 -3.97512800E-05 -1.28730000E-08  8.48000000E-10 -1.66607919E-04
  1.68047511E-04  2.35880000E-08 -2.80940000E-08  7.03347432E-04 -4.52276851E-04
 -6.65990000E-08 -7.21110000E-08 -3.53987530E-05  2.52980965E-03  2.29190000E-08
  3.76200000E-09 -3.90255340E-05 -1.81979035E-04  1.56400000E-09 -1.64200000E-09
 -1.76586520E-05 -5.90007170E-05  1.68482890E-05 -2.97673760E-05 -5.77827850E-05
  4.33634965E-04  2.02599510E-05 -7.30355800E-06 -1.75911250E-04  1.43039065E-04
 -3.79985160E-05  5.61371870E-05 -9.74613560E-05  7.71488713E-03  6.02549378E-04
 -1.81563697E-03 -2.47964074E-03 -8.56751280E-05  3.17700740E-05 -4.39821510E-05
  6.75462430E-05  3.68378010E-05  1.76616150E-05  5.89960890E-05  1.68461640E-05
 -2.97666970E-05  5.77819520E-05 -4.33632664E-04  2.02679850E-05 -7.30125100E-06
  1.75910879E-04 -1.43058540E-04 -3.80219490E-05  5.61340810E-05  9.74741310E-05
 -7.71491088E-03  6.02569249E-04 -1.81563841E-03  2.47964816E-03  8.56746000E-05
  3.17700510E-05 -4.39805740E-05 -6.75471480E-05 -3.68383990E-05  2.10000000E-11
  6.54000000E-10 -1.53861260E-05  9.22560000E-06 -8.45000000E-10 -5.76900000E-09
  5.77397040E-05 -3.76199720E-05  6.14600000E-09  1.97620000E-08 -1.59852706E-04
  2.64695124E-04 -5.20200000E-09  6.37620000E-08 -2.03750871E-04 -5.20957852E-04
 -2.60470000E-08 -2.09900000E-09 -1.36651600E-06 -2.97395940E-05 -5.30000000E-11
  1.04000000E-10  2.35728933E-02  3.60904614E-02 -3.27240240E-03 -3.09694724E-03
 -2.48288756E-02 -9.07014379E-02 -6.23282659E-03 -1.00286301E-02 -4.32572116E-02
 -1.97398946E-02  2.94265377E-03 -5.49316809E-03 -2.15201423E-03  1.10624831E-02
 -7.02558835E-04  2.16182998E-03  3.00294759E-03 -1.19472547E-02 -3.97410304E-03
  1.09614644E-03  3.76739010E-03  7.19183236E-04  2.35728836E-02  3.60904458E-02
  3.27225356E-03  3.09692557E-03 -2.48288881E-02 -9.07013911E-02  6.23231853E-03
  1.00286121E-02 -4.32572349E-02 -1.97400171E-02 -2.94263394E-03  5.49338821E-03
 -2.15191234E-03  1.10636476E-02  7.02645276E-04 -2.16212975E-03  3.00305079E-03
 -1.19472284E-02  3.97401522E-03 -1.09623905E-03  3.76738475E-03  7.19022790E-04
 -6.67763661E-03 -1.35834771E-02  9.42330487E-04  2.55035677E-03 -1.51707548E-03
 -3.32636334E-03 -7.81860999E-03 -1.28721255E-02  1.20799672E-03 -3.99501578E-03
 -1.79036496E-03 -1.77694443E-03 -7.81872997E-03 -1.28720060E-02  1.20780841E-03
  3.99494512E-03  1.79029833E-03 -1.77678243E-03 -6.67749847E-03 -1.35836387E-02
  9.42488487E-04 -2.55033891E-03  1.51703735E-03 -3.32658686E-03  6.46657802E-02
  9.91523019E-02  2.41000000E-08  1.91610000E-08  1.56340228E-02 -2.61653951E-01
  4.70460000E-08  1.17900000E-08  3.60208510E-02 -6.65827650E-02  1.32600000E-08
 -1.40570000E-08  9.07460405E-03 -4.95944118E-02  1.88020000E-08 -2.54160000E-08
  1.66081799E-02 -1.60126893E-02 -4.55980000E-08 -1.34020000E-08  1.34630961E-02
  7.42432322E-03  6.68283996E-02  1.06797106E-01 -1.23998571E-02  3.71837274E-02
  2.25530879E-03 -3.07593423E-01 -2.00195326E-02  5.93924470E-02  3.65132454E-03
 -2.19082725E-01 -9.24131213E-03  2.80258620E-02  7.37434960E-03  3.47059035E-02
  2.51214571E-03 -8.89082272E-03  4.32288138E-03 -2.09929848E-03  2.86457450E-04
  2.61121017E-03  5.37366978E-03  3.65022545E-03  6.68284396E-02  1.06797181E-01
  1.23999493E-02 -3.71837299E-02  2.25533967E-03 -3.07593636E-01  2.00196891E-02
 -5.93924220E-02  3.65126314E-03 -2.19082816E-01  9.24141001E-03 -2.80258642E-02
  7.37429800E-03  3.47061096E-02 -2.51219433E-03  8.89083348E-03  4.32278847E-03
 -2.09928540E-03 -2.86499366E-04 -2.61123688E-03  5.37365253E-03  3.65023406E-03
  3.37691699E-02  5.37550694E-02  1.97560000E-08 -3.51300000E-09  3.04386275E-02
 -1.52670107E-01  3.24920000E-08  1.10800000E-09  4.43327108E-02 -9.74597585E-02
  1.06870000E-08  1.50400000E-09  1.74712432E-02  4.97328969E-03  6.38000000E-10
 -4.01300000E-09 -1.70164824E-03 -6.66021737E-03 -9.02100000E-09  8.13000000E-10
 -6.24324902E-04 -3.00988725E-04  2.27742900E-02  3.51037899E-02 -6.83359935E-03
  1.28509771E-02 -2.90495198E-02 -9.20201230E-02 -1.14366715E-02  1.83476059E-02
 -5.19970137E-02  3.06571286E-03 -1.50001747E-03  1.76859947E-02  3.54976120E-05
 -1.59372376E-01 -7.37409349E-04 -3.43440663E-02 -1.83771882E-02 -1.76632665E-02
 -5.51597895E-03  5.64888458E-03 -1.30898637E-03  9.00246011E-04 -2.27741658E-02
 -3.51036061E-02 -6.83335107E-03  1.28510518E-02  2.90494600E-02  9.20196716E-02
 -1.14363512E-02  1.83477606E-02  5.19968609E-02 -3.06559259E-03 -1.50074162E-03
  1.76861630E-02 -3.56065480E-05  1.59372239E-01 -7.37472409E-04 -3.43440235E-02
  1.83771892E-02  1.76632562E-02 -5.51577087E-03  5.64892793E-03  1.30901008E-03
 -9.00193667E-04 -9.19869289E-03 -1.81731154E-02  7.65162272E-03  2.76384843E-03
 -1.90793086E-03 -3.85981020E-03 -8.75444114E-03 -1.83400569E-02  9.69947042E-03
 -4.18239705E-03 -1.66565991E-03 -1.94254173E-03  8.75450192E-03  1.83402178E-02
 -9.69921999E-03 -4.18240819E-03 -1.66561953E-03  1.94242045E-03  9.19858556E-03
  1.81725547E-02 -7.65177105E-03  2.76375888E-03 -1.90787606E-03  3.85978476E-03
 -1.63727000E-07 -2.45015000E-07 -1.82256804E-02  7.23068766E-02  4.45120000E-07
  6.64864000E-07 -2.68598994E-02  1.06025478E-01  5.58748000E-07  9.41840000E-08
  4.42406811E-03 -1.06842875E-02 -2.04137000E-07  1.87466000E-07 -1.29623763E-03
 -9.56586511E-03 -6.79080000E-08  6.11940000E-08  7.40031360E-03 -3.11827781E-02
  1.63380000E-08 -3.13330000E-08 -8.33735948E-02 -1.33562200E-01  1.12035121E-02
 -2.67353558E-02 -8.59495503E-03  3.88459526E-01  1.78561075E-02 -4.23501567E-02
 -1.61036180E-02  3.01521767E-01  9.72888895E-03 -2.40467522E-02 -1.10905774E-02
 -2.82408936E-02 -1.63433129E-03  1.43665660E-03  1.36482243E-02  4.64933852E-03
 -8.20520429E-04 -1.88752939E-03 -2.79846183E-03 -2.32474715E-03  8.33737567E-02
  1.33562456E-01  1.12036647E-02 -2.67354014E-02  8.59501951E-03 -3.88460262E-01
  1.78563432E-02 -4.23502080E-02  1.61037666E-02 -3.01522486E-01  9.72897373E-03
 -2.40468271E-02  1.10907156E-02  2.82407725E-02 -1.63453644E-03  1.43670503E-03
 -1.36480330E-02 -4.64933561E-03 -8.20594249E-04 -1.88753158E-03  2.79845712E-03
  2.32477294E-03 -3.54215000E-07 -5.65877000E-07 -2.06992906E-03  7.95063434E-03
 -2.63467000E-07  1.61678800E-06 -3.35542427E-03  1.41189782E-02 -3.83802000E-07
  1.18219000E-06 -3.16895922E-03  9.66068013E-03 -1.48773000E-07 -7.77450000E-08
  5.45142761E-04  1.08595350E-03  3.68640000E-08  5.70570000E-08  1.22180894E-03
 -5.03753686E-03  4.11800000E-09 -1.89100000E-09  1.77835280E-02  2.73084534E-02
 -2.37208780E-03 -2.81100764E-03 -1.57388535E-02 -6.87928055E-02 -3.95080483E-03
 -6.49001149E-03 -2.57564822E-02 -2.60382180E-02  9.46234066E-03 -7.32889995E-03
 -8.41345705E-03  1.50539786E-02  3.08974788E-03  1.18718170E-03  4.40263990E-03
 -6.09945804E-03 -2.50283030E-03  5.69250329E-04  2.35319057E-03  3.50265336E-04
  1.77836882E-02  2.73086944E-02  2.37193375E-03  2.81094457E-03 -1.57390611E-02
 -6.87933671E-02  3.95102308E-03  6.48970697E-03 -2.57568687E-02 -2.60388971E-02
 -9.46215776E-03  7.32872610E-03 -8.41413849E-03  1.50530945E-02 -3.08972551E-03
 -1.18696199E-03  4.40249401E-03 -6.09969953E-03  2.50283945E-03 -5.69065125E-04
  2.35320840E-03  3.50506314E-04 -6.27996391E-03 -1.18998578E-02 -4.05568079E-03
  1.83415945E-03 -1.05243529E-03 -2.02155385E-03 -7.09800619E-03 -6.32857190E-03
  2.32871860E-03 -2.38686181E-03 -7.70886892E-04 -7.14259279E-04 -7.09817231E-03
 -6.32894367E-03  2.32859723E-03  2.38701935E-03  7.71076038E-04 -7.14361352E-04
 -6.27992049E-03 -1.18996188E-02 -4.05580184E-03 -1.83404009E-03  1.05254151E-03
 -2.02130320E-03 -4.30870825E-02 -6.48258900E-02  1.59029000E-07 -2.66460000E-07
  1.22528012E-01  1.79940616E-01  2.37650000E-07 -3.92901000E-07  1.52500812E-01
  1.97553283E-02 -6.12320000E-08  7.96760000E-08 -1.72081715E-02 -2.71744394E-02
  1.75910000E-08 -1.69300000E-08  2.76151786E-02  2.10030613E-02 -1.47670000E-08
  1.08572000E-07  3.57516045E-03  1.57598879E-03  2.82412857E-02  4.52037539E-02
 -4.84989047E-03  1.16637648E-02  1.93789817E-02 -1.29702059E-01 -7.96173942E-03
  1.84729237E-02  3.03811332E-02 -1.09501878E-01 -4.28790448E-03  1.58883980E-02
  1.77599767E-02  1.64793386E-02  3.35258403E-03 -8.34056699E-03  1.67001941E-03
  2.19896973E-04  1.19664621E-03 -2.13125022E-03  2.69122823E-03  1.81310079E-03
  2.82407148E-02  4.52028337E-02  4.84990037E-03 -1.16635905E-02  1.93789041E-02
 -1.29699338E-01  7.96176343E-03 -1.84726127E-02  3.03809946E-02 -1.09500205E-01
  4.28786322E-03 -1.58883248E-02  1.77601661E-02  1.64786617E-02 -3.35243269E-03
  8.34055058E-03  1.67030932E-03  2.19923653E-04 -1.19665867E-03  2.13125938E-03
  2.69120691E-03  1.81309928E-03 -1.00814538E-01 -1.61183786E-01 -3.93810000E-08
 -9.15400000E-09 -7.59486510E-02  4.62036581E-01 -5.37930000E-08 -2.25000000E-08
 -1.10790980E-01  3.19106500E-01 -5.92000000E-10 -3.39050000E-08 -3.75529372E-02
 -1.77064244E-02 -1.75680000E-08  2.44380000E-08 -4.01411292E-03  1.76618569E-02
  1.11840000E-08  1.19120000E-08  1.06569765E-03  4.74652633E-04 -7.47321967E-02
 -1.16387307E-01  2.84019302E-04  2.54864833E-02 -1.17117295E-02  3.13458017E-01
  3.05856160E-03  4.50011329E-02 -6.49309672E-03  1.89868113E-01 -1.84624961E-04
  1.19448800E-02 -2.13042892E-03  2.53654166E-02 -3.93147143E-04 -4.28545648E-03
  4.90351503E-03 -4.00911200E-03  9.79979900E-04 -1.81630790E-03 -7.43522660E-03
 -5.80945553E-04 -7.47321829E-02 -1.16387284E-01 -2.83679754E-04 -2.54864680E-02
 -1.17116319E-02  3.13457953E-01 -3.05814477E-03 -4.50012308E-02 -6.49300371E-03
  1.89868068E-01  1.84922893E-04 -1.19449116E-02 -2.13032874E-03  2.53675753E-02
  3.93227950E-04  4.28491034E-03  4.90369781E-03 -4.00913037E-03 -9.79839377E-04
  1.81640182E-03 -7.43528116E-03 -5.80905162E-04  5.34402518E-02  6.21820648E-02
 -5.13143503E-03 -8.68992953E-03  6.08169973E-03  5.56403484E-03  5.07511086E-02
  5.92562146E-02 -7.66375635E-03  1.01937434E-02  5.66078688E-03  1.54380682E-03
  5.07512116E-02  5.92563154E-02 -7.66392930E-03 -1.01938330E-02 -5.66073737E-03
  1.54369014E-03  5.34401027E-02  6.21820704E-02 -5.13144805E-03  8.68988449E-03
 -6.08171224E-03  5.56411024E-03  3.14994807E-02  5.01007073E-02  2.11730000E-08
  2.41800000E-08  5.86891430E-02 -1.47899731E-01  3.39280000E-08  3.36890000E-08
  8.77777632E-02 -7.12860411E-02  1.30550000E-08  2.58400000E-08  2.62337008E-02
 -2.89282340E-02 -8.06100000E-09 -5.60150000E-08  8.04864501E-03  1.34622669E-02
  7.81400000E-09 -2.37140000E-08  1.33011937E-02  8.05939290E-03  1.87735364E-02
  3.03802089E-02 -2.05032811E-03  2.34808484E-02 -6.33422879E-02 -9.26693364E-02
 -3.31437763E-03  3.63189889E-02 -9.52852492E-02 -7.45091336E-02 -1.21337654E-03
  1.55027108E-02 -4.51961946E-02 -9.91683618E-03 -4.52919759E-04 -3.23929978E-03
  1.53422432E-02  6.18968983E-03 -3.00003626E-03  7.92663457E-03  3.25954883E-03
  1.60643254E-03  1.87735617E-02  3.03802449E-02  2.05008114E-03 -2.34808030E-02
 -6.33424549E-02 -9.26694626E-02  3.31407029E-03 -3.63190416E-02 -9.52854080E-02
 -7.45092551E-02  1.21316827E-03 -1.55027139E-02 -4.51962548E-02 -9.91661147E-03
  4.53041666E-04  3.23936675E-03  1.53422413E-02  6.18965452E-03  3.00005177E-03
 -7.92663477E-03  3.25957439E-03  1.60640671E-03 -2.45445073E-02 -3.94532444E-02
 -4.47100000E-09 -1.05720000E-08 -3.10916612E-03  1.15158934E-01 -8.64600000E-09
 -1.19920000E-08 -8.26985454E-04  8.59404278E-02 -5.00700000E-09 -1.97830000E-08
  2.10179873E-03 -4.54328818E-03 -1.38450000E-08  9.66900000E-09  1.81462878E-03
  6.33069435E-04  1.56300000E-09 -1.29400000E-09  1.79961523E-04  7.62800130E-05
  5.98027936E-02  9.36661583E-02 -2.58431290E-03  5.01592146E-02 -3.91779214E-03
 -2.57890820E-01 -6.51899579E-03  7.62795139E-02 -1.72482083E-02 -1.70466451E-01
  1.40997958E-03  2.79461263E-02  1.83712681E-03 -1.21919037E-01 -7.43718896E-04
 -2.03710747E-02 -1.50296637E-02 -9.05588778E-03 -1.30985597E-03  3.74555649E-03
 -8.19549860E-03  1.61578040E-03 -5.98028504E-02 -9.36662479E-02 -2.58387613E-03
  5.01591697E-02  3.91782341E-03  2.57891068E-01 -6.51830349E-03  7.62794642E-02
  1.72482792E-02  1.70466577E-01  1.41014087E-03  2.79461168E-02 -1.83716246E-03
  1.21919031E-01 -7.43741483E-04 -2.03710414E-02  1.50296955E-02  9.05591267E-03
 -1.30974809E-03  3.74554877E-03  8.19542121E-03 -1.61567493E-03 -6.13242634E-02
 -7.62648219E-02 -2.38711549E-03  8.62591110E-03 -2.71861507E-03 -6.24357303E-03
 -5.85111953E-02 -7.24487383E-02  2.04839686E-03 -1.06108248E-02 -2.22832506E-03
 -2.25148769E-03  5.85112890E-02  7.24487352E-02 -2.04828359E-03 -1.06108145E-02
 -2.22831835E-03  2.25140266E-03  6.13243013E-02  7.62649452E-02  2.38696271E-03
  8.62584032E-03 -2.71869832E-03  6.24372124E-03 -1.41140000E-08 -1.64650000E-08
  3.36767142E-02 -1.00606238E-01 -7.35650000E-08  4.32680000E-08  5.12302077E-02
 -1.52734923E-01 -9.04910000E-08 -3.54370000E-08  1.26349584E-02 -2.30257542E-02
 -8.06530000E-08  3.91460000E-08  4.90647447E-03 -1.93928434E-02 -5.40710000E-08
  3.84810000E-08 -6.66761882E-03  1.56078825E-02  4.89700000E-09  1.62710000E-08
  1.25605598E-02  2.03636768E-02  6.03154049E-03  3.48242150E-02 -1.04047118E-01
 -6.24175565E-02  9.10412923E-03  5.08127316E-02 -1.53869398E-01 -5.25280297E-02
  7.52339621E-03  2.78998112E-02 -9.20502113E-02 -2.90738581E-02 -4.31683267E-03
  8.73544667E-04  1.64799141E-02  5.48985143E-03 -4.22392877E-03  8.02545234E-03
  3.45458158E-03  4.87147527E-04 -1.25604914E-02 -2.03635636E-02  6.03177469E-03
  3.48243381E-02  1.04047106E-01  6.24171812E-02  9.10447744E-03  5.08129517E-02
  1.53869384E-01  5.25277783E-02  7.52358870E-03  2.78999279E-02  9.20501737E-02
  2.90737920E-02 -4.31696862E-03  8.73551231E-04 -1.64798831E-02 -5.48986061E-03
 -4.22399171E-03  8.02543287E-03 -3.45459943E-03 -4.87145465E-04 -8.09700000E-09
 -1.32920000E-08  9.80821940E-03 -2.92736590E-02  1.14200000E-09  4.31650000E-08
  1.49598935E-02 -4.31708794E-02  3.92000000E-10  5.82810000E-08  8.82060821E-03
 -2.76484839E-02 -2.14390000E-08  5.83720000E-08 -1.56236049E-03  2.74177938E-03
  5.68000000E-10  2.95200000E-09 -2.49914455E-03  6.75230134E-03 -5.55000000E-10
  4.86100000E-09 -1.72491463E-02 -2.64638648E-02 -1.80528618E-02  6.86509875E-02
 -5.60703613E-02  6.98833879E-02 -2.71166919E-02  1.03986728E-01 -8.69904385E-02
  6.01814061E-02 -1.25935733E-02  4.99965673E-02 -2.79471472E-02 -4.66458520E-02
 -7.89611407E-03  2.95334239E-03 -1.52475584E-02 -1.22277958E-02 -7.75929971E-03
  1.40419907E-02 -4.22835216E-03  4.55441862E-03 -1.72490768E-02 -2.64637652E-02
  1.80521996E-02 -6.86511775E-02 -5.60703342E-02  6.98830560E-02  2.71155257E-02
 -1.03986659E-01 -8.69906160E-02  6.01827782E-02  1.25930689E-02 -4.99969996E-02
 -2.79469831E-02 -4.66464769E-02  7.89605699E-03 -2.95322801E-03 -1.52473661E-02
 -1.22277676E-02  7.75926429E-03 -1.40422430E-02 -4.22818348E-03  4.55418560E-03
  1.21815147E-02  1.41777821E-02  9.49133710E-03 -9.64071534E-04  3.55407507E-03
 -1.48182753E-03  1.92157889E-02  2.27022086E-02  1.01951842E-02  1.48341255E-03
  4.44969571E-03 -1.60237349E-03  1.92153006E-02  2.27012347E-02  1.01952697E-02
 -1.48330649E-03 -4.44962380E-03 -1.60241357E-03  1.21818751E-02  1.41774654E-02
  9.49180827E-03  9.63830880E-04 -3.55401618E-03 -1.48191242E-03 -5.78635413E-02
 -9.20033323E-02 -8.66640000E-08  3.19110000E-08 -6.98371556E-02  2.71797327E-01
 -1.33233000E-07  6.82740000E-08 -1.06649904E-01  2.10303890E-01 -1.30055000E-07
  2.82110000E-08 -9.48296989E-02  8.16459965E-02 -1.33611000E-07 -1.42230000E-08
 -4.46508174E-02  4.90183810E-03  3.14670000E-08  8.24400000E-09 -8.36257240E-03
 -5.79614772E-03  3.54134635E-02  5.75085193E-02  1.74617994E-02 -9.83463814E-02
  8.40991009E-02 -1.75187369E-01  2.44690533E-02 -1.42251401E-01  1.24806136E-01
 -1.98425589E-01  1.47066907E-02 -8.61157970E-02  7.57545320E-02 -6.66828717E-02
 -7.10345405E-03  2.67985055E-02 -1.41677043E-02 -9.48940999E-03  2.77610369E-03
 -4.20929312E-03 -8.05964414E-03 -4.58575443E-03  3.54134905E-02  5.75085554E-02
 -1.74616299E-02  9.83465185E-02  8.40990772E-02 -1.75187532E-01 -2.44687244E-02
  1.42251494E-01  1.24806135E-01 -1.98425411E-01 -1.47066020E-02  8.61159593E-02
  7.57543336E-02 -6.66823247E-02  7.10337774E-03 -2.67984360E-02 -1.41678716E-02
 -9.48938301E-03 -2.77614810E-03  4.20929013E-03 -8.05963105E-03 -4.58579020E-03
  2.56700081E-02  4.17506407E-02 -3.97440000E-08  2.19550000E-08 -2.68744199E-02
 -1.26879678E-01 -4.01570000E-08  1.95320000E-08 -3.51162074E-02 -1.05941517E-01
 -4.13410000E-08  1.55720000E-08 -3.04551551E-02  4.33063729E-02  5.74390000E-08
 -3.81200000E-09 -9.42676109E-03  1.33145918E-03  6.07800000E-09 -1.92100000E-09
  4.75655260E-05  4.29040180E-05 -1.21091805E-02 -1.88630412E-02 -1.13734422E-01
 -1.20044190E-02 -1.73283465E-02  4.64764397E-02 -1.68108790E-01 -1.79701409E-02
 -2.61934143E-02  1.02751429E-01 -1.12998712E-01  8.59585065E-03  1.00468317E-02
 -1.26995620E-01 -8.77611886E-03 -3.39253964E-02 -2.38426705E-03 -4.99455143E-03
 -7.48656792E-03  3.44645511E-03  4.01896331E-03  5.76068650E-04  1.21089639E-02
  1.88627003E-02 -1.13734313E-01 -1.20035217E-02  1.73278397E-02 -4.64753600E-02
 -1.68108615E-01 -1.79691026E-02  2.61929258E-02 -1.02750909E-01 -1.12999181E-01
  8.59681105E-03 -1.00479200E-02  1.26995416E-01 -8.77625078E-03 -3.39249855E-02
  2.38397046E-03  4.99475380E-03 -7.48675300E-03  3.44652353E-03 -4.01923036E-03
 -5.75965896E-04 -3.35088967E-02 -4.00960140E-02  1.28905158E-02 -6.38852773E-04
 -4.25181199E-03 -4.55946287E-03  9.09481315E-02  9.68356975E-02  2.13788466E-02
  6.34859149E-03  4.34611433E-03  7.61615381E-04 -9.09478554E-02 -9.68348857E-02
 -2.13787469E-02  6.34851332E-03  4.34600206E-03 -7.61525405E-04  3.35088049E-02
  4.00961147E-02 -1.28910678E-02 -6.38827438E-04 -4.25187940E-03  4.55960119E-03
  6.04790000E-08  9.77610000E-08 -5.41886921E-02 -7.01845409E-02  2.54426000E-07
 -3.09520000E-07 -8.44473998E-02 -1.09611839E-01  3.76843000E-07 -2.45080000E-08
 -5.74830274E-02 -3.29664984E-02 -1.24064000E-07  1.98382000E-07 -1.79766765E-02
 -1.61094623E-02  7.21000000E-10 -1.76520000E-07  9.85589317E-03  6.66342410E-03
 -4.47870000E-08 -3.74080000E-08 -7.27794324E-03 -1.17407628E-02 -8.92015724E-02
  2.64151845E-04 -5.42554633E-02  3.41158695E-02 -1.32274917E-01 -3.71338912E-04
 -7.90589530E-02  5.54941039E-02 -1.00607474E-01 -9.72890870E-03 -6.27627691E-02
  3.33416253E-03  1.77880253E-02  9.14949781E-03  1.29171466E-03  2.89584081E-03
  2.28659419E-03  5.00673269E-03 -4.30358474E-03  8.42158535E-03  7.27762423E-03
  1.17402544E-02 -8.92011196E-02  2.63215207E-04  5.42561210E-02 -3.41143229E-02
 -1.32274258E-01 -3.72722268E-04  7.90599717E-02 -5.54920557E-02 -1.00606971E-01
 -9.72991602E-03  6.27632064E-02 -3.33358059E-03  1.77879508E-02  9.14959572E-03
 -1.29162628E-03 -2.89585702E-03  2.28650095E-03  5.00681966E-03  4.30368763E-03
 -8.42149921E-03  5.09580000E-08  8.03420000E-08 -2.59385095E-02 -3.30039566E-02
 -6.50030000E-08 -2.26009000E-07 -4.01525493E-02 -4.88685983E-02 -1.32369000E-07
 -1.99204000E-07 -2.45317254E-02 -3.40052164E-02 -3.81420000E-08 -2.98380000E-08
  9.33769992E-03  4.31679840E-03 -4.38610000E-08  1.53890000E-08  5.66789505E-03
  6.03991634E-03  2.04700000E-09  1.31900000E-09 -2.96240665E-03 -4.37454828E-03
  4.37387198E-03 -7.13822561E-02 -9.63002434E-02  9.85509761E-03  3.48030836E-03
 -1.06424059E-01 -1.51274051E-01  3.80189317E-03  1.16877017E-02 -6.24598794E-02
 -9.08947651E-02  2.54120772E-02  1.26092674E-02 -4.19875903E-03  4.16208665E-03
 -1.53549340E-02 -6.58976613E-03 -9.14841245E-03  9.71167698E-03 -2.09811935E-03
 -2.96264913E-03 -4.37492129E-03 -4.37390824E-03  7.13824688E-02 -9.63010331E-02
  9.85609812E-03 -3.48012169E-03  1.06424325E-01 -1.51275065E-01  3.80267802E-03
 -1.16876976E-02  6.24600565E-02 -9.08952441E-02  2.54066282E-02 -1.26093913E-02
  4.20013282E-03  4.16148038E-03 -1.53549059E-02  6.58970981E-03  9.14801031E-03
  9.71164166E-03 -2.09820633E-03  6.88001878E-02  8.56022890E-02  7.93708177E-03
 -7.16912588E-03  8.17506647E-04  5.71556538E-04  3.88953300E-02  5.06155208E-02
  1.08713599E-02  4.24164585E-03 -1.53665042E-03 -3.54827207E-03  3.88950452E-02
  5.06150767E-02  1.08718903E-02 -4.24151917E-03  1.53672189E-03 -3.54826309E-03
  6.88013255E-02  8.56041203E-02  7.93744520E-03  7.16930374E-03 -8.17679330E-04
  5.71775509E-04 -1.72333129E-02 -2.75216832E-02  6.51625000E-07  6.02261000E-07
  4.30544372E-02  9.80796074E-02  1.00677600E-06  9.79946000E-07  6.31146351E-02
  4.66623524E-02  6.64045000E-07  4.63296000E-07  8.92857133E-02 -2.00327312E-02
  3.25415000E-07  2.73010000E-07  2.63095946E-02 -3.55748367E-02 -1.32282000E-07
 -3.22700000E-08 -1.32119611E-02 -8.69932047E-03 -1.84370956E-02 -3.00271263E-02
 -2.44473978E-02  7.55718846E-02  8.62909084E-02  9.18625566E-02 -3.52574611E-02
  1.09038377E-01  1.26756415E-01  1.16440567E-01 -2.37715990E-02  8.32042913E-02
  7.91806387E-02  7.45394408E-02  9.38431751E-03 -2.47033191E-02 -4.42879481E-04
  2.24418874E-03  3.46631235E-03 -1.15300234E-02  5.24673008E-03  3.97709735E-03
 -1.84372287E-02 -3.00273335E-02  2.44491816E-02 -7.55718946E-02  8.62900351E-02
  9.18631817E-02  3.52599532E-02 -1.09038302E-01  1.26755071E-01  1.16441493E-01
  2.37736652E-02 -8.32040178E-02  7.91797944E-02  7.45395644E-02 -9.38456529E-03
  2.47033511E-02 -4.42984790E-04  2.24420357E-03 -3.46636133E-03  1.15299198E-02
  5.24663468E-03  3.97730877E-03  2.97567006E-02  4.77630228E-02  2.95895000E-07
  3.62707000E-07 -6.58223286E-02 -1.37711115E-01  4.48275000E-07  5.36876000E-07
 -1.02274577E-01 -1.95366756E-01  3.30326000E-07  3.63565000E-07 -3.78548496E-02
 -1.04537486E-01 -1.38741000E-07 -1.13832000E-07  1.63763815E-02  8.73594673E-03
 -5.72300000E-08 -6.05600000E-08 -7.61914443E-04 -3.94225056E-04  2.75884302E-02
  4.32019959E-02 -2.41147713E-02  2.74870972E-02  9.52505548E-02 -1.21106262E-01
 -3.43090450E-02  3.68205475E-02  1.40944761E-01 -9.25748466E-02 -3.07508284E-02
  3.06513700E-02  8.97448155E-02 -7.31875539E-02 -1.95447998E-03 -2.19000863E-02
  1.18395801E-02  1.52711301E-02  6.53669542E-03 -1.78143408E-02 -7.79383237E-03
 -1.01943137E-03 -2.75884798E-02 -4.32020765E-02 -2.41160867E-02  2.74866376E-02
 -9.52503350E-02  1.21106510E-01 -3.43110276E-02  3.68197438E-02 -1.40944229E-01
  9.25753183E-02 -3.07524583E-02  3.06509848E-02 -8.97446131E-02  7.31866968E-02
 -1.95473100E-03 -2.18999330E-02 -1.18399283E-02 -1.52708178E-02  6.53673127E-03
 -1.78144308E-02  7.79369229E-03  1.01911434E-03 -9.41547944E-02 -1.21316301E-01
 -2.29252355E-02  8.83001589E-03 -4.41579105E-03 -3.08070508E-03 -3.91495460E-02
 -5.71104073E-02 -1.07166863E-02 -5.99916586E-03 -3.91227297E-04  2.68016597E-03
  3.91476916E-02  5.71083120E-02  1.07162909E-02 -5.99907949E-03 -3.91067276E-04
 -2.68028902E-03  9.41557002E-02  1.21317410E-01  2.29254696E-02  8.83001982E-03
 -4.41595201E-03  3.08082183E-03  5.26760000E-08  8.83110000E-08 -7.91539598E-02
  8.28189572E-02 -1.76810000E-08 -3.36941000E-07 -1.23714608E-01  1.27319048E-01
 -3.19260000E-08  3.28168000E-07 -6.40617331E-02  5.04853792E-02 -4.53400000E-07
  8.87395000E-07 -1.57520895E-02  1.46257663E-02 -4.13116000E-07  8.05290000E-08
  4.41318835E-03  2.36063875E-03  3.34640000E-08  7.13900000E-09  1.42320503E-02
  2.31583335E-02 -4.75884679E-02 -4.46519992E-02  9.38463282E-02 -7.22590818E-02
 -7.11020835E-02 -6.46329583E-02  1.39123255E-01 -8.11228083E-02 -5.80864068E-02
 -4.28900667E-02  8.80675935E-02 -1.84742392E-02  9.81165142E-03 -1.80671298E-03
 -1.95190059E-03 -5.95478808E-04  3.75756038E-03 -8.76201606E-03 -5.13631957E-03
  3.99806639E-03 -1.42319972E-02 -2.31582567E-02 -4.75886200E-02 -4.46516900E-02
 -9.38466145E-02  7.22588606E-02 -7.11023758E-02 -6.46324410E-02 -1.39123705E-01
  8.11223274E-02 -5.80863667E-02 -4.28898541E-02 -8.80678148E-02  1.84731576E-02
  9.81162900E-03 -1.80700824E-03  1.95199396E-03  5.95396601E-04  3.75752203E-03
 -8.76206150E-03  5.13632437E-03 -3.99807767E-03 -6.93070000E-08 -1.11001000E-07
 -4.60363084E-02  4.77981875E-02  1.88116000E-07  3.10682000E-07 -6.86672168E-02
  6.91782122E-02  3.02265000E-07  5.11368000E-07 -4.67028806E-02  4.76569247E-02
  1.26083000E-07  2.83461000E-07  5.91246666E-03 -2.93224124E-03 -1.61200000E-09
 -3.18430000E-08  7.74860452E-03 -6.65901608E-03  4.76800000E-09 -4.96100000E-09
  1.79377135E-03  3.02265407E-03  1.09795023E-01  4.74515977E-02 -3.78391368E-02
 -9.25026736E-03  1.60183269E-01  7.05950359E-02 -5.91384116E-02 -6.57796398E-03
  1.31660337E-01  4.17161367E-02 -3.54533300E-02 -1.02670582E-02  2.69108514E-02
  1.66569916E-03 -5.94443889E-03 -2.79294614E-03  1.39482502E-03  3.66659506E-03
 -3.71674109E-03 -1.84234355E-02  1.79386503E-03  3.02280880E-03 -1.09796891E-01
 -4.74513358E-02 -3.78389623E-02 -9.25054234E-03 -1.60186135E-01 -7.05949880E-02
 -5.91379806E-02 -6.58073934E-03 -1.31661831E-01 -4.17151821E-02 -3.54534932E-02
 -1.02699585E-02 -2.69108875E-02 -1.66485479E-03 -5.94476791E-03 -2.79260434E-03
 -1.39466117E-03 -3.66630054E-03 -3.71732054E-03 -1.84233644E-02  6.57845397E-02
  8.11843974E-02  2.17607942E-02 -2.82785339E-04  6.08735590E-03  2.17120940E-03
 -9.00728175E-02 -1.18019689E-01 -3.09300617E-02 -5.58177315E-03 -2.05954891E-03
 -4.10711570E-03 -9.00747407E-02 -1.18021708E-01 -3.09311577E-02  5.58177921E-03
  2.05951587E-03 -4.10708613E-03  6.57849471E-02  8.11855336E-02  2.17610229E-02
  2.82841929E-04 -6.08748800E-03  2.17134188E-03  1.46519248E-02  2.31277916E-02
  1.87536800E-06  1.33193000E-07 -4.21670341E-02 -7.40773068E-02  2.93553000E-06
  1.94630000E-07 -6.08040675E-02 -5.24941443E-02  1.77748300E-06  3.61897000E-07
 -2.09851106E-02  2.39456557E-02  3.06047000E-07  1.15889000E-07 -7.40427284E-03
 -8.87438453E-03  4.04030000E-08  1.03029000E-07  4.93422296E-03 -1.90205571E-02
 -7.87269203E-03 -1.28435965E-02 -1.08788475E-01 -2.03391659E-02  1.70453629E-02
  3.95608782E-02 -1.60691256E-01 -3.12808062E-02  2.46111664E-02  4.88821592E-02
 -1.36706946E-01 -2.59526012E-02  1.75636603E-02  3.17738641E-03  1.17704278E-03
  2.10595372E-03  2.23140066E-03 -1.37850804E-04  6.55436300E-03  8.79500240E-04
 -5.13353730E-03  5.29802240E-03 -7.87251955E-03 -1.28433249E-02  1.08790410E-01
  2.03406707E-02  1.70452477E-02  3.95600907E-02  1.60694099E-01  3.12829606E-02
  2.46110057E-02  4.88805378E-02  1.36709453E-01  2.59542348E-02  1.75637278E-02
  3.17689460E-03 -1.17719184E-03 -2.10586942E-03  2.23146936E-03 -1.37838026E-04
 -6.55425104E-03 -8.79505198E-04 -5.13372210E-03  5.29819843E-03 -1.73434714E-02
 -2.81764915E-02  1.63880000E-06  1.83636000E-07  7.85653327E-02  8.47736128E-02
  2.43423600E-06  2.70973000E-07  1.08983471E-01  1.23654402E-01  1.76992700E-06
  1.85552000E-07  6.45136668E-02  2.84139290E-02 -9.78690000E-08 -3.20980000E-08
  5.17850910E-03 -6.95381348E-03 -2.30250000E-07 -1.85090000E-08  2.55942773E-04
 -2.85891349E-04  7.33260964E-04  1.03019432E-03 -8.96255277E-02  2.61617559E-03
  2.12060159E-02  1.32529837E-03 -1.29901089E-01  3.82836007E-03  3.12124370E-02
 -4.29471485E-02 -8.55159874E-02 -7.67854799E-03 -6.33775051E-04  1.38314177E-01
 -9.11528898E-03  3.63159673E-02  2.62480192E-03 -2.65158758E-03  1.46842595E-02
 -3.52429222E-03  2.00934652E-03 -8.26222050E-04 -7.32514230E-04 -1.02894382E-03
 -8.96114999E-02  2.62656620E-03 -2.12155398E-02 -1.32958927E-03 -1.29880271E-01
  3.84372147E-03 -3.12276605E-02  4.29424590E-02 -8.54991979E-02 -7.66953130E-03
  6.24066206E-04 -1.38306828E-01 -9.11234597E-03  3.63156348E-02 -2.62270083E-03
  2.65064491E-03  1.46854271E-02 -3.52444893E-03 -2.00796395E-03  8.28429350E-04
 -6.75503206E-02 -9.13806730E-02 -4.92294745E-02  1.98596023E-03 -4.52020415E-03
 -3.37909971E-03  6.04822010E-02  9.07287630E-02  1.32124397E-02  4.01910835E-03
  5.33815037E-03  3.26259575E-03 -6.04674987E-02 -9.07093534E-02 -1.32063880E-02
  4.01814164E-03  5.33799061E-03 -3.26252445E-03  6.75491376E-02  9.13797319E-02
  4.92296819E-02  1.98636772E-03 -4.51957692E-03  3.37853457E-03  3.67044900E-06
  5.75637600E-06  1.39237340E-01  6.28978819E-02 -1.78158290E-05 -1.87421830E-05
  2.17797998E-01  9.97216744E-02 -2.59491970E-05 -1.65152490E-05  1.38599288E-01
  5.25156934E-02 -1.14699620E-05 -8.49042800E-06  2.91942188E-02  1.42415272E-02
  4.89435100E-06 -2.93472200E-06  7.03198333E-03  3.38347278E-03 -1.63611900E-06
  1.59647000E-07  4.83326625E-03  7.81866718E-03  7.85504395E-02  1.16576735E-02
  1.85369983E-02 -2.28742382E-02  1.15734137E-01  1.76666303E-02  2.69465705E-02
 -4.23533833E-02  9.80598107E-02  2.12407237E-02  2.64759526E-02 -2.88636797E-02
 -1.18883260E-03  2.04129955E-03  1.56598589E-02  6.29145420E-04  6.81843418E-03
 -6.70463739E-04  4.20716416E-03 -8.59496332E-03 -4.83453102E-03 -7.82072491E-03
  7.85387022E-02  1.16587550E-02 -1.85236691E-02  2.28805530E-02  1.15716668E-01
  1.76684727E-02 -2.69270983E-02  4.23614459E-02  9.80447940E-02  2.12406953E-02
 -2.64626860E-02  2.88695384E-02 -1.18887406E-03  2.04246395E-03 -1.56601598E-02
 -6.30711992E-04  6.81870926E-03 -6.69228899E-04 -4.20723315E-03  8.59409248E-03
 -5.93179000E-06 -9.62878200E-06  1.20047782E-01  5.33350555E-02  2.81515580E-05
  2.88468910E-05  1.78146660E-01  7.84552382E-02  3.89980420E-05  4.43520150E-05
  1.31687130E-01  5.90454700E-02  2.27992590E-05  1.37987660E-05 -9.96212566E-03
 -6.80127717E-03 -4.59352000E-07 -2.47819700E-06 -1.66561165E-02 -7.10819495E-03
  3.65270000E-08  3.89860000E-08  3.40555469E-03  5.70603801E-03 -4.43631895E-02
 -3.77119356E-02 -4.32029203E-02 -1.94475941E-02 -6.66861079E-02 -5.52095672E-02
 -6.87216860E-02 -2.07972019E-02 -5.11432896E-02 -3.35599491E-02 -4.45362027E-02
  3.44402103E-02 -8.24343963E-03  1.82546445E-03  9.36214330E-03 -4.70806274E-03
 -5.18197778E-03  2.00868228E-04  5.96756051E-03  7.51896275E-03  3.40570510E-03
  5.70624477E-03  4.43867175E-02  3.77111956E-02 -4.31976311E-02 -1.94470174E-02
  6.67201406E-02  5.52081080E-02 -6.87139157E-02 -2.08093613E-02  5.11660799E-02
  3.35620487E-02 -4.45367628E-02  3.44806610E-02  8.24596759E-03 -1.83610764E-03
  9.36287417E-03 -4.70906221E-03  5.17865955E-03 -1.99384369E-04  5.96809640E-03
  7.51893298E-03  4.08707197E-03  8.53074431E-03  1.25065843E-03 -2.60890159E-03
 -1.79317032E-03 -1.72957968E-03  5.07878368E-02  6.84303867E-02  1.99302617E-02
  3.50457295E-03  4.64395808E-04 -9.97450129E-04  5.08035357E-02  6.84544719E-02
  1.99331155E-02 -3.50572005E-03 -4.65768502E-04 -9.96770920E-04  4.06997593E-03
  8.50804281E-03  1.23782405E-03  2.60862355E-03  1.79432692E-03 -1.73048088E-03
  2.81056749E-02  4.40533751E-02 -1.85672360E-05 -8.02148400E-06 -1.37877046E-01
 -1.43148866E-01 -2.90208730E-05 -1.27750150E-05 -2.00737068E-01 -1.29555995E-01
 -1.83460550E-05 -6.80316100E-06 -8.73719646E-02 -7.15748657E-02 -3.77197900E-06
 -1.95476100E-06  4.06993033E-02 -2.48962173E-02 -1.06521200E-06 -4.36052000E-07
 -1.28616870E-02 -7.52456348E-04 -5.48166282E-03 -8.96079549E-03  3.48682832E-02
 -3.78008021E-03  5.79162712E-02  2.74781677E-02  5.18139487E-02 -6.39921668E-03
  8.49601606E-02  3.46397362E-02  4.47871088E-02  7.49930725E-04  5.84872603E-02
  2.49698575E-02  9.35639817E-04 -6.01441371E-03  1.01808461E-04 -5.74392474E-03
 -3.97702528E-04 -5.23332520E-03 -6.09928608E-04 -2.77398898E-03 -5.48049218E-03
 -8.95889317E-03 -3.48883090E-02  3.77678702E-03  5.79209702E-02  2.74726927E-02
 -5.18434584E-02  6.39426874E-03  8.49669360E-02  3.46289013E-02 -4.48123219E-02
 -7.56056416E-04  5.84941518E-02  2.49620698E-02 -9.35245975E-04  6.01392930E-03
  1.06057079E-04 -5.74377882E-03  3.95850701E-04  5.23349699E-03 -6.08800952E-04
 -2.77618136E-03 -4.54286942E-02 -7.37659461E-02 -1.59408930E-05 -6.93724000E-06
  2.19692631E-01  2.21137074E-01 -2.36543280E-05 -1.02060680E-05  3.03929990E-01
  3.41754173E-01 -1.75753670E-05 -7.68473200E-06  1.78470677E-01  1.05055108E-01
  1.20206000E-06  9.16331000E-07 -3.03144730E-03 -1.92674438E-02  2.19315700E-06
  9.21502000E-07  3.51490588E-04  2.62445548E-04 -6.22905104E-03 -9.93421268E-03
 -5.39887187E-02  1.50536506E-01 -5.69666102E-03  3.28491041E-02 -7.84469093E-02
  2.22204074E-01 -1.53395258E-02  2.28609639E-02 -5.35819662E-02  1.39420915E-01
 -1.49425689E-03  3.09474234E-03 -3.20577975E-03  7.60975157E-03  1.61503289E-03
 -1.78527126E-02  3.75446978E-03 -6.75909013E-03 -1.37679739E-02  8.26511481E-03
 -6.22923904E-03 -9.93450860E-03  5.39883766E-02 -1.50536642E-01 -5.69644766E-03
  3.28500339E-02  7.84463157E-02 -2.22204478E-01 -1.53390212E-02  2.28605780E-02
  5.35817363E-02 -1.39420855E-01 -1.49446280E-03  3.09707532E-03  3.20578615E-03
 -7.61039413E-03  1.61486066E-03 -1.78527601E-02 -3.75465935E-03  6.75902301E-03
 -1.37678319E-02  8.26526121E-03 -8.18372341E-02 -1.24611885E-01 -6.53872027E-02
  6.09115153E-03  4.18730605E-03 -6.83762815E-03  1.51784234E-03 -2.92812075E-03
 -2.18361448E-03 -4.64347772E-03  8.01922784E-03 -1.56272783E-04  1.51857636E-03
 -2.92671570E-03 -2.18337267E-03  4.64327449E-03 -8.01928410E-03 -1.56161703E-04
 -8.18373646E-02 -1.24611727E-01 -6.53875343E-02 -6.09096744E-03 -4.18731519E-03
 -6.83765921E-03  2.54733573E-02  4.14477332E-02 -9.48940000E-08  4.61253000E-07
  4.32310107E-02 -1.30243052E-01 -1.27324000E-07  6.67634000E-07  7.12015377E-02
 -1.30745027E-01  3.32920000E-08  2.70562000E-07  8.72198028E-02 -1.04928276E-02
  3.53100000E-08 -1.14100000E-08  2.18685200E-02 -2.50164728E-02  2.35700000E-09
 -2.86540000E-08 -8.05016484E-03 -5.94283303E-03 -2.07566810E-02 -3.37751032E-02
 -3.03612145E-02  9.41381904E-02  6.81509175E-02  1.01441081E-01 -4.39027708E-02
  1.35886236E-01  9.89076733E-02  1.51645907E-01 -3.34576373E-02  1.06863188E-01
  8.88973189E-02  7.46085761E-02 -2.65575048E-03  1.36121465E-02 -7.40247030E-03
  2.47959129E-04 -2.25471641E-04  1.84896802E-03  5.04214212E-03  3.44258536E-03
 -2.07569402E-02 -3.37755363E-02  3.03616503E-02 -9.41396858E-02  6.81510154E-02
  1.01442448E-01  4.39034307E-02 -1.35888446E-01  9.89077727E-02  1.51647326E-01
  3.34581355E-02 -1.06865005E-01  8.88976213E-02  7.46089248E-02  2.65582757E-03
 -1.36123260E-02 -7.40249570E-03  2.47999456E-04  2.25478650E-04 -1.84896485E-03
  5.04221999E-03  3.44263574E-03  5.55191300E-06 -2.95709552E-04 -1.89030000E-08
  3.37716000E-07  9.50667993E-03  4.14703334E-03 -3.73090000E-08  5.07237000E-07
  8.56532391E-03 -1.76331733E-02 -1.94440000E-08  3.77819000E-07  1.70504143E-02
 -2.32473536E-02 -2.25180000E-08  9.29800000E-09 -2.68014344E-03  4.47066256E-04
  1.16440000E-08 -4.99560000E-08 -7.52174604E-04 -4.35134367E-04 -1.43569360E-02
 -2.33795724E-02  1.26981401E-02  1.09403130E-02  5.24584623E-02  7.24943334E-02
  1.86931526E-02  2.53580024E-02  9.19874238E-02  6.03876505E-02  1.47909209E-02
  2.88201719E-02  3.70508908E-02 -1.76892329E-02  2.25943314E-03 -1.28919219E-03
 -1.01780561E-02  2.05864948E-02  3.55389706E-03  6.66880536E-03  2.81936443E-03
  4.35161856E-03  1.43568724E-02  2.33794596E-02  1.26983244E-02  1.09390272E-02
 -5.24584607E-02 -7.24938778E-02  1.86934839E-02  2.53561959E-02 -9.19876057E-02
 -6.03870507E-02  1.47913370E-02  2.88191970E-02 -3.70508955E-02  1.76883604E-02
  2.25983639E-03 -1.28917005E-03  1.01779386E-02 -2.05866309E-02  3.55399963E-03
  6.66885059E-03 -2.81952032E-03 -4.35163384E-03 -7.90486961E-03 -3.57977309E-03
 -6.00606363E-03 -2.94797226E-04  2.38641437E-03  3.99267413E-03 -8.93174715E-03
 -4.54062874E-03 -2.97972132E-03  1.39474835E-03  1.17126055E-03  2.92128544E-03
  8.93130373E-03  4.53986879E-03  2.97937727E-03  1.39489404E-03  1.17123623E-03
 -2.92119678E-03  7.90465903E-03  3.57864235E-03  6.00644560E-03 -2.94878154E-04
  2.38630249E-03 -3.99285684E-03  9.62700000E-08  1.58325000E-07  2.90238772E-02
 -6.75702150E-02  1.33796000E-07 -5.12709000E-07  4.22899659E-02 -9.64242069E-02
  2.62539000E-07 -6.09642000E-07  6.11604103E-03  1.80989626E-02  3.41780000E-07
  6.67313000E-07 -6.66921760E-03  2.61555359E-02 -2.65758000E-07 -9.53870000E-08
 -4.31989726E-03  3.19236290E-02 -1.42340000E-07  1.97237000E-07 -2.00654924E-02
 -3.26968621E-02 -5.20413437E-02  1.88155091E-01  6.44304497E-02  9.85069072E-02
 -7.59326383E-02  2.75245961E-01  9.75398393E-02  1.18992932E-01 -6.43331289E-02
  2.37710253E-01  7.45043117E-02  9.73981003E-03 -9.71445551E-03  2.23436376E-02
 -2.03017643E-02  2.49549362E-03  2.68133968E-03 -6.80254965E-03  8.37013783E-03
  5.94127072E-03  2.00653407E-02  3.26966152E-02 -5.20434140E-02  1.88153716E-01
 -6.44295797E-02 -9.85061478E-02 -7.59357870E-02  2.75244062E-01 -9.75386863E-02
 -1.18991898E-01 -6.43359195E-02  2.37708668E-01 -7.45031304E-02 -9.73934538E-03
 -9.71481141E-03  2.23435082E-02  2.03020279E-02 -2.49551523E-03  2.68139562E-03
 -6.80252883E-03 -8.36998967E-03 -5.94137904E-03  7.40200000E-09  1.15570000E-08
  2.06796714E-02 -1.71322159E-02  1.47340000E-08 -3.37030000E-08  3.12244936E-02
 -2.90588935E-02  6.02300000E-09 -4.05180000E-08  2.58498259E-02 -2.58760052E-02
  2.76820000E-08 -3.32348000E-07  2.73433804E-03  1.43492462E-04  1.60740000E-07
  1.68300000E-09 -3.24615252E-03  6.17846976E-03 -4.34700000E-09  6.16400000E-09
 -3.64745453E-03 -6.03551231E-03  7.46426266E-02  4.23002227E-02 -9.75889988E-03
  2.25931130E-02  1.01172447E-01  6.46361941E-02 -1.22533036E-02  3.92476062E-03
  5.93438112E-02  4.54095896E-02 -2.41041117E-02 -2.92232372E-02 -3.43494179E-03
 -1.27016279E-03 -1.15803763E-02  6.76427649E-03 -2.02563050E-02 -6.41776469E-03
 -1.25177024E-02 -1.09459920E-02 -3.64755355E-03 -6.03568929E-03 -7.46386044E-02
 -4.23010838E-02 -9.76045016E-03  2.25944182E-02 -1.01166807E-01 -6.46380522E-02
 -1.22556264E-02  3.91626562E-03 -5.93417345E-02 -4.54104549E-02 -2.41119080E-02
 -2.92388173E-02  3.43425732E-03  1.27318110E-03 -1.15853532E-02  6.76378275E-03
  2.02541969E-02  6.41665181E-03 -1.25171061E-02 -1.09459065E-02  5.01609514E-02
  8.58435125E-02  5.93311454E-02 -6.39569320E-04  5.78305016E-03  3.46130698E-03
 -8.59911037E-02 -1.44680964E-01 -1.03887734E-01 -4.57466228E-03 -2.61841743E-03
 -2.42447418E-03 -8.59867019E-02 -1.44671828E-01 -1.03882015E-01  4.57449124E-03
  2.61793216E-03 -2.42419149E-03  5.01578209E-02  8.58386202E-02  5.93233212E-02
  6.39379054E-04 -5.78293017E-03  3.46115489E-03  1.14465396E-03  1.72712637E-03
  3.35153900E-06 -3.16830000E-08 -9.82126788E-04 -4.08062757E-03  4.92987200E-06
 -2.66574000E-07 -2.88267185E-03  3.13230578E-03  4.32914000E-06 -2.36201400E-06
  2.98528576E-02  3.76335886E-02  1.48962900E-06 -3.96110000E-08 -6.74388164E-03
 -4.64863915E-03  4.13426900E-06 -1.56791800E-06 -2.26567918E-02  3.19092914E-02
 -1.33216968E-03 -2.15118876E-03  1.76620058E-01  5.61932017E-02  1.92005107E-02
  6.19073998E-03  2.58338606E-01  8.16473773E-02  2.83450774E-02  2.19774308E-02
  2.51804931E-01  7.70486198E-02  2.13051634E-02  2.72288104E-02  5.20223145E-02
  1.79917797E-02 -5.43161547E-03  2.41504886E-04  1.02194822E-03 -3.51523630E-05
  5.27576814E-03 -8.56366487E-03 -1.33131109E-03 -2.14981264E-03 -1.76633995E-01
 -5.62030851E-02  1.92007186E-02  6.18669022E-03 -2.58359049E-01 -8.16615329E-02
  2.83455001E-02  2.19677251E-02 -2.51824227E-01 -7.70633491E-02  2.13073145E-02
  2.72137648E-02 -5.20258232E-02 -1.79956807E-02 -5.42774875E-03  2.41853813E-04
 -1.02162791E-03  3.55738500E-05  5.27638709E-03 -8.56418563E-03  2.59557100E-06
 -6.10825250E-05  1.41972930E-05 -4.44396200E-06  7.22269132E-03  1.22018672E-03
  2.06302200E-05 -6.39608900E-06  9.21092734E-03 -9.62079342E-03  1.81220980E-05
 -5.40484400E-06  1.14565688E-02 -2.24926986E-02  2.58941000E-06 -3.90707000E-07
  8.61609029E-03 -4.22182635E-04 -1.04298300E-06  2.52329000E-07 -6.26120312E-04
  7.38611214E-04  1.61245177E-03  2.65982217E-03  3.43729748E-02 -5.78317004E-03
  1.17324753E-02 -1.49238668E-02  4.76015656E-02 -1.25157207E-02  1.77231805E-02
  7.56991826E-02  2.07790176E-02  4.52714511E-03  6.80119043E-02  8.38689158E-02
 -3.87295107E-03  1.40287776E-02  3.83386642E-02  5.53643045E-03 -1.67774109E-02
 -6.42949812E-03 -5.15402540E-03  1.04027077E-03 -1.61200561E-03 -2.65907571E-03
  3.43826638E-02 -5.77726454E-03 -1.17313664E-02  1.49210603E-02  4.76147734E-02
 -1.25067426E-02 -1.77217624E-02 -7.56991828E-02  2.07861275E-02  4.53400440E-03
 -6.80096288E-02 -8.38639292E-02 -3.87328972E-03  1.40288887E-02 -3.83369968E-02
 -5.53740942E-03 -1.67803533E-02 -6.43044797E-03  5.15556328E-03 -1.03912699E-03
  2.21787267E-02  3.60065614E-02  6.31443912E-02  3.73595302E-04  1.43783111E-03
  7.73267594E-04 -3.78667776E-02 -7.76258915E-02 -4.38428772E-02 -3.04989381E-03
 -4.19435907E-03 -1.51786864E-03  3.78780484E-02  7.76450182E-02  4.38563162E-02
 -3.05059477E-03 -4.19470668E-03  1.51819671E-03 -2.21847510E-02 -3.60172305E-02
 -6.31521331E-02  3.73574567E-04  1.43840527E-03 -7.73749736E-04 -1.09589000E-07
 -1.67313000E-07  5.06835777E-02  2.29290611E-03 -2.06589000E-07  3.80589000E-07
  7.40522137E-02 -3.40954531E-04 -1.75508000E-07 -2.37984000E-07  6.14194001E-02
 -1.68404360E-02 -2.68382500E-06 -3.36941000E-06  2.06368784E-02  6.77280571E-03
  8.04574000E-07  6.63340000E-08  6.37268394E-02 -9.87114235E-03  1.44643500E-06
 -2.10099400E-06 -4.71957794E-03 -7.55344685E-03 -1.23591293E-01 -5.96095214E-02
  5.16622923E-03  2.08636009E-02 -1.80756007E-01 -8.52961682E-02  7.49831864E-03
  6.26653341E-02 -1.71322651E-01 -9.19341032E-02 -9.72171597E-03  1.01369496E-01
 -3.19186690E-02 -2.54100048E-02 -3.04279325E-02 -1.70864732E-03  2.92845871E-03
  2.27447164E-03 -4.22042413E-03  4.98800948E-03  4.71984283E-03  7.55387654E-03
 -1.23568746E-01 -5.96023947E-02 -5.16761848E-03 -2.08648817E-02 -1.80723040E-01
 -8.52858848E-02 -7.50040217E-03 -6.26688442E-02 -1.71290459E-01 -9.19243272E-02
  9.72040602E-03 -1.01373387E-01 -3.19115815E-02 -2.54074498E-02  3.04292508E-02
  1.70859371E-03  2.92861688E-03  2.27455517E-03  4.21979093E-03 -4.98688130E-03
 -1.94500000E-09  1.61400000E-09  2.22029970E-01 -3.09480832E-02 -3.21912000E-07
 -9.49470000E-08  3.22867188E-01 -4.45130863E-02 -4.16968000E-07  1.02173400E-06
  2.84514092E-01 -3.74166418E-02 -7.46009000E-07  1.92895800E-06  4.24578442E-02
 -1.13983411E-04 -7.38557000E-07  2.73260000E-08 -1.62191606E-02  1.68992806E-03
  3.01820000E-08 -4.53470000E-08  2.17877180E-03  3.70215228E-03  9.76804237E-03
  4.40913339E-03 -3.69062552E-02 -1.60371447E-02  1.13148055E-02  9.12153326E-03
 -5.54904003E-02  2.62241534E-02  1.03452627E-03  2.60488617E-02 -3.35178624E-02
 -2.38550215E-02 -1.60791643E-03 -1.47850440E-02  4.60708053E-03 -4.15566349E-04
 -1.09575512E-02  8.91273147E-03  4.54157717E-04  2.20895693E-03 -2.17884481E-03
 -3.70228717E-03  9.76652599E-03  4.40872133E-03  3.69059849E-02  1.60374635E-02
  1.13123922E-02  9.12110549E-03  5.54899517E-02 -2.62215360E-02  1.03178332E-03
  2.60490517E-02  3.35174643E-02  2.38541282E-02 -1.60809751E-03 -1.47848969E-02
 -4.60737723E-03  4.15852861E-04 -1.09567523E-02  8.91296463E-03 -4.54160297E-04
 -2.20935716E-03  2.92809380E-02  4.59484332E-02  4.27299510E-02 -1.65346465E-03
  1.74463389E-03 -1.32812130E-03 -5.20140074E-03 -1.85313696E-02 -1.32279498E-02
 -8.45720834E-04 -1.33386646E-03 -2.89423760E-03  5.20006823E-03  1.85289013E-02
  1.32262888E-02 -8.45822828E-04 -1.33362955E-03  2.89402491E-03 -2.92797413E-02
 -4.59481022E-02 -4.27283562E-02 -1.65360004E-03  1.74469439E-03  1.32788650E-03
 -2.13250000E-08 -3.30630000E-08  3.54485704E-03  2.10375812E-02 -9.21320000E-08
  6.99730000E-08  4.88439561E-03  2.53164779E-02 -1.74936000E-07  4.39648000E-07
 -2.01694381E-02  1.13478520E-01 -3.52388000E-07  1.09069700E-06 -3.64205695E-03
  4.28206311E-02 -5.75627000E-07 -5.27580000E-08 -9.34469224E-04  7.96890185E-02
 -2.18098000E-07  3.46127000E-07  1.00927116E-02  1.63707810E-02 -5.57993830E-02
  3.28700246E-02 -6.57813938E-02 -5.21976952E-02 -8.00430799E-02  4.23040158E-02
 -9.14593390E-02 -8.23431265E-02 -7.97851778E-02  4.36118194E-02 -9.54712404E-02
 -9.98480518E-02 -2.51479669E-02  3.02216326E-02 -1.34622711E-02  5.06677269E-03
 -1.49791217E-04  5.49534598E-04 -1.60083761E-03  2.18100430E-03 -1.00926859E-02
 -1.63707420E-02 -5.58023676E-02  3.28691223E-02  6.57821377E-02  5.21976783E-02
 -8.00474814E-02  4.23026456E-02  9.14603124E-02  8.23423470E-02 -7.97894206E-02
  4.36103003E-02  9.54726158E-02  9.98463703E-02 -2.51490622E-02  3.02211438E-02
  1.34632514E-02 -5.06676541E-03 -1.49872207E-04  5.49564964E-04  1.60093982E-03
 -2.18114341E-03  3.98900000E-09  6.54400000E-09 -5.24959222E-03  2.75077843E-01
  1.94467000E-07 -2.44720000E-08 -7.59964471E-03  3.99142649E-01  2.52902000E-07
  1.92481000E-07 -3.47040421E-03  3.46549820E-01  1.68120000E-07 -1.77314000E-07
  3.31688208E-03  4.81787380E-02  2.31761000E-07 -1.21430000E-08  9.46535050E-05
 -1.72140135E-02 -8.93900000E-09 -2.29000000E-09 -2.58821538E-02 -4.31220924E-02
 -6.96404708E-03 -4.24122549E-02 -4.26280199E-02  1.47697080E-01 -4.53129926E-03
 -6.70737107E-02 -5.40964532E-02  3.26987669E-01 -6.58912859E-02 -9.97466658E-02
 -2.01253015E-01 -8.29470200E-01 -9.41800644E-02  1.77094305E-01  2.38185098E-01
 -4.23611106E-03  4.85174526E-04 -3.20829120E-03 -4.47761642E-03 -3.72063081E-04
 -2.58822123E-02 -4.31221964E-02  6.96467916E-03  4.24121988E-02 -4.26280444E-02
  1.47697628E-01  4.53221475E-03  6.70738268E-02 -5.40963846E-02  3.26985794E-01
  6.58935491E-02  9.97448819E-02 -2.01253728E-01 -8.29547343E-01  9.41812912E-02
 -1.77075223E-01  2.38182537E-01 -4.23604356E-03 -4.84992058E-04  3.20829711E-03
 -4.47765310E-03 -3.72250853E-04  3.68812617E-03 -7.28213472E-02  1.18626405E-01
 -1.10326565E-02  1.47775576E-03  8.41004150E-03  7.19580768E-03 -5.88282371E-02
  4.98355216E-02  1.29445434E-02  2.39092588E-04  2.79939200E-03  7.19547570E-03
 -5.88286013E-02  4.98346874E-02 -1.29446399E-02 -2.39092536E-04  2.79929678E-03
  3.68845714E-03 -7.28212680E-02  1.18632217E-01  1.10326258E-02 -1.47778854E-03
  8.41013026E-03 -2.91559511E-03 -5.38091257E-03  5.21770000E-08 -1.44400000E-09
 -4.70091605E-03  3.32778740E-02  1.54450000E-08 -1.27880000E-08 -1.37202649E-03
 -1.59102597E-01  5.55057000E-07 -1.01732000E-07 -1.44432414E-02 -8.60485709E-01
 -8.29205000E-07  1.45310200E-06  2.36229044E-01 -3.54893364E-03 -5.67500000E-09
  4.60000000E-10 -8.46505371E-03 -8.96604995E-03 -4.61601029E-03 -7.85326959E-03
 -9.25022979E-03 -8.72410166E-03  1.31116449E-02  3.00838019E-02 -1.34347478E-02
 -8.36602197E-03  1.82973623E-02  4.33901008E-02 -1.07402364E-02 -5.28890287E-02
  1.85260303E-02  5.63909534E-01 -3.02400990E-03  1.93611734E-02 -1.45075312E-01
  3.82494523E-03 -7.73969191E-04 -3.39783895E-03 -1.78986896E-03 -1.10415525E-04
 -4.61600740E-03 -7.85325795E-03  9.25021575E-03  8.72410129E-03  1.31115929E-02
  3.00836807E-02  1.34347006E-02  8.36605792E-03  1.82973087E-02  4.33908611E-02
  1.07402191E-02  5.28889036E-02  1.85259357E-02  5.63899921E-01  3.02283103E-03
 -1.93629587E-02 -1.45071390E-01  3.82493337E-03  7.73966412E-04  3.39783858E-03
 -1.78988327E-03 -1.10376850E-04 -2.59368024E-03 -4.42078304E-03  4.10700000E-09
 -3.35500000E-09  3.50336700E-03  1.72077115E-02  4.78370000E-08 -1.09690000E-08
  4.68912301E-03  1.71209466E-02 -1.96219000E-07  2.81030000E-08 -6.56412550E-03
  3.21051734E-01  3.96239000E-07  2.02968000E-07 -1.23795737E-01  8.54093307E-04
 -5.25000000E-10  6.45000000E-10 -4.35730325E-04 -4.11955871E-04 -1.30876015E-02
 -2.11123802E-02  2.40851244E-02 -7.69284512E-03  5.53060394E-02  5.93915173E-02
  3.62332529E-02 -1.24065765E-02  7.13652983E-02  1.91871266E-01  9.37135505E-02
 -5.82505211E-02  3.05037243E-01  1.18770963E+00  1.33245776E-01 -2.96392721E-02
  9.00642890E-01 -2.83797505E-02 -1.03293651E-02  1.41118236E-02  3.93573679E-03
 -3.16674226E-03 -1.30873508E-02 -2.11119624E-02 -2.40884223E-02  7.69246851E-03
  5.53054938E-02  5.93900649E-02 -3.62389612E-02  1.24058325E-02  7.13643324E-02
  1.91868671E-01 -9.37234657E-02  5.82494475E-02  3.05034649E-01  1.18773760E+00
 -1.33228610E-01  2.96384356E-02  9.00646855E-01 -2.83798976E-02  1.03285699E-02
 -1.41120495E-02  3.93587653E-03 -3.16628135E-03  2.04786513E-02  4.46973392E-02
  8.35985299E-02  7.33058647E-03 -6.01792639E-03  1.24961505E-02  6.77570878E-04
  1.83108894E-02 -6.63334536E-04 -5.03126731E-03 -2.45522603E-03  1.20870614E-02
  6.78858854E-04  1.83165648E-02 -6.59688573E-04  5.03162599E-03  2.45531427E-03
  1.20867698E-02  2.04775959E-02  4.46931326E-02  8.35916881E-02 -7.33052351E-03
  6.01797067E-03  1.24963930E-02 -1.17737570E-02 -1.89406911E-02  2.74425400E-06
  7.11214000E-07 -1.68057467E-02  4.10819761E-02  4.27216700E-06  1.11433700E-06
 -2.02345926E-02  3.25138662E-01  7.19009400E-06  9.32576000E-07  8.13889840E-02
 -1.03202120E+00  2.39648900E-06  8.45900000E-09  7.84525538E-01 -2.65906251E-02
 -3.63977000E-07 -6.59630000E-08  8.23918395E-03  5.08170354E-03  2.65458506E-02
  4.40539553E-02 -7.24345477E-03  2.65661627E-02  5.17973136E-02 -1.46842032E-01
 -1.15377548E-02  3.97067637E-02  7.33421740E-02 -3.26286391E-01 -2.56719953E-02
  8.51065646E-02  1.25584046E-01 -7.00065542E-01 -1.67209952E-02 -3.06573203E-02
  1.31965615E-01  2.68540772E-03  6.14602188E-04 -7.58854182E-04  2.61529638E-03
  1.40364104E-03  2.65458893E-02  4.40540127E-02  7.24223323E-03 -2.65665497E-02
  5.17974644E-02 -1.46842152E-01  1.15357973E-02 -3.97074147E-02  7.33424069E-02
 -3.26287379E-01  2.56709496E-02 -8.51071685E-02  1.25584176E-01 -7.00068764E-01
  1.67172106E-02  3.06526480E-02  1.31965153E-01  2.68538528E-03 -6.14173486E-04
  7.58970727E-04  2.61523764E-03  1.40377557E-03  1.42684099E-02  2.35405812E-02
 -2.05905000E-06 -5.16934000E-07  2.63553206E-02 -7.66941700E-02 -2.94987600E-06
 -7.52542000E-07  3.30891931E-02 -1.67356723E-01 -3.97546300E-06 -9.16697000E-07
  8.39675239E-02 -4.02096047E-01 -2.34142200E-06 -7.19199000E-07 -1.58759584E-02
 -3.10158685E-03 -1.01203000E-07 -2.67330000E-08  1.32970677E-04  9.91143250E-05
  7.67653816E-03  1.28151912E-02  5.52137539E-02  1.83271055E-02 -1.30877214E-02
 -4.59700888E-02  1.01847805E-01  3.02467991E-02 -2.22928004E-02 -5.26365361E-02
  1.46443079E-01  1.02787487E-01 -4.82059735E-02  5.53543678E-01 -4.89223485E-01
 -9.77549868E-04 -4.69287381E-02 -1.11255923E-03  1.30987515E-02  6.44886878E-03
  4.28732352E-03  1.73362054E-03 -7.67682128E-03 -1.28156487E-02  5.52127382E-02
  1.83268197E-02  1.30893596E-02  4.59712543E-02  1.01846602E-01  3.02466084E-02
  2.22947411E-02  5.26401037E-02  1.46439977E-01  1.02786886E-01  4.82167270E-02
 -5.53509808E-01 -4.89225124E-01 -9.69140550E-04  4.69577316E-02  1.11130313E-03
  1.30990033E-02  6.44825249E-03 -4.28706620E-03 -1.73365407E-03 -5.21700432E-03
 -4.47531354E-02 -4.73615279E-02 -2.64583630E-03 -8.29169696E-04  1.61731653E-03
  9.32630897E-03  8.86346450E-02 -1.93560895E-02 -8.97046416E-03 -2.87244445E-03
 -4.96817949E-03 -9.32617022E-03 -8.86341768E-02  1.93602342E-02 -8.97008492E-03
 -2.87215768E-03  4.96845458E-03  5.21778801E-03  4.47548652E-02  4.73686112E-02
 -2.64604541E-03 -8.28985526E-04 -1.61679548E-03 -1.70166000E-07 -2.73686000E-07
 -1.72007641E-01 -3.89330218E-02 -1.04576000E-07  5.60118000E-07 -2.66812765E-01
 -5.99399023E-02 -5.22360000E-08  6.14501200E-06 -4.64294379E-01 -9.95516937E-02
  3.03688500E-06 -1.30774460E-05 -6.51641727E-02 -6.83314432E-02  1.61486220E-05
 -3.98721000E-07  1.84885271E-02  5.88871707E-03  1.42955000E-07  1.08232000E-07
  2.61055648E-03  4.32258248E-03  6.69572595E-02  2.03180632E-02  1.02767967E-02
 -1.42156405E-02  1.01777292E-01  3.15078949E-02  1.54867988E-02 -2.36362472E-02
  1.02202221E-01  3.15438534E-02  1.75038799E-02 -1.04715776E-01  2.15668274E-01
  1.13110040E-01  5.90003541E-02  4.74578616E-04 -1.07606482E-02 -3.63075355E-03
 -1.92490268E-03  4.91081192E-03 -2.60970720E-03 -4.32117330E-03  6.69572513E-02
  2.03171777E-02 -1.02754412E-02  1.42108841E-02  1.01777378E-01  3.15065864E-02
 -1.54848612E-02  2.36256726E-02  1.02202290E-01  3.15410378E-02 -1.75005623E-02
  1.04698032E-01  2.15670068E-01  1.13111625E-01 -5.89975980E-02 -4.74431804E-04
 -1.07606794E-02 -3.63078138E-03  1.92491578E-03 -4.91080887E-03  2.61298000E-07
  4.31133000E-07  1.24109208E-01  2.70087473E-02  2.57541000E-07 -1.40018100E-06
  1.76863023E-01  3.86099791E-02  2.71489000E-07 -3.41745900E-06  2.48068710E-01
  5.20752450E-02  1.51163600E-06 -1.02763630E-05  1.42163331E-01  3.45194005E-02
 -4.95175000E-07 -6.70500000E-08  6.66474325E-03  1.63561846E-03  7.02900000E-09
  2.67500000E-09 -2.47805039E-02 -4.06402338E-02 -8.55997087E-03  5.38806793E-03
 -3.72791772E-02  1.23426820E-01 -7.97524079E-03 -5.26583251E-04 -5.63162948E-02
  4.72321197E-01 -4.23897413E-02  1.35663866E-01 -1.24061528E-01  4.81855631E+00
 -1.21223680E-02  2.08728532E+00  6.37331704E-01  1.74964184E-03  7.35920129E-04
  2.48326819E-03  1.41891273E-02 -5.27839196E-03  2.47805440E-02  4.06402925E-02
 -8.55958239E-03  5.38814244E-03  3.72789821E-02 -1.23426650E-01 -7.97432607E-03
 -5.26772029E-04  5.63161123E-02 -4.72324939E-01 -4.23888278E-02  1.35664441E-01
  1.24059220E-01 -4.81851957E+00 -1.21308820E-02  2.08727985E+00 -6.37319270E-01
 -1.74979244E-03  7.35750156E-04  2.48325428E-03 -1.41890710E-02  5.27850478E-03
  6.49826002E-03 -3.74223448E-02  2.67841183E-02 -2.86108562E-03  8.30673157E-03
  3.29561096E-03  6.57953513E-03 -3.43935961E-02 -3.98503550E-02  4.83172258E-03
  1.02860386E-02  2.70157895E-04 -6.57944825E-03  3.43934858E-02  3.98485874E-02
  4.83174540E-03  1.02859614E-02 -2.70099399E-04 -6.49829382E-03  3.74239734E-02
 -2.67907808E-02 -2.86101328E-03  8.30675806E-03 -3.29553042E-03  1.60540000E-08
  1.39520000E-08 -9.10915370E-02 -1.55251621E-02  7.06540000E-08  2.68860000E-07
 -1.52877085E-01 -1.77331470E-02  3.08757000E-07 -4.19606700E-06 -1.73903920E-01
 -1.36881624E-01  5.39420000E-08 -3.68946790E-05  7.40334203E-02  3.85244875E-01
  1.69855880E-05  1.38790000E-08  1.29141133E-02 -3.40382769E-03  1.57340000E-08
 -8.14700000E-09  3.97925324E-03  6.65822115E-03  3.72475933E-02 -1.31224715E-02
 -8.46689774E-03 -2.31005459E-02  5.18913021E-02 -2.27094369E-02 -1.34968014E-02
 -3.09096849E-02  7.81677694E-02 -5.12730095E-03 -9.87168199E-03  1.29637988E-01
  4.21196134E-02 -2.44240460E-01  1.01995757E-01 -2.10145573E-03 -3.74871771E-03
 -1.31083427E-03 -2.96657243E-03  3.56455739E-03 -3.97930530E-03 -6.65830147E-03
  3.72476616E-02 -1.31223647E-02  8.46668107E-03  2.31006766E-02  5.18913449E-02
 -2.27093086E-02  1.34965907E-02  3.09111331E-02  7.81679032E-02 -5.12656599E-03
  9.87057641E-03 -1.29631193E-01  4.21173035E-02 -2.44238309E-01 -1.01995440E-01
  2.10146786E-03 -3.74869651E-03 -1.31081651E-03  2.96654246E-03 -3.56456979E-03
 -1.64890000E-08 -2.84900000E-08  5.30392494E-02  7.57870683E-03 -8.11690000E-08
  1.28771000E-07  7.50711046E-02  6.61133479E-03 -1.65620000E-07  4.81100000E-09
  1.04685748E-01  4.27425751E-02  1.69002000E-07  3.14252500E-06  6.55060794E-02
 -1.11902633E-01 -4.23167700E-06 -1.35000000E-08  4.53789026E-03  6.15443534E-04
  1.48700000E-09  7.58000000E-10  6.87616104E-03  1.18408027E-02 -6.00008147E-02
  2.10565068E-02  1.13473438E-02 -5.78707697E-02 -1.00061287E-01  3.44539098E-02
  1.07510681E-02  1.53581909E-01 -1.85238888E-01  1.73840257E-01  1.43274181E-01
  1.12837616E+00  5.53662961E-01  1.50467493E-01 -2.22061451E-01 -1.01481398E-03
  4.84488422E-03  6.39233934E-03  5.28510752E-03 -8.03788317E-03 -6.87598509E-03
 -1.18405152E-02 -6.00007006E-02  2.10567239E-02 -1.13479785E-02  5.78701181E-02
 -1.00061233E-01  3.44537933E-02 -1.07521625E-02 -1.53585469E-01 -1.85237214E-01
  1.73842006E-01 -1.43277363E-01 -1.12831730E+00  5.53671468E-01  1.50449033E-01
  2.22083846E-01  1.01495925E-03  4.84462492E-03  6.39239242E-03 -5.28512264E-03
  8.03794852E-03 -4.89536523E-03  6.56691998E-02 -6.45910431E-03  9.35473664E-03
 -6.74052740E-03 -5.66268525E-03  9.49631657E-03 -4.63754106E-02  1.09042412E-01
  1.36185758E-03  7.05962843E-04 -1.97848157E-03 -9.49648190E-03  4.63770334E-02
 -1.09056760E-01  1.36195246E-03  7.05983979E-04  1.97838304E-03  4.89527510E-03
 -6.56686795E-02  6.45214857E-03  9.35474098E-03 -6.74070972E-03  5.66279069E-03
  4.28360000E-08  6.59080000E-08 -1.77873614E-01 -3.64151013E-02  1.35597000E-07
 -2.18670000E-08 -2.83833468E-01 -6.01886522E-02  4.60262000E-07 -3.52941700E-06
 -4.30547711E-01 -1.66088299E-01 -2.00336300E-06 -5.25196600E-05 -1.17045026E-01
 -1.21973964E-01  1.83246630E-05  9.81310000E-08  2.07859236E-02  1.08759869E-02
  2.41950000E-08  6.27610000E-08  8.96960699E-04  1.40827296E-03  6.70907034E-02
  2.75033261E-02  1.29004240E-02 -3.27955925E-03  8.73600525E-02  4.17021443E-02
  1.73145141E-02 -6.29340632E-03  1.77682477E-01  3.28351889E-02  2.67238425E-02
  4.45112259E-01 -1.11780172E-02 -7.82561083E-02 -9.30744954E-02  2.97658749E-03
 -5.46027619E-03 -3.50355575E-03 -4.33142132E-03  8.09884754E-03 -8.97157625E-04
 -1.40859506E-03  6.70904148E-02  2.75035153E-02 -1.29012276E-02  3.28047707E-03
  8.73596013E-02  4.17024011E-02 -1.73156129E-02  6.29673287E-03  1.77681889E-01
  3.28359545E-02 -2.67261189E-02 -4.45116619E-01 -1.11773434E-02 -7.82573474E-02
  9.30756426E-02 -2.97663887E-03 -5.46033706E-03 -3.50351083E-03  4.33141599E-03
 -8.09887141E-03 -6.35650000E-08 -1.06068000E-07  9.91161389E-02  2.05163583E-02
 -1.92194000E-07  3.78547000E-07  1.42357756E-01  2.81739416E-02 -2.72537000E-07
  7.40708000E-07  1.93087329E-01  4.58506608E-02 -4.12151000E-07  8.66893800E-06
  2.07364966E-01  8.42393384E-02 -5.21122600E-06 -1.00500000E-08  9.12664788E-03
  2.00635845E-03  8.64200000E-09  3.89600000E-09 -1.33779390E-02 -2.17828624E-02
 -3.40357275E-02  1.20729371E-02  3.38530060E-02  6.06501489E-02 -6.31510174E-02
  2.28879865E-02  6.56267858E-02  4.03324476E-01  5.28544310E-03 -4.56604975E-02
  7.64140199E-02 -1.08556977E+00  1.15921266E+00 -1.34679998E+00 -6.06136461E-01
 -9.27670622E-03 -4.51941777E-03  1.78063394E-02 -1.40577576E-02  1.29418582E-03
 -1.33777158E-02 -2.17824937E-02  3.40358262E-02 -1.20734404E-02  3.38524287E-02
  6.06492241E-02  6.31514987E-02 -2.28888088E-02  6.56261774E-02  4.03320496E-01
 -5.28582576E-03  4.56612017E-02  7.64068083E-02 -1.08533042E+00 -1.15920684E+00
  1.34672564E+00 -6.06172166E-01 -9.27642692E-03  4.51949842E-03 -1.78063417E-02
 -1.40577245E-02  1.29392112E-03 -4.02590122E-03 -1.97129768E-02  2.12696125E-02
  1.53140749E-03 -1.59297345E-02 -1.51676996E-03  6.69532460E-05 -4.66481277E-02
  2.93876585E-01  8.97435770E-03 -2.75368317E-03  3.62859421E-03  6.65675430E-05
 -4.66473019E-02  2.93864883E-01 -8.97438703E-03  2.75339496E-03  3.62835299E-03
 -4.02551198E-03 -1.97111467E-02  2.12584616E-02 -1.53134131E-03  1.59298697E-02
 -1.51701005E-03 -7.74612893E-04 -2.32909597E-03 -6.01400000E-07 -4.15237000E-07
 -2.70050719E-03  3.52058405E-02 -8.33359000E-07 -8.46161000E-07 -2.62649580E-02
 -4.63795800E-01 -2.45903500E-06  1.47714000E-07 -1.01587385E-01  1.10856857E+00
 -5.35532700E-06 -6.28348300E-06 -1.11386979E+00 -9.75902189E-04  5.41970000E-08
  1.29367000E-07 -1.23818134E-02 -1.23700996E-02  5.25592044E-03  8.54688227E-03
 -1.14837225E-02 -4.35996142E-03  4.56068352E-02 -2.34258640E-02 -1.44548426E-02
 -5.72470928E-03  6.61864239E-02 -1.10052310E-01 -3.49821146E-02 -4.13542962E-03
  1.11807720E-01  4.13438876E-01  1.15803026E-01 -2.43871163E-01  1.79342432E-01
  1.84182145E-03 -2.74540449E-03 -2.45362180E-05 -3.25173790E-03 -1.95447400E-03
  5.25626118E-03  8.54744376E-03  1.14846861E-02  4.36064575E-03  4.56072084E-02
 -2.34276396E-02  1.44561584E-02  5.72578049E-03  6.61868842E-02 -1.10057584E-01
  3.49849139E-02  4.13558002E-03  1.11809713E-01  4.13435545E-01 -1.15804444E-01
  2.43879933E-01  1.79344004E-01  1.84181198E-03  2.74538040E-03  2.45395360E-05
 -3.25170128E-03 -1.95448980E-03 -6.31375249E-03 -1.03212980E-02  3.29024000E-07
  4.85552000E-07  6.54184143E-03  2.92027280E-02  5.05705000E-07  7.73755000E-07
  1.22836319E-02  1.53115292E-01  5.11385000E-07  4.63753000E-07 -7.08653952E-02
  3.47900413E-01  2.17290800E-06  2.63848000E-06  1.58005748E-01  2.51916239E-03
  3.67380000E-08  1.30150000E-08 -1.36408537E-03 -1.19269949E-03 -6.77372000E-03
 -1.09704181E-02  3.84494635E-02  1.09051424E-02 -2.59265325E-02  3.32797038E-02
  7.99967615E-02  2.16548463E-02 -2.91254020E-02  1.95830830E-01 -1.07758600E-02
 -1.15788820E-02 -2.11530687E-01  1.68624774E-01 -1.82653037E+00 -8.93560661E-01
 -1.43580569E-01  3.83651318E-03  5.09965657E-03  1.02738249E-03 -1.51745374E-02
 -3.22200147E-03 -6.77376627E-03 -1.09704867E-02 -3.84488695E-02 -1.09049223E-02
 -2.59261394E-02  3.32796530E-02 -7.99959908E-02 -2.16546047E-02 -2.91248681E-02
  1.95833868E-01  1.07789634E-02  1.15780546E-02 -2.11526570E-01  1.68653979E-01
  1.82653454E+00  8.93560325E-01 -1.43554548E-01  3.83662251E-03 -5.09958646E-03
 -1.02745774E-03 -1.51747998E-02 -3.22223222E-03 -9.90236626E-03 -7.54722138E-02
  1.29525042E-02 -1.12492899E-02  1.81583384E-04  9.97639620E-04 -2.11754353E-02
 -1.78259167E-02 -4.05538306E-01  2.30258210E-03 -1.33567078E-02 -3.52012985E-03
 -2.11761889E-02 -1.78274194E-02 -4.05545403E-01 -2.30259474E-03  1.33566544E-02
 -3.52000546E-03 -9.90197573E-03 -7.54709105E-02  1.29567662E-02  1.12492771E-02
 -1.81457221E-04  9.97646331E-04 -4.88440846E-03 -8.16020728E-03 -1.79065000E-07
  6.58560000E-08 -3.98404408E-03  2.82560461E-02 -3.22272000E-07  2.04535000E-07
 -8.74064911E-03  3.46802870E-02  1.81880000E-08 -1.21880000E-08  1.01602737E-01
 -1.51349625E-01  5.34364700E-06  1.41882600E-06  8.91587549E-01  3.91286478E-03
  2.06780000E-08 -7.48180000E-08  2.80505826E-03 -2.41760919E-03 -2.94021164E-04
 -4.97015182E-04 -1.18607174E-02 -1.04533856E-02 -1.64400258E-02  1.98276730E-03
 -2.52394380E-02 -1.37340670E-02 -2.27879878E-02  1.40181424E-02  1.73366322E-02
 -3.89749512E-02 -4.92041145E-02  7.42513803E-01 -1.88916157E-01 -1.55596241E-01
 -1.83510357E-01  6.68385752E-04  1.31325444E-03 -1.47636783E-04 -4.13174162E-03
  1.44679679E-03 -2.94147680E-04 -4.97224187E-04  1.18602398E-02  1.04529497E-02
 -1.64400592E-02  1.98340421E-03  2.52386929E-02  1.37333094E-02 -2.27879717E-02
  1.40202508E-02 -1.73376182E-02  3.89751818E-02 -4.92047887E-02  7.42523647E-01
  1.88912315E-01  1.55589376E-01 -1.83510384E-01  6.68421799E-04 -1.31325726E-03
  1.47610009E-04 -4.13174315E-03  1.44677858E-03  5.58145062E-03  9.49968873E-03
 -1.20366000E-07 -1.69321000E-07 -6.37563326E-03 -3.60362612E-02 -2.23319000E-07
 -2.67039000E-07 -1.13052793E-02 -3.97750899E-02 -6.01300000E-09 -1.65572000E-07
  2.29849593E-02 -4.56223601E-01 -1.06465900E-06 -8.54232000E-07 -5.82442939E-02
 -4.76795236E-04  2.30110000E-08  1.08900000E-09  1.71078630E-05  4.32156496E-04
 -1.01290248E-02 -1.67027778E-02  1.82618251E-02 -2.51085946E-02  3.13961739E-02
  4.60571521E-02  2.68497475E-02 -3.58593418E-02  4.23900810E-02  1.96606785E-01
  1.06548398E-01 -6.93821552E-02  2.62190138E-01 -3.61882581E+00  1.35564976E-01
 -1.27126959E+00  1.92781424E+00 -1.43161833E-02 -2.67218115E-03 -1.47839770E-04
  1.19434268E-03  7.96409326E-03  1.01288131E-02  1.67024186E-02  1.82639427E-02
 -2.51077530E-02 -3.13976637E-02 -4.60560121E-02  2.68530288E-02 -3.58575038E-02
 -4.23916430E-02 -1.96607708E-01  1.06562792E-01 -6.93835711E-02 -2.62202201E-01
  3.61872944E+00  1.35552755E-01 -1.27127912E+00 -1.92786397E+00  1.43170311E-02
 -2.67238316E-03 -1.47366246E-04 -1.19456655E-03 -7.96381313E-03 -7.56863943E-03
 -5.59622555E-02  1.31310460E-01  3.70840449E-03  1.62816049E-03  1.10269456E-02
  1.44721756E-02  1.11594745E-02  3.30406969E-01 -6.13640739E-04 -5.89286088E-03
  1.14839139E-02 -1.44729318E-02 -1.11660909E-02 -3.30412552E-01 -6.13967943E-04
 -5.89288177E-03 -1.14840091E-02  7.56812862E-03  5.59622656E-02 -1.31314163E-01
  3.70889429E-03  1.62797812E-03 -1.10273255E-02 -1.81227000E-07 -2.44154000E-07
 -2.17428887E-03 -3.36103208E-02  1.60006000E-07 -6.65439000E-07 -3.83657903E-03
 -4.61960644E-02 -2.00730000E-08  2.29271970E-05  1.26769267E-02 -2.04420245E-01
  1.34999010E-05  1.37992868E-04 -1.34966006E-02 -6.72392897E-01  1.36453760E-05
  9.04300000E-08 -1.90321402E-03  6.83650933E-03  5.74606000E-07  2.08845000E-07
 -1.80838403E-02 -3.01897588E-02  1.36998068E-02  2.16052410E-02 -2.54112312E-02
  1.03268915E-01  2.12862755E-02  3.71443477E-02 -3.32773349E-02  2.19225031E-01
  3.46872727E-02 -2.21239670E-02 -8.89643413E-02  1.03974884E+00  5.77262425E-02
  1.50064628E-01  4.12410048E-02 -2.24985984E-03 -7.66332616E-04  7.20714367E-04
 -1.90538226E-04 -7.66853516E-04  1.80839409E-02  3.01899339E-02  1.37004349E-02
  2.16052741E-02  2.54082154E-02 -1.03269651E-01  2.12870686E-02  3.71440895E-02
  3.32728396E-02 -2.19223607E-01  3.46891865E-02 -2.21218573E-02  8.89573855E-02
 -1.03972172E+00  5.77240973E-02  1.50064030E-01 -4.12699541E-02  2.24979653E-03
 -7.66171429E-04  7.20671337E-04  1.90583180E-04  7.66896485E-04  6.19988000E-07
  1.04304500E-06  4.06093088E-03  4.97133649E-02 -4.71311000E-07 -3.73837000E-06
  7.07514809E-03  7.50797934E-02 -8.16277000E-07 -7.18721400E-06  4.04620318E-03
  7.94078610E-02  2.96684300E-06 -6.33315160E-05  9.28762783E-03  1.92597111E-01
  1.06292520E-05 -7.01380000E-08 -1.14506311E-04 -5.84817890E-05  5.16480000E-08
  2.01260000E-08  7.10285120E-03  1.18568690E-02  3.98904434E-02  1.63204770E-02
  1.76467641E-02 -4.16798655E-02  6.93088965E-02  2.59641464E-02  8.12675424E-03
 -3.16822736E-02  2.29083672E-01  1.67354179E-02  2.31551444E-01  9.46903954E-01
 -9.14263967E-01  9.30549122E-02  7.42503292E-01 -1.02344388E-02 -5.76061761E-03
  4.67197235E-03  6.58089690E-03 -4.47023527E-03  7.10332789E-03  1.18576471E-02
 -3.98900662E-02 -1.63215562E-02  1.76450254E-02 -4.16816058E-02 -6.93084419E-02
 -2.59656085E-02  8.12435424E-03 -3.16971420E-02 -2.29080206E-01 -1.67347453E-02
  2.31533110E-01  9.47043768E-01  9.14267950E-01 -9.31036496E-02  7.42396734E-01
 -1.02336874E-02  5.76020998E-03 -4.67205233E-03  6.58072871E-03 -4.47041969E-03
  2.05344229E-02 -7.82669430E-04  2.58827540E-01  6.91241923E-03  4.19017719E-04
  2.48851814E-03  3.18445050E-03  9.92747528E-02  4.60800550E-02 -9.85497211E-03
 -8.11133869E-04  3.58966724E-03  3.18411145E-03  9.92753370E-02  4.60653526E-02
  9.85487467E-03  8.10849888E-04  3.58897226E-03  2.05340851E-02 -7.81692893E-04
  2.58813097E-01 -6.91220649E-03 -4.18860723E-04  2.48800999E-03  7.57886401E-03
  1.15938357E-02  3.42169000E-07 -7.29878000E-07 -4.31461550E-03 -1.44286682E-02
  4.89022000E-07 -9.16257000E-07  4.46457753E-03 -4.80119446E-01  1.21541600E-06
 -6.13713700E-06 -4.89685936E-01 -3.07688328E+00 -2.84050200E-06 -1.99595630E-05
 -1.17578809E+00 -2.48893080E-03 -7.14190000E-08  2.13987000E-07 -1.23547063E-02
 -4.43718688E-03 -2.63355729E-03 -4.49374550E-03  3.77630553E-03  3.41550214E-03
  3.67498385E-02  1.74903958E-02  2.12088165E-03 -1.98249879E-03  5.25271687E-02
 -1.73000536E-02  1.94750418E-02  5.60700440E-02  9.96637233E-02 -8.30168502E-01
 -1.47569088E-01  1.21027037E-01  3.87194639E-01  7.97340790E-05  2.61420387E-03
 -1.62209264E-04  3.88746391E-04  8.71726435E-04 -2.63262552E-03 -4.49219469E-03
 -3.77534507E-03 -3.41437053E-03  3.67511468E-02  1.74851854E-02 -2.11935449E-03
  1.98447468E-03  5.25288371E-02 -1.73129615E-02 -1.94726310E-02 -5.60717634E-02
  9.96691773E-02 -8.30233987E-01  1.47577630E-01 -1.21022211E-01  3.87191236E-01
  7.98592270E-05 -2.61420017E-03  1.62236808E-04  3.88742118E-04  8.71769301E-04
 -1.93566764E-02 -3.26065903E-02  7.98460000E-08  1.31533800E-06  1.61422741E-02
  1.17942684E-01  1.77076000E-07  1.97974500E-06  3.06958501E-02  2.10119428E-01
 -1.48976000E-07  2.15091100E-06 -1.00283812E-01  2.08064035E+00 -1.21329000E-07
  5.13151800E-06 -2.54630439E-01  1.51817914E-03 -3.61300000E-08 -1.44800000E-08
 -1.00169596E-03 -1.53515807E-04 -2.91930019E-03 -4.86863693E-03  3.27952138E-02
 -1.17080326E-02 -8.40075293E-03  1.79020405E-02  4.56763086E-02 -1.93905764E-02
  2.44586901E-03  1.62549741E-02  1.74514355E-01 -5.01444897E-02 -1.94637730E-01
  6.42799634E-01 -4.31364594E-01  1.40641036E-01 -2.08968837E-01 -8.60170767E-04
  5.81851641E-03 -1.40720241E-03 -4.12228528E-03  8.96143634E-03  2.91952399E-03
  4.86898789E-03  3.27946808E-02 -1.17086755E-02  8.40104288E-03 -1.79026712E-02
  4.56758154E-02 -1.93913179E-02 -2.44559729E-03 -1.62650942E-02  1.74508685E-01
 -5.01489958E-02  1.94641934E-01 -6.42794515E-01 -4.31377418E-01  1.40637220E-01
  2.08982005E-01  8.60097630E-04  5.81860297E-03 -1.40725646E-03  4.12233628E-03
 -8.96143643E-03 -1.74611945E-02 -8.26386142E-02 -4.13251747E-01 -4.46757944E-03
 -6.32443684E-04  7.82482621E-03  5.58018927E-03  5.60710167E-02 -1.05328155E-01
  3.98262822E-04 -4.43631880E-03 -7.03179658E-03 -5.57957416E-03 -5.60688263E-02
  1.05343894E-01  3.98384098E-04 -4.43641860E-03  7.03188665E-03  1.74616444E-02
  8.26399924E-02  4.13258070E-01 -4.46771969E-03 -6.32476076E-04 -7.82467706E-03
  8.81200000E-08  1.42766000E-07 -4.03037137E-02 -1.89581004E-02  9.84890000E-08
 -4.08799000E-07 -6.73850291E-02 -1.39275624E-02  2.46343000E-07 -1.67778400E-06
 -4.02936499E-02 -1.46991113E-01 -1.43891800E-06 -1.61120910E-05  2.02757255E+00
 -2.66246295E-01 -2.52445200E-06  3.13450000E-08 -5.87751549E-03  2.25195126E-03
 -7.57780000E-08 -7.07400000E-09 -4.15189154E-03 -6.97695144E-03 -3.56063838E-02
 -9.44456953E-04 -2.66412224E-03  2.50830518E-02 -5.81410170E-02 -3.03213460E-03
 -2.18171823E-03  2.74144448E-02 -4.33235405E-02  1.85053696E-03 -3.06919930E-03
  1.23312717E-01 -2.14104876E-01 -3.72836076E-02  2.88316889E-01 -2.47371627E-04
 -1.30909762E-03  8.91763610E-05 -8.82517021E-04  1.82244431E-03  4.15185352E-03
  6.97688859E-03 -3.56066266E-02 -9.44536568E-04  2.66447767E-03 -2.50828413E-02
 -5.81413519E-02 -3.03212383E-03  2.18226550E-03 -2.74144944E-02 -4.33242216E-02
  1.84956682E-03  3.06987763E-03 -1.23320090E-01 -2.14106063E-01 -3.72853665E-02
 -2.88313475E-01  2.47373349E-04 -1.30911685E-03  8.91081500E-05  8.82533249E-04
 -1.82246125E-03 -7.08420000E-08 -1.20038000E-07 -3.62959975E-02  7.17296339E-03
  1.94270000E-08  4.50726000E-07 -6.89672491E-02  8.59467004E-03  5.63090000E-08
  5.41453000E-07  1.24559941E-02  2.42237187E-02 -2.51338000E-07  6.89952300E-06
 -4.46472173E-01 -5.09946861E-03 -1.29727900E-06 -8.55200000E-09  5.28763105E-03
  8.78144383E-04 -2.04300000E-09 -2.10400000E-09 -7.80603209E-03 -1.30833370E-02
 -2.10261216E-02  5.74608404E-02 -3.95941100E-02  3.96168026E-02 -2.61534404E-02
  7.71346084E-02 -4.42930869E-02  2.83007735E-01 -1.64811434E-01  5.06555254E-01
 -2.53222918E-01 -5.14282422E+00 -1.75543034E-01 -1.64403064E-01 -2.64364762E+00
  2.14055695E-02 -7.00273923E-04  7.18354941E-03  1.27149152E-02 -6.01817891E-03
  7.80550394E-03  1.30824741E-02 -2.10267266E-02  5.74617268E-02  3.95951129E-02
 -3.96145417E-02 -2.61545806E-02  7.71361237E-02  4.42948603E-02 -2.82993329E-01
 -1.64814058E-01  5.06559487E-01  2.53225165E-01  5.14269584E+00 -1.75525714E-01
 -1.64387995E-01  2.64358850E+00 -2.14058995E-02 -7.00312146E-04  7.18333931E-03
 -1.27149165E-02  6.01814334E-03  1.61602963E-02  4.37540742E-02  1.79624178E-01
 -4.14649983E-03  4.08602066E-03 -9.90476630E-03 -1.29913123E-02 -6.46786178E-02
 -9.30346661E-02  1.14269882E-03  9.19686449E-03 -6.58893694E-03  1.29912863E-02
  6.46779474E-02  9.30389573E-02  1.14262078E-03  9.19692483E-03  6.58883228E-03
 -1.61605135E-02 -4.37567656E-02 -1.79622552E-01 -4.14642390E-03  4.08613405E-03
  9.90483951E-03 -1.39523000E-07 -2.16060000E-07  1.13030234E-02  7.06517411E-02
 -1.20323000E-07  2.97386000E-07  3.57023355E-03  1.60024470E-01 -3.95224000E-07
  3.74639000E-06  1.12431259E-01 -1.21831867E-01  2.37071000E-06  1.19362670E-04
  2.11260262E-01 -3.59577308E+00 -5.12662260E-05 -3.85051000E-07 -1.29559997E-03
  1.87806718E-02  5.50940000E-08  3.38910000E-08  9.57841729E-03  1.57343737E-02
 -1.47642721E-02  1.19781379E-02  2.18719905E-02 -4.83980407E-02 -2.14390345E-02
  2.35613847E-02  3.93339499E-02 -1.48250379E-01 -3.46471917E-02  3.67343847E-03
  2.40179329E-02 -3.39518633E-02  8.86957255E-03 -1.40527857E-01  7.76575550E-01
  5.45402890E-03  2.13487263E-03 -8.57879287E-03 -1.35581238E-04  5.56126509E-04
 -9.57804702E-03 -1.57337674E-02 -1.47641378E-02  1.19775192E-02 -2.18708291E-02
  4.83962613E-02 -2.14388103E-02  2.35602086E-02 -3.93324758E-02  1.48243722E-01
 -3.46469996E-02  3.67312691E-03 -2.40136312E-02  3.39593385E-02  8.86544339E-03
 -1.40530054E-01 -7.76583564E-01 -5.45387926E-03  2.13484775E-03 -8.57871728E-03
  1.35633750E-04 -5.56122846E-04  1.04988000E-07  1.73993000E-07 -5.21272780E-03
  1.44592010E-02  4.18206000E-07 -6.13562000E-07 -6.12765447E-03  3.13628739E-02
  6.71010000E-07 -1.19997900E-06 -1.81142674E-02 -3.81138007E-02  1.78000000E-10
 -6.62072500E-06  5.70480262E-03  4.26659083E-01  8.81889300E-06  8.26000000E-09
 -5.30111342E-04 -7.44728798E-03  4.35700000E-09 -5.24600000E-09 -2.23588640E-02
 -3.75677779E-02  1.90463742E-02 -2.66296453E-02  1.03410544E-01  1.30848294E-01
  3.51974959E-02 -5.18684497E-02  1.66257580E-01  1.63728009E-01  3.73743039E-02
 -3.98377947E-02  4.16763204E-01 -5.04750363E+00 -6.99246843E-01 -1.69883727E-01
 -2.24727783E+00 -2.28688107E-02 -8.55936886E-03  2.15890846E-02 -1.66720431E-03
 -3.67687574E-03 -2.23552111E-02 -3.75615135E-02 -1.90532253E-02  2.66201098E-02
  1.03417208E-01  1.30822693E-01 -3.52044193E-02  5.18522536E-02  1.66264748E-01
  1.63767802E-01 -3.74302155E-02  3.97595390E-02  4.16844419E-01 -5.03835859E+00
  6.99198491E-01  1.67323223E-01 -2.24683595E+00 -2.28687565E-02  8.55987833E-03
 -2.15888911E-02 -1.66545305E-03 -3.67431666E-03  2.07968424E-02  5.24362389E-02
  5.44163630E-01 -1.45858376E-03 -4.18600799E-03  4.25410273E-03 -2.14047209E-03
 -5.44863898E-03  2.81158632E-01  3.02882278E-03 -2.83030091E-03  8.83706796E-03
 -2.13445318E-03 -5.40556304E-03  2.81087466E-01 -3.02528903E-03  2.83122451E-03
  8.83708485E-03  2.07972327E-02  5.24587155E-02  5.43994604E-01  1.45575732E-03
  4.18506710E-03  4.25300757E-03 -1.96291065E-03 -2.60753803E-03 -5.70364000E-06
 -3.82713000E-06  7.51594650E-03 -7.46410539E-03 -6.53212700E-06 -7.45433200E-06
  1.68298330E-02 -2.02053129E-01 -3.13172790E-05  5.29815200E-06  4.30984186E-01
  8.22194160E+00 -3.80048050E-05 -1.04040250E-04 -3.49019116E+00 -4.05587707E-02
  8.49140000E-08  4.45062000E-07  4.69066824E-03 -3.60496617E-03  1.93411593E-02
  3.18279701E-02 -2.34038520E-02  3.22444759E-02  8.72723551E-02 -9.86764265E-02
 -3.83493807E-02  6.20631933E-02  1.17043062E-01 -3.37026784E-01 -3.17267520E-02
 -1.63509128E-02  2.87452741E-01  7.88460146E-01 -3.33569191E-02  2.87350866E-02
 -4.65227096E-01  1.02356774E-02 -2.24345837E-03  2.59379043E-04  3.10033033E-03
  2.41929873E-03  1.93407800E-02  3.18272000E-02  2.34105967E-02 -3.22428020E-02
  8.72724039E-02 -9.86707394E-02  3.83592905E-02 -6.20623341E-02  1.17043384E-01
 -3.37041251E-01  3.17399162E-02  1.63641983E-02  2.87446089E-01  7.89047351E-01
  3.33542534E-02 -2.86995146E-02 -4.65321712E-01  1.02363434E-02  2.24334960E-03
 -2.58720618E-04  3.09977101E-03  2.41887224E-03  9.82235431E-03  1.57763334E-02
  3.00310100E-06  5.33124000E-07  3.63851428E-02 -4.36748296E-02  4.03863400E-06
  1.34696100E-06  5.80956270E-02 -2.34499900E-01  7.90768200E-06 -1.94515700E-06
  2.34426312E-02 -1.28966099E-01  1.58135120E-05  1.34663700E-05  4.18991474E-01
 -1.05089732E-03  3.20332000E-07  2.71567000E-07 -1.00553783E-04 -4.76157804E-04
  1.68112277E-02  2.85381769E-02  2.37319071E-02  4.33220162E-02  3.24774783E-02
 -1.09489465E-01  2.62356732E-02  6.93911011E-02  3.18526910E-02  5.56217744E-02
  1.86604722E-01  3.56974148E-01  3.95434836E-01  3.61167608E+01  8.34025994E-02
  1.00453823E+01  2.09764467E+00 -7.05437200E-05 -5.21416320E-03 -5.09507779E-04
  8.68644674E-03  8.46015897E-03 -1.68054001E-02 -2.85334731E-02  2.35955319E-02
  4.33090020E-02 -3.17943788E-02  1.09583480E-01  2.60080352E-02  6.92499466E-02
 -3.08659577E-02 -5.73616809E-02  1.85758083E-01  3.57057575E-01 -3.91433115E-01
 -3.60736437E+01  8.60597695E-02  1.00395314E+01 -2.08164527E+00 -1.47969600E-06
 -5.19093913E-03 -6.76243344E-04 -8.62816330E-03 -8.46637146E-03  8.86874000E-03
  1.01230872E-01 -4.05634065E-01  1.29826087E-02  3.92532859E-03 -4.88012978E-03
  2.34026281E-02  1.70811090E-01 -2.12548723E-01 -1.54835182E-02 -4.28157675E-03
  7.64347292E-04 -2.32368580E-02 -1.69806726E-01  2.12856922E-01 -1.54430368E-02
 -4.28934030E-03 -7.76964359E-04 -8.63830694E-03 -1.00287661E-01  4.07677742E-01
  1.29138151E-02  3.93632586E-03  4.90098391E-03  7.42368010E-05  1.16305210E-04
  4.16468219E-02  3.09036134E-02  2.55817798E-04 -1.31284952E-04  5.07497842E-02
  5.24910093E-02  3.69229645E-04 -3.05454009E-03  2.12430575E-01  2.36377881E-02
  2.76644439E-03 -4.63013841E-02  3.26701066E-01  1.13804444E+00  2.46724431E-02
  1.20662190E-05 -4.29510874E-04 -4.44531680E-03 -1.65562225E-04 -9.48845970E-05
 -1.50409602E-03 -3.00395704E-03 -2.22118813E-02 -6.76122483E-03  7.24251050E-04
  2.17233587E-02 -3.33997998E-02 -4.02482382E-03  9.57725940E-04 -4.81143075E-02
 -3.75071139E-02 -5.11057497E-02 -2.31752640E-02  2.19452382E+00 -1.02451697E-02
 -6.53963874E-02 -4.75903671E-01  2.99453325E-03  9.75848017E-04 -2.66699133E-03
 -2.88214781E-03 -1.37681105E-03  1.43824797E-03  2.89101958E-03 -2.22402707E-02
 -6.56165239E-03 -6.68432500E-05 -2.12637882E-02 -3.34243231E-02 -3.74297123E-03
  4.90367000E-07  4.84415573E-02 -3.77235012E-02 -5.02803447E-02  2.48072134E-02
 -2.18380058E+00 -1.03387795E-02 -6.17771973E-02  4.82002769E-01 -2.91972256E-03
  9.87702672E-04 -2.71811840E-03  2.88227836E-03  1.37337148E-03  1.05459870E-05
  1.64782150E-05 -2.54666491E-02 -8.83982462E-03 -1.48574187E-04 -3.63211020E-05
 -3.53102375E-02 -1.72194350E-02 -2.80148751E-04 -3.31428531E-04 -6.13658293E-02
  4.83309016E-03  2.32503196E-04 -4.58410917E-03 -1.30330526E-01 -1.22324963E-01
 -4.54397914E-04  2.42461740E-05 -2.12519834E-03 -1.73332187E-03 -1.96955410E-05
 -1.07732830E-05  1.20204717E-03  1.45764967E-03  1.47527812E-02  2.01367407E-03
  7.31929983E-02  6.91699034E-03  2.45093232E-02  1.66192383E-02  1.05210513E-01
 -1.95847900E-01  9.39456909E-02 -9.04382866E-03  4.35023121E-01  4.74465379E+00
 -2.77739150E-01  6.07284080E-01  1.82459908E+00 -7.35379278E-03 -2.34022728E-03
  1.80637368E-02  6.57905753E-03 -6.25265723E-04  1.35319620E-03  1.71415194E-03
 -1.49663287E-02 -2.40374443E-03  7.34814294E-02  5.93515350E-03 -2.47453180E-02
 -1.72419348E-02  1.05491431E-01 -1.95383447E-01 -9.56217440E-02  5.82935598E-03
  4.38553469E-01  5.06752439E+00  2.76977815E-01 -6.97128711E-01  1.84332488E+00
 -7.35404620E-03  2.38670026E-03 -1.80584860E-02  6.65747686E-03 -5.48662168E-04
  2.51777724E-02  1.02556951E-01  2.21401046E-01  7.69613404E-03 -1.13145026E-03
  2.17085675E-03  1.85747763E-02  1.10945123E-01  3.55718751E-02 -4.59717860E-03
  9.28939998E-04 -1.68362183E-03  1.87859387E-02  1.12473436E-01  3.37377922E-02
  4.73606083E-03 -8.90363101E-04 -1.67697927E-03  2.52562591E-02  1.03458815E-01
  2.17801973E-01 -7.81248189E-03  1.09594071E-03  2.12711217E-03  1.66926257E-02
  2.61716606E-02 -1.86219628E-04 -1.39177761E-04  5.70759251E-02 -3.01964142E-02
 -2.27369694E-04 -2.35673165E-04  8.17219642E-02 -6.66732132E-01 -9.46622632E-04
 -1.17983457E-04  6.07278801E-01 -1.04745390E+01 -1.45144641E-03 -5.10178989E-03
  5.56334046E+00  3.88430831E-03  1.90645800E-06  2.00430270E-05 -3.71663997E-02
 -2.11169933E-02 -7.92107910E-03 -1.35462318E-02  3.94667369E-03 -2.32216217E-02
  7.09983337E-02  5.42340265E-02  4.02084040E-03 -3.33382868E-02  1.03698984E-01
  4.66259476E-02  2.50591382E-02 -9.10682230E-02  1.74738277E-01  1.15611890E+00
  1.17621844E-02 -4.02750793E-01  6.97132356E-01  8.04943050E-03 -1.26749105E-03
  5.73309372E-03 -3.82437650E-05 -4.30167482E-04 -7.93407483E-03 -1.35723244E-02
 -3.74668230E-03  2.32818008E-02  7.10018580E-02  5.44253517E-02 -3.72032468E-03
  3.33739312E-02  1.03703132E-01  4.61934754E-02 -2.47192053E-02  9.15217408E-02
  1.74523824E-01  1.17564279E+00 -1.16561133E-02  4.03291871E-01  6.92829666E-01
  8.07599277E-03  1.25881457E-03 -5.70875306E-03 -6.41816150E-05 -4.42596063E-04
  2.06377703E-03  3.21355188E-03  1.14008214E-04  4.00494250E-05 -3.42485906E-02
 -6.88227657E-03  1.58070788E-04  7.75742880E-05 -6.41885545E-02 -6.69341529E-02
  2.74714211E-04 -1.94239620E-05  5.07626226E-02 -1.03293600E+00  5.81562845E-04
  5.45048724E-04 -1.00417300E-01  5.48027830E-03  9.51331100E-06  7.77975000E-06
 -4.39297602E-03 -2.39291162E-03  5.98545517E-03  1.03045118E-02 -8.52258457E-02
  1.94963341E-02  1.74199716E-02 -5.20663531E-02 -9.05807814E-02  2.81911400E-02
  5.08001184E-03  2.01658602E-01 -7.05067024E-01  2.48127299E-01  3.87026332E-01
  3.38962706E+00 -1.21698219E+00  5.12697994E-01  1.98792693E+00  1.10999575E-02
 -2.85282863E-02  5.99913412E-03 -4.17128018E-03 -4.24424532E-02 -5.98558319E-03
 -1.03046880E-02 -8.52249049E-02  1.94977319E-02 -1.74237694E-02  5.20667179E-02
 -9.05796446E-02  2.81923362E-02 -5.08495920E-03 -2.01647381E-01 -7.05061942E-01
  2.48136648E-01 -3.87057563E-01 -3.38952677E+00 -1.21699212E+00  5.12715934E-01
 -1.98791404E+00 -1.10998130E-02 -2.85285083E-02  6.00042558E-03  4.17137007E-03
  4.24424263E-02  6.47217650E-02  1.63820139E-01  1.87911887E+00  8.70441560E-03
 -1.39287586E-02 -1.20658117E-02 -5.64632715E-02 -1.40452187E-01 -1.43946081E+00
  3.25615741E-03  1.39905492E-02  5.68035149E-03  5.64622226E-02  1.40450318E-01
  1.43943044E+00  3.25580671E-03  1.39904266E-02 -5.68030629E-03 -6.47235946E-02
 -1.63824992E-01 -1.87916284E+00  8.70464378E-03 -1.39289108E-02  1.20659610E-02
 -4.85636000E-07 -8.23056000E-07  1.26369146E-02  1.19151608E-02 -8.97463000E-07
  3.00874900E-06  3.63369309E-02  1.79995037E-02 -1.23525700E-06  8.02175000E-06
 -3.80862291E-02 -1.58585191E-01 -6.42107400E-06 -8.42101320E-05  9.96203730E-01
  1.08697081E+00  4.21676770E-05  2.23156000E-07  1.22510966E-03  9.15682277E-03
  1.65416000E-07  1.08662000E-07  3.38156409E-03  5.62545061E-03  1.86728429E-02
  1.63555558E-02  1.42202320E-02 -1.95135161E-02  2.22190367E-02  2.86913587E-02
  1.96435418E-02 -3.85253458E-02  7.97950651E-02 -1.02714184E-02  3.29617608E-02
  1.13644360E+00  3.13432589E-01 -2.64642246E-01 -1.45148652E-01  3.30843841E-03
  6.67135240E-03  5.34334851E-04 -4.47664709E-04  5.16966799E-03 -3.38169288E-03
 -5.62565745E-03  1.86729365E-02  1.63557114E-02 -1.42228139E-02  1.95140332E-02
  2.22191667E-02  2.86915564E-02 -1.96467995E-02  3.85295670E-02  7.97950723E-02
 -1.02712293E-02 -3.29726733E-02 -1.13641237E+00  3.13432261E-01 -2.64636875E-01
  1.45140870E-01 -3.30872246E-03  6.67123426E-03  5.34780839E-04  4.47584873E-04
 -5.16969063E-03 -5.75220000E-08 -9.22850000E-08 -3.51453506E-02 -1.95661985E-02
  6.87370000E-08  3.03008000E-07 -5.58739863E-02 -3.55688318E-02  1.16390000E-08
  1.40484500E-06 -4.59223226E-02  8.61216360E-05  9.50968000E-07  6.14440700E-06
 -1.10642386E-01 -1.58255166E-01 -7.91475900E-06  1.34450000E-08  1.61745550E-03
  3.24059638E-04  2.55700000E-08  2.28220000E-08 -1.53769467E-04 -8.90575261E-04
 -6.80325214E-03 -1.28261422E-01  1.09689522E-01  2.64413782E-02  7.47397207E-03
 -1.92166220E-01  1.79296358E-01 -4.21007256E-01 -1.20038463E-01 -8.61594541E-01
  5.36486493E-01  1.01469625E+01 -2.93411560E-01  3.87903968E+00 -2.06750614E+00
 -2.29670974E-02 -3.34533470E-03 -1.53154888E-02 -2.87339284E-02 -9.59505244E-03
  1.53369143E-04  8.89907258E-04 -6.80161273E-03 -1.28260598E-01 -1.09689709E-01
 -2.64383043E-02  7.47555362E-03 -1.92166179E-01 -1.79296174E-01  4.21005801E-01
 -1.20019364E-01 -8.61586268E-01 -5.36498813E-01 -1.01468438E+01 -2.93372354E-01
  3.87902676E+00  2.06752758E+00  2.29668399E-02 -3.34484974E-03 -1.53150137E-02
  2.87335574E-02  9.59475436E-03 -1.37845294E-02  2.97852282E-02 -1.76952481E-01
 -1.25638884E-03 -1.46179586E-02  1.19850021E-02 -2.25068965E-02 -1.11899589E-02
 -8.04925967E-01  1.14079694E-02 -5.63327894E-03  1.13864579E-02  2.25052394E-02
  1.11875784E-02  8.04857662E-01  1.14075263E-02 -5.63324834E-03 -1.13858989E-02
  1.37839882E-02 -2.97825060E-02  1.76930522E-01 -1.25624292E-03 -1.46180653E-02
 -1.19849386E-02 -5.16308000E-07 -9.01358000E-07  6.97901240E-03 -1.16815194E-01
 -1.03135000E-06  3.70215700E-06  4.89235579E-03 -1.71984680E-01 -8.75307000E-07
 -7.69332900E-06  1.08176426E-01 -6.65059720E-01 -4.10980500E-06 -1.10072313E-04
  1.03029895E-01 -1.48887113E+00  4.30209360E-05 -3.24719000E-07  3.32415781E-03
 -7.98813153E-03  6.66424000E-07  1.47705000E-07 -2.48292277E-02 -4.06991806E-02
  3.76151501E-02 -4.43835109E-03 -3.78875069E-02  1.19819309E-01  5.54798851E-02
 -2.14740361E-02 -5.04162536E-02  5.24411406E-01  1.06554554E-01  3.18702437E-03
 -1.28782690E-01  8.96750799E-01  2.11632903E-01 -6.80554275E-01  5.01884442E-01
 -1.37293048E-02  1.22950492E-03  1.26488807E-02  3.77916100E-04  1.04928976E-03
  2.48298699E-02  4.07002514E-02  3.76167748E-02 -4.43985115E-03  3.78865345E-02
 -1.19822959E-01  5.54821487E-02 -2.14767025E-02  5.04152225E-02 -5.24422158E-01
  1.06558931E-01  3.18634096E-03  1.28777852E-01 -8.96704461E-01  2.11630301E-01
 -6.80550454E-01 -5.01902795E-01  1.37291684E-02  1.22966003E-03  1.26492087E-02
 -3.77961545E-04 -1.04920070E-03  7.38230000E-08  1.13285000E-07 -5.18800706E-03
  7.28867964E-02  7.01338000E-07 -1.24354000E-07 -6.31292129E-03  1.04784690E-01
  9.84997000E-07 -2.89937400E-06 -2.23387771E-02  1.75687998E-01  1.61104100E-06
  2.93957070E-05  5.06090910E-02  1.24343344E-01 -1.92182420E-05 -8.35700000E-08
  1.39107146E-04  5.22865602E-03  4.11100000E-08  2.18130000E-08  2.78695386E-02
  4.43020206E-02 -6.95537694E-02  5.18360543E-02 -4.47331807E-03 -8.97364819E-02
 -7.79943190E-02  5.99269585E-02 -2.07126340E-02 -1.66253643E+00 -6.03258768E-01
  4.08681511E-01 -1.88796213E-01 -3.31720089E+00 -6.82419580E-01 -7.46816176E-01
 -5.28914560E-01 -6.76780090E-04 -1.43108912E-02  5.76853604E-03  5.28421758E-03
 -2.68125106E-03  2.78709798E-02  4.43043445E-02  6.95517090E-02 -5.18341943E-02
 -4.47354765E-03 -8.97420840E-02  7.79921937E-02 -5.99233054E-02 -2.07133930E-02
 -1.66259185E+00  6.03239072E-01 -4.08671497E-01 -1.88797123E-01 -3.31769985E+00
  6.82392467E-01  7.46918154E-01 -5.28923090E-01 -6.77089126E-04  1.43105118E-02
 -5.76866407E-03  5.28354779E-03 -2.68075010E-03  4.08412559E-02  4.74678255E-02
  2.41966410E+00  1.15453578E-02 -8.00509794E-03 -1.48014807E-02  8.82733459E-03
  1.27279856E-02  1.57252009E-01  2.10556571E-03  3.65244867E-03  8.09518498E-03
  8.82886435E-03  1.27297747E-02  1.57318438E-01 -2.10533257E-03 -3.65189634E-03
  8.09513466E-03  4.08417961E-02  4.74658822E-02  2.41967928E+00 -1.15449016E-02
  8.00544192E-03 -1.48017064E-02  6.38838782E-03  9.37871993E-03  3.34441000E-07
  2.44089000E-07  1.25520596E-02  6.94007603E-03  9.11444000E-07 -5.22520000E-08
  7.28407686E-03 -8.85800351E-01 -1.78689100E-06  5.13415200E-06  5.71035210E-01
  3.35396863E+00 -3.78774500E-06  1.46947120E-05 -8.90732704E-01  6.72661625E-04
  1.54421000E-07 -2.00525000E-07  2.75061118E-02  1.83860565E-02 -7.66906815E-03
 -1.24655372E-02 -3.28563161E-02  1.75073391E-02 -3.74198765E-02  3.12014179E-02
 -3.78481894E-02  2.23516457E-02 -4.95222489E-02  1.82109352E-01 -9.62230296E-02
 -1.04719288E-02 -1.51702756E-01  1.83640002E+00  5.38785110E-01 -7.18236321E-01
 -6.76555688E-01 -7.67642575E-03  1.14854300E-06  1.25151434E-03  2.92250210E-03
  3.84749507E-03 -7.66878965E-03 -1.24650712E-02  3.28553478E-02 -1.75082094E-02
 -3.74190560E-02  3.11998391E-02  3.78472014E-02 -2.23527542E-02 -4.95208282E-02
  1.82105858E-01  9.62189170E-02  1.04690353E-02 -1.51700313E-01  1.83640204E+00
 -5.38773716E-01  7.18256021E-01 -6.76530188E-01 -7.67637195E-03 -1.12241300E-06
 -1.25165714E-03  2.92270235E-03  3.84737870E-03  1.01459305E-03  1.30649151E-03
 -4.85360000E-08  1.57080000E-08 -8.03091773E-03  3.67312430E-03 -2.35258000E-07
  1.10022000E-07 -1.26152263E-02 -1.32664326E-01  6.55009000E-07 -4.52615000E-07
  7.69121564E-03 -6.26785580E-01 -3.25108600E-06  1.47327000E-06  2.48922048E-01
  5.95465237E-04 -5.22990000E-08  3.61500000E-09  2.49736133E-03  3.68184087E-03
  5.35287804E-03  8.31648546E-03  3.77485086E-02  1.70719763E-02 -1.57730250E-02
  6.72108568E-03  4.36253328E-02  3.67069669E-02 -3.29328021E-02 -8.27125633E-01
  3.65124312E-01  3.34277967E-02 -3.51701355E-01  1.50302713E+00  6.15474638E-01
  1.42528937E-01  2.86791896E-01 -2.11954021E-02  6.41833647E-03 -2.24360129E-02
 -6.41859830E-03 -5.62543332E-03  5.35333188E-03  8.31705664E-03 -3.77494560E-02
 -1.70743451E-02 -1.57658928E-02  6.72383928E-03 -4.36275110E-02 -3.67079500E-02
 -3.29229149E-02 -8.27200194E-01 -3.65131148E-01 -3.34575478E-02 -3.51649613E-01
  1.50126269E+00 -6.15456795E-01 -1.42111703E-01  2.86681715E-01 -2.11958568E-02
 -6.41692704E-03  2.24364843E-02 -6.41730849E-03 -5.62489230E-03 -3.08378746E-02
 -5.63759995E-02 -9.53620469E-01  8.37037203E-04  3.88662146E-03  1.18253366E-02
 -2.19991459E-03  6.20052402E-02  3.76309735E-01 -3.23745802E-03  2.82197610E-03
  2.26292712E-03 -2.19712516E-03  6.20155329E-02  3.76419063E-01  3.23800869E-03
 -2.82182304E-03  2.26404586E-03 -3.08356079E-02 -5.63734357E-02 -9.53453696E-01
 -8.38047368E-04 -3.88704408E-03  1.18250419E-02 -7.19149758E-02 -1.22666492E-01
 -3.22257000E-07 -7.79375000E-07 -9.18377354E-02  4.28243374E-01 -9.51734000E-07
 -4.55063000E-07 -1.50886671E-01  9.48880963E-01  2.57960700E-06 -1.85018630E-05
  6.13384232E-02 -5.07081337E+00 -1.27743110E-05  3.71258620E-05  1.97925527E+00
 -2.09183879E-02 -1.31208000E-07  2.94768000E-07  4.14809289E-02  2.81557683E-02
  2.60883114E-02  4.27135295E-02 -1.82191694E-02  1.05161338E-01 -6.09322557E-02
 -1.24849578E-01 -3.36887756E-02  1.62241678E-01 -7.69830943E-02 -6.19311799E-01
 -1.09502052E-02  2.49059319E-01 -2.41222365E-01  2.29719496E+00  2.43723512E-01
 -3.44845202E-01 -5.69101212E-01 -4.34822221E-03  7.17962779E-03 -1.42824062E-02
 -3.33712531E-03 -7.32281797E-04  2.60878944E-02  4.27128714E-02  1.82164684E-02
 -1.05160296E-01 -6.09351352E-02 -1.24848269E-01  3.36855381E-02 -1.62239534E-01
 -7.69868652E-02 -6.19293471E-01  1.09405042E-02 -2.49060518E-01 -2.41234559E-01
  2.29702774E+00 -2.43678027E-01  3.44814731E-01 -5.69097976E-01 -4.34854626E-03
 -7.17989034E-03  1.42826193E-02 -3.33740981E-03 -7.32440515E-04  1.77583575E-02
  2.85939775E-02  1.63189900E-06 -5.07504000E-07  5.02598140E-02 -7.03205278E-02
  1.98705700E-06 -9.97725000E-07  8.20637716E-02 -4.98295531E-01  5.12692500E-06
  1.01112500E-06  1.44753615E-01  7.20231792E-01 -1.29100400E-05 -1.06181500E-06
  4.62075274E-02  2.27056148E-03 -1.41868000E-07  8.67940000E-08  2.72480853E-03
  2.54104021E-03  1.02818944E-02  1.50638876E-02  3.04306414E-02  1.88299431E-02
  6.27025392E-02 -2.02062417E-03  4.11231287E-02  2.39362218E-03  8.66818724E-02
 -8.92858409E-01  2.90298566E-01  2.58562984E-01  5.41689398E-01 -2.54490415E+01
  1.90033104E-01 -6.36194912E+00 -1.11366427E+00 -3.04229564E-03 -1.71542289E-02
 -2.08458628E-03  1.10328668E-02  1.23129265E-02 -1.02807163E-02 -1.50622749E-02
  3.04012937E-02  1.88268747E-02 -6.27198868E-02  2.02358465E-03  4.10920219E-02
  2.38615147E-03 -8.67094743E-02  8.92644005E-01  2.90014631E-01  2.58569687E-01
 -5.41825357E-01  2.54477209E+01  1.89413677E-01 -6.36119069E+00  1.11313151E+00
  3.04012937E-03 -1.71576676E-02 -2.08087952E-03 -1.10281611E-02 -1.23116106E-02
  2.64685512E-02 -1.85886171E-03  1.67862614E+00  6.04067660E-03  7.45821358E-03
 -1.00814623E-02  3.88887387E-02  1.24711186E-01  1.73627091E+00 -7.08656700E-03
 -7.38187639E-03  1.45675739E-02 -3.88803253E-02 -1.24695641E-01 -1.73555115E+00
 -7.08195636E-03 -7.38175517E-03 -1.45690602E-02 -2.64708429E-02  1.84703700E-03
 -1.67899083E+00  6.04350069E-03  7.45552894E-03  1.00858296E-02  2.14335600E-06
  3.17810100E-06 -4.69510880E-04  4.31538498E-02  1.25204390E-05  1.93111400E-06
 -1.04685212E-02  4.49948041E-02  6.82286400E-06 -1.97141686E-04  5.72215425E-02
  6.15615492E-01  2.70811215E-04  1.31611581E-03  4.75453662E-01 -7.56128935E-01
 -4.41352852E-04 -3.56356800E-06 -4.41895398E-03 -3.93499260E-03  2.26315500E-06
  1.12384700E-06  2.20372620E-03  3.93849173E-03  4.75652899E-02 -3.85914048E-03
 -2.97551242E-02 -1.96966359E-02  5.03521082E-02 -1.01859320E-02 -3.39934177E-02
  6.36457983E-02  1.91529702E-01  3.32062529E-02 -1.60112505E-01 -1.88411028E+00
 -1.13764919E+00  3.69002302E-01 -5.11228829E-02 -3.28169731E-03  1.98161978E-03
 -3.95881293E-03 -3.72273141E-04 -6.00374149E-03 -2.21136684E-03 -3.95112403E-03
  4.75441463E-02 -3.87024106E-03  2.97590720E-02  1.97359754E-02  5.03278535E-02
 -1.01893384E-02  3.39955640E-02 -6.34854672E-02  1.91435528E-01  3.31557130E-02
  1.60144572E-01  1.88454680E+00 -1.13760668E+00  3.69802378E-01  5.09766977E-02
  3.28285745E-03  1.98018326E-03 -3.95744413E-03  3.77491375E-04  6.00440091E-03
  1.01752700E-06  1.50649200E-06 -4.17810835E-02  5.70801320E-03 -1.24624400E-06
 -1.67829100E-06 -4.08446297E-02  1.30829839E-02 -2.45807700E-06 -6.16567920E-05
 -1.77747493E-01 -3.89933038E-02  6.25729000E-06 -4.39097959E-04  5.03993945E-01
 -8.93275518E-02  2.87286164E-04  1.92830500E-06  5.83524972E-03 -4.30062260E-03
  1.04660300E-06 -1.07507000E-07 -1.01424972E-04  4.84651147E-04 -5.91027719E-02
 -5.08521591E-04  3.35407401E-02 -1.78052411E-02 -6.24127173E-02 -6.72583207E-03
  4.97691550E-02  3.14365545E-01 -5.50897179E-01  3.26092395E-02  2.61362873E-01
  2.49352266E+00 -1.22251612E+00  1.48427476E+00  1.06236018E+00  2.79958543E-03
 -6.98704114E-03  5.49752573E-03 -9.22223037E-03 -3.67057369E-03 -1.01753424E-04
  4.84919409E-04  5.91191892E-02  5.23445360E-04  3.35068651E-02 -1.78223904E-02
  6.24348103E-02  6.73691974E-03  4.97203789E-02  3.14601879E-01  5.51051270E-01
 -3.24245992E-02  2.61061040E-01  2.50578993E+00  1.22261545E+00 -1.48743513E+00
  1.06293346E+00  2.80024992E-03  6.97753120E-03 -5.49900919E-03 -9.22956097E-03
 -3.67692490E-03  3.94555811E-03  5.48918094E-03  8.00685630E-01  7.27735407E-03
 -5.56258680E-03 -9.27851202E-03 -1.68565863E-02 -3.10402216E-02 -1.32626632E+00
  7.99091650E-03  7.90766111E-04  2.92621037E-03 -1.68741675E-02 -3.11050005E-02
 -1.32703410E+00 -7.99463481E-03 -7.93476423E-04  2.91809822E-03  3.93399840E-03
  5.48615146E-03  7.99938968E-01 -7.27427191E-03  5.56788087E-03 -9.27383292E-03
 -1.80359944E-02 -2.86755646E-02  6.05052000E-07  1.14280730E-05 -5.90769726E-02
  4.27601962E-02 -6.86805000E-07  1.07615200E-05 -5.11260085E-02  1.04947727E+00
  1.13311510E-05  1.68163513E-04 -1.03661389E+00 -5.35229977E+00  1.22067910E-04
 -1.51461157E-04  1.74122163E+00  1.36966374E-02 -7.78667000E-07 -1.62067800E-06
 -4.52415481E-03 -1.22407405E-03  1.76579602E-02  2.90784449E-02 -4.45028590E-02
 -7.65229948E-03 -1.71339120E-02 -8.78517900E-02 -5.22437160E-02  1.41502955E-02
 -1.65955109E-02 -3.93638154E-01 -1.94072944E-01 -5.58906043E-02 -9.73256393E-02
 -6.47998231E-01  1.13313133E-01  1.53625555E+00  2.83816610E-01 -3.28690859E-03
 -2.09103997E-03  1.15860730E-03 -1.06969125E-02 -1.51494537E-03  1.76578222E-02
  2.90780486E-02  4.45287513E-02  7.64750540E-03 -1.71149418E-02 -8.78461858E-02
  5.22716062E-02 -1.41592633E-02 -1.65724925E-02 -3.93695925E-01  1.94177226E-01
  5.58964982E-02 -9.72274928E-02 -6.47053675E-01 -1.13902725E-01 -1.53603015E+00
  2.83917128E-01 -3.28467711E-03  2.09235525E-03 -1.16113924E-03 -1.06963383E-02
 -1.51181493E-03 -1.60030126E-03 -2.01191305E-03 -1.17853430E-05  1.67464200E-06
  8.93879756E-03 -4.15629129E-03 -1.19502070E-05  3.94328000E-06  1.75105369E-02
  1.80863867E-01 -4.82970080E-05 -1.09222320E-05 -1.09240440E-02  1.62240038E+00
  1.32744543E-04 -1.61574210E-05 -9.40252609E-01 -6.39283344E-03  1.49432500E-06
 -1.00689900E-06 -3.81588052E-03  6.95079706E-04 -5.90385196E-02 -9.60035012E-02
  6.75254571E-03  7.50793192E-02  7.25688307E-02  2.25555176E-01  1.72643231E-02
  1.23046332E-01  1.21405351E-01  2.55537861E+00  2.29145642E-02  8.79852942E-01
  7.59800949E-01  6.15669565E+00 -1.39290469E-01  6.03963627E-01  7.66945715E-03
  9.10421452E-03 -1.17040369E-02 -7.22177526E-03  2.55650534E-02  2.37440503E-03
  5.90316898E-02  9.59924827E-02  6.77173985E-03  7.50930983E-02 -7.25729767E-02
 -2.25525162E-01  1.72863143E-02  1.23056466E-01 -1.21412992E-01 -2.55512527E+00
  2.30804429E-02  8.79997520E-01 -7.59819556E-01 -6.15504339E+00 -1.38987341E-01
  6.03923214E-01 -7.23870206E-03 -9.10337620E-03 -1.17021193E-02 -7.21812244E-03
 -2.55674598E-02 -2.37534402E-03 -1.76034103E-02  6.68319947E-02 -6.20689795E-01
  7.28410067E-03  1.98401905E-02  4.89502558E-03 -1.21498385E-02  7.15218773E-02
 -1.13502402E+00  1.05039540E-05  1.00755440E-02  1.06424278E-02  1.21364317E-02
 -7.15341737E-02  1.13416161E+00  6.20263600E-06  1.00728680E-02 -1.06397359E-02
  1.75989313E-02 -6.68200053E-02  6.20393975E-01  7.28526091E-03  1.98401883E-02
 -4.89426249E-03 -1.38652300E-06 -2.58289100E-06  1.58792543E-02 -5.77989193E-03
  3.19874700E-06  1.44312820E-05  5.44601846E-02 -5.77968805E-02  3.52220000E-08
  1.91437110E-05 -1.45099796E-01  4.06517698E-01  1.17767679E-04 -9.49356413E-04
 -1.62096252E-01  8.98305897E-01  3.41521549E-04 -1.06276000E-06  1.05580390E-02
 -2.26112538E-02  1.31431000E-06 -8.11168000E-07 -1.98800820E-02 -3.23069531E-02
  1.88284005E-02 -4.61152768E-02 -6.09678373E-02  8.51940566E-02  2.97921798E-02
 -6.75579750E-02 -8.82219489E-02  5.81482075E-01  6.66865318E-02 -1.60106781E-01
 -2.92352204E-01 -5.65825209E-01 -4.94363397E-02  7.28680886E-01 -1.01279160E+00
 -1.03034938E-02  4.01507869E-03 -7.07600786E-03 -7.22540086E-03 -5.82678248E-04
  1.98791960E-02  3.23055380E-02  1.88315073E-02 -4.61235342E-02  6.09760360E-02
 -8.51902758E-02  2.97966023E-02 -6.75653858E-02  8.82334753E-02 -5.81450448E-01
  6.66961291E-02 -1.60138915E-01  2.92381174E-01  5.65705615E-01 -4.94022908E-02
  7.28954262E-01  1.01284090E+00  1.03041819E-02  4.01604372E-03 -7.07360845E-03
  7.22700899E-03  5.83195075E-04  1.48399000E-07  1.04902000E-07 -2.74407129E-02
  1.86057087E-02  1.71038300E-06  2.97989300E-06 -4.02889005E-02  3.95295703E-02
  1.82279700E-06 -4.27548390E-05 -5.63145343E-02 -2.71674282E-02  1.82222180E-05
 -1.12492422E-04  8.22263359E-02  2.75889066E-01  8.26763830E-05  1.03768800E-06
 -3.37480910E-04  3.99669121E-03  3.35776000E-07  3.15500000E-09  2.33770160E-02
  3.75427214E-02  7.73249264E-02  4.80038729E-02  6.95572692E-03 -9.72899977E-02
  8.79967432E-02  4.07797189E-02  1.59657773E-02 -9.21519096E-01  6.46342261E-01
  4.84098750E-01 -1.15073912E-02 -6.14989768E+00  1.16032269E+00 -4.88373693E-01
 -1.70170099E+00 -4.03652383E-03  9.39978055E-03  1.12629585E-02  1.00071459E-02
  4.48407501E-03  2.33926960E-02  3.75682728E-02 -7.73253440E-02 -4.79824492E-02
  6.93029467E-03 -9.73501877E-02 -8.79941055E-02 -4.07461492E-02  1.59254926E-02
 -9.22195906E-01 -6.46358078E-01 -4.83835944E-01 -1.17685790E-02 -6.15088278E+00
 -1.16039981E+00  4.88382965E-01 -1.70171170E+00 -4.03864127E-03 -9.40315874E-03
 -1.12650313E-02  9.99954924E-03  4.48369221E-03  1.59177992E-02 -2.25697395E-02
  7.87760286E-01  7.74604564E-04  1.82603033E-03  9.77515724E-04  4.60003252E-02
  1.49331537E-02  3.37580535E+00 -1.83321597E-02 -9.83658029E-03 -1.08550415E-02
  4.60019508E-02  1.49112461E-02  3.37608454E+00  1.83321016E-02  9.83910672E-03
 -1.08576640E-02  1.59211322E-02 -2.25918869E-02  7.87808020E-01 -7.71565350E-04
 -1.82089147E-03  9.76069290E-04  1.03595411E-02  1.87874775E-02  1.87886300E-06
 -1.55879200E-06 -1.62838365E-02 -9.38438456E-02  7.68566600E-06 -9.67838400E-06
  5.22320833E-03 -3.02768286E-01 -2.65026010E-05  5.86535000E-05 -6.81424985E-01
  7.17583301E+00 -3.96122210E-05  1.12075946E-04 -2.51010209E+00  3.93034485E-03
  1.69411000E-06 -3.30708000E-06 -4.68328592E-03  3.40201016E-03  1.05861253E-03
  1.60431349E-03  3.01652827E-02 -2.02093516E-02 -2.88486036E-02 -3.56907217E-03
  3.48294619E-02 -1.90581724E-02 -4.12881811E-02 -6.21019983E-02  1.22527802E-01
 -7.90504027E-02 -1.01059522E-01  6.67054264E-01 -2.37127243E-01  6.01312670E-01
 -2.38309190E-01 -1.94596052E-03  2.48085269E-03  7.41129534E-03 -2.82093989E-03
 -3.22199191E-03  1.06470272E-03  1.61419479E-03 -3.01611459E-02  2.01957133E-02
 -2.88306581E-02 -3.59482169E-03 -3.48220962E-02  1.90378831E-02 -4.12624512E-02
 -6.22857296E-02 -1.22514244E-01  7.90036656E-02 -1.00971485E-01  6.67270575E-01
  2.37143508E-01 -6.01100896E-01 -2.38027302E-01 -1.94279513E-03 -2.47964336E-03
 -7.41327762E-03 -2.81871435E-03 -3.22211107E-03  9.44952270E-05  9.74098086E-04
 -3.71036900E-06  3.33913100E-06 -1.09810828E-02 -2.29082786E-02 -5.64955400E-06
  6.64809700E-06 -1.16003682E-02  2.41766600E-01 -6.72025100E-06 -2.61694400E-06
 -1.18767280E-01  6.60344670E-01  1.07305440E-05  3.94295230E-05 -5.01505132E-01
 -6.60945259E-03 -8.06620000E-08  5.99257000E-07 -8.23638684E-04 -1.48574421E-03
 -4.45740126E-03 -7.08002461E-03  7.99123028E-02 -1.44054844E-02 -1.68488113E-02
  2.07799910E-02  9.17219545E-02 -3.54979970E-02 -2.03173711E-02  4.39502978E-03
  9.57301358E-01 -8.71543435E-03 -1.15526766E-01  7.76251107E-02  2.57739769E+00
  1.06682230E-02 -3.06159099E-01 -8.38876923E-04  3.30588044E-03 -7.74327751E-03
  2.51967947E-03  2.65493683E-03 -4.45498168E-03 -7.07608714E-03 -7.99119948E-02
  1.44069968E-02 -1.68515560E-02  2.07708792E-02 -9.17210590E-02  3.55010546E-02
 -2.03228573E-02  4.28719281E-03 -9.57293646E-01  8.73933641E-03 -1.15557159E-01
  7.65898079E-02 -2.57739451E+00 -1.04577020E-02 -3.06228162E-01 -8.39461390E-04
 -3.30670540E-03  7.74281038E-03  2.51919763E-03  2.65466012E-03 -1.30127101E-02
 -6.31315644E-02 -1.49920185E+00 -7.60515411E-03  6.50649399E-03  4.39566768E-03
  1.08144179E-02  1.78333531E-01  7.81882025E-01 -3.09918295E-03 -1.66543533E-03
  4.86302904E-03  1.08159058E-02  1.78327840E-01  7.81978143E-01  3.09965296E-03
  1.66570050E-03  4.86201910E-03 -1.30115826E-02 -6.31309423E-02 -1.49914357E+00
  7.60506992E-03 -6.50551588E-03  4.39599936E-03  1.57075362E-02  2.54491548E-02
  3.89054000E-07  2.16762000E-07  3.22574930E-02 -4.51653285E-02  9.05912000E-07
 -1.75857900E-06  3.64255298E-02 -9.58402292E-01 -1.04951000E-06  2.48840500E-05
  4.58493043E-01  1.37006660E+00  3.44291300E-06  3.50256360E-05 -5.75191844E-01
 -1.39693594E-02  3.06680000E-08 -6.88070000E-07 -1.62232116E-02  1.13304863E-02
 -6.53893416E-03 -1.08695228E-02 -4.76346501E-02 -4.27371184E-02  1.74657933E-02
  3.50069271E-02 -4.22186503E-02 -5.90788615E-02  2.29494311E-02  1.39193938E-01
 -2.23713853E-01 -1.57020431E-01  9.65452792E-02  6.83430475E-03  1.72394170E+00
 -1.13766524E-01  1.98217062E-01  3.93677993E-03  7.52947782E-03  2.87968131E-03
 -1.30752024E-03  9.85493396E-03 -6.53812177E-03 -1.08682030E-02  4.76372150E-02
  4.27353835E-02  1.74679997E-02  3.50035418E-02  4.22217826E-02  5.90763304E-02
  2.29524960E-02  1.39168700E-01  2.23724354E-01  1.57014671E-01  9.65602894E-02
  6.88954272E-03 -1.72399597E+00  1.13854894E-01  1.98291423E-01  3.93732574E-03
 -7.52923491E-03 -2.88003521E-03 -1.30724353E-03  9.85527283E-03 -1.03526519E-03
 -1.77270878E-03 -1.08453900E-06  5.10785000E-07 -4.70127247E-03  3.34425953E-03
 -1.18320900E-06  1.26161000E-06 -1.30108954E-02  3.46380410E-02 -4.11646300E-06
 -2.13990400E-06 -2.88293296E-02 -7.02604007E-01  9.78379200E-06  1.00530500E-05
  3.52195079E-01  2.69066539E-03  8.41790000E-08  9.59520000E-08 -4.08595707E-03
  5.86450070E-03 -1.44504968E-03 -2.08003856E-03 -2.23993308E-02 -6.82139658E-02
 -7.98030444E-02  2.07368746E-02 -3.99658817E-02 -7.72708796E-02 -9.95222507E-02
 -1.37596915E-01 -3.72606004E-02 -9.18449561E-01 -8.52431340E-01  2.78387829E+01
  5.27943072E-02  6.63887119E+00  1.40692218E+00  8.87974648E-03 -4.15246713E-03
 -1.19540821E-03 -2.62106290E-02 -5.79805839E-03  1.44545076E-03  2.08058405E-03
 -2.24005130E-02 -6.82138446E-02  7.98033514E-02 -2.07349567E-02 -3.99676612E-02
 -7.72711703E-02  9.95249625E-02  1.37553065E-01 -3.72524949E-02 -9.18451732E-01
  8.52408289E-01 -2.78386694E+01  5.28250838E-02  6.63888835E+00 -1.40688528E+00
 -8.87991013E-03 -4.15262801E-03 -1.19551203E-03  2.62111299E-02  5.79815586E-03
 -1.91236201E-02 -6.99761913E-02 -1.82846681E+00 -1.63879422E-02  3.39556830E-03
 -7.33073305E-03 -5.21396106E-02 -3.18789542E-02 -2.41117332E+00  1.86146802E-02
 -4.13923950E-05  8.21067824E-03  5.21401784E-02  3.18749106E-02  2.41120801E+00
  1.86146489E-02 -4.12930550E-05 -8.21074323E-03  1.91233066E-02  6.99807640E-02
  1.82847443E+00 -1.63876580E-02  3.39536948E-03  7.33100158E-03  1.08674400E-06
  1.74027200E-06  1.17362924E-02  1.38414910E-02 -1.65798000E-07 -3.32042400E-06
  7.18595357E-03 -9.05335083E-03  3.01202200E-06 -1.05536094E-04  1.38109196E-01
  4.76302175E-01 -3.08895150E-05 -2.01003569E-04  5.74392831E-01  4.08863201E-01
  1.14549540E-04 -9.40290000E-07 -1.18695966E-02 -1.66792546E-03  4.87362000E-07
 -1.35765000E-07  8.18746432E-03  1.30931788E-02  3.83259765E-02  1.39012239E-02
  2.82211065E-02 -3.04054240E-02  3.67891842E-02  2.68949480E-02  3.92497091E-02
 -3.26716863E-01  1.64712867E-01  4.47502577E-02  1.16916065E-01 -1.83729693E-01
 -1.29720041E+00  1.39471091E+00 -3.70430700E-01  3.26290355E-03  8.28102606E-04
  3.86700103E-03  1.24663430E-03 -8.17835037E-03 -8.18761239E-03 -1.30933971E-02
  3.83224345E-02  1.39020388E-02 -2.82215795E-02  3.04052664E-02  3.67856066E-02
  2.68962906E-02 -3.92501976E-02  3.26722841E-01  1.64694993E-01  4.47547386E-02
 -1.16918132E-01  1.83815317E-01 -1.29713062E+00  1.39474494E+00  3.70408416E-01
 -3.26276764E-03  8.28373353E-04  3.86661500E-03 -1.24626720E-03  8.17813469E-03
 -6.85010000E-08 -1.01096000E-07 -2.64530688E-02 -2.46311514E-02  3.97674000E-07
 -7.53160000E-08 -1.76629331E-02 -2.06382232E-02  1.73456000E-07  9.16045700E-06
 -1.54726703E-01 -1.39698869E-01 -2.94226600E-06  1.08766823E-04  4.06044372E-01
  5.04135663E-01 -1.04456532E-04 -5.74530000E-07  4.53330431E-03  2.26596487E-03
  9.21390000E-08 -1.35301000E-07 -9.69760443E-03 -1.46599036E-02  4.45312898E-02
  3.88098373E-02 -3.67294266E-03 -1.40918890E-03  5.35439590E-02  6.09824597E-02
 -2.28797243E-02  1.16429986E+00  2.77494668E-01  3.92160295E-01  4.75001600E-02
  8.65573666E+00  4.66161426E-01  3.03240931E+00 -8.29097366E-01  2.85506822E-03
  4.61775587E-04  2.24005561E-03  1.73942428E-03 -1.33909206E-03  9.69778112E-03
  1.46600992E-02  4.45305925E-02  3.88098346E-02  3.67369808E-03  1.41100745E-03
  5.35429013E-02  6.09815723E-02  2.28825566E-02 -1.16432136E+00  2.77491297E-01
  3.92164488E-01 -4.75145898E-02 -8.65558595E+00  4.66144481E-01  3.03240817E+00
  8.29157061E-01 -2.85492655E-03  4.61573726E-04  2.23975514E-03 -1.73925432E-03
  1.33930622E-03 -2.23254571E-03  6.53955902E-03 -5.25555871E-01 -7.92419613E-03
 -2.20966405E-03 -2.08128884E-03 -1.52238961E-02 -1.18547284E-01  6.29376548E-01
 -1.42002404E-02  6.42929263E-03 -2.68003098E-03  1.52238331E-02  1.18545502E-01
 -6.29364814E-01 -1.42003054E-02  6.42951455E-03  2.67968333E-03  2.23256253E-03
 -6.53941113E-03  5.25545805E-01 -7.92383226E-03 -2.20957482E-03  2.08126950E-03
  6.88099000E-07  1.09501200E-06  5.58547500E-02 -4.19121637E-02  2.23335000E-07
 -2.08649600E-06  6.50096665E-02 -2.98955488E-02  2.33798000E-06 -7.87997840E-05
  4.73549172E-01 -8.18285305E-01 -2.12805570E-05 -1.81805623E-04  2.37253359E-01
  6.60864944E-01  7.67646380E-05 -1.06628400E-06  3.73794842E-03 -7.45294072E-03
  2.50280000E-07  4.11060000E-08 -8.39504606E-03 -1.43379303E-02  2.56775431E-02
  2.88410281E-02  3.16040211E-02  5.76372140E-02  2.24112619E-02  2.37137966E-02
  2.75765406E-02  2.24637944E-02  1.46133359E-01  1.24524594E-01  1.90134739E-01
  3.05134449E+00 -1.24837667E-01 -2.99164833E+00 -7.69772152E-01 -2.34458537E-03
  4.61862274E-04 -2.37055909E-03  1.15282865E-02  1.87026655E-03  8.39490971E-03
  1.43377147E-02  2.56770849E-02  2.88415695E-02 -3.16044015E-02 -5.76369132E-02
  2.24106819E-02  2.37147944E-02 -2.75770260E-02 -2.24607804E-02  1.46130901E-01
  1.24526380E-01 -1.90135635E-01 -3.05131653E+00 -1.24838034E-01 -2.99161531E+00
  7.69782073E-01  2.34489809E-03  4.62063768E-04 -2.37084743E-03 -1.15280080E-02
 -1.87018263E-03  1.82337000E-07  3.09545000E-07 -9.21774290E-03 -1.11327815E-03
  4.67890000E-07 -1.29316700E-06 -1.11983823E-02  2.77651204E-03  6.21201000E-07
  2.67909500E-06 -4.52548752E-02  1.23852695E-02 -2.98769700E-06  7.99723820E-05
 -1.31631221E-01  4.18754156E-01 -6.18915980E-05 -3.44093000E-07 -3.65280405E-03
  6.67000392E-03  1.98000000E-08 -7.00500000E-09 -8.25325647E-03 -1.43283058E-02
 -9.13455440E-03 -2.85962043E-02  1.50100206E-02  4.65463896E-02 -1.15520028E-02
 -2.96002419E-02  3.37206996E-02  9.18755287E-01  1.56730165E-01 -3.32653122E-01
 -6.51488619E-02  4.47680051E+00  2.00505012E-01 -1.06857046E-01  1.81390933E+00
  1.92903466E-02 -3.03274573E-03 -2.78655082E-03  3.11163547E-03 -2.23624961E-03
 -8.25345464E-03 -1.43286526E-02  9.13517472E-03  2.85959546E-02  1.50098305E-02
  4.65492584E-02  1.15532937E-02  2.95995318E-02  3.37206244E-02  9.18736294E-01
 -1.56732880E-01  3.32665650E-01 -6.51721497E-02  4.47737933E+00 -2.00489616E-01
  1.06701528E-01  1.81391556E+00  1.92907858E-02  3.03337648E-03  2.78664692E-03
  3.11130163E-03 -2.23666739E-03  1.00047646E-03 -1.29881634E-01 -4.93293430E-02
 -9.03400063E-04  7.17752438E-04 -1.37202029E-02 -1.58156057E-02 -1.70523380E-02
 -3.91558097E-01  4.78618719E-03  8.14261085E-03  8.95465591E-04 -1.58173754E-02
 -1.70506537E-02 -3.91599506E-01 -4.78664527E-03 -8.14291779E-03  8.96293187E-04
  1.00096724E-03 -1.29881760E-01 -4.93524150E-02  9.03638262E-04 -7.17957782E-04
 -1.37205808E-02  4.16241362E-03  5.47367580E-03 -1.23677300E-06  6.58006000E-07
  2.51533239E-02 -1.35616802E-03 -9.78328000E-07  1.74617300E-06  6.18268895E-02
 -2.34216498E+00 -1.19466490E-05 -6.40201400E-06 -1.31112066E+00 -9.90008092E+00
 -4.12053500E-05 -8.08764600E-06  9.30239631E-01 -6.86114037E-02 -1.05491000E-07
  5.78204000E-07  4.63722079E-03 -3.38177591E-03  2.74896765E-03  4.45013010E-03
 -5.39473577E-03  5.59757427E-03 -4.40902094E-02 -1.05081749E-02 -6.71879483E-03
 -3.02280239E-03 -5.44018339E-02 -1.30353496E-01 -2.87997330E-02  1.31439047E-01
 -1.50141221E-01 -6.39125180E-01  7.76154328E-02 -7.15829299E-01  2.45614025E+00
  1.17928247E-02 -5.11126124E-03  7.83194219E-03  6.57933183E-03  3.49981599E-03
  2.74852012E-03  4.44937598E-03  5.39236921E-03 -5.59814296E-03 -4.40885538E-02
 -1.05053472E-02  6.71596967E-03  3.02268885E-03 -5.44003294E-02 -1.30348800E-01
  2.87914461E-02 -1.31444943E-01 -1.50130270E-01 -6.39192718E-01 -7.75395044E-02
  7.15817445E-01  2.45610030E+00  1.17927199E-02  5.11133080E-03 -7.83186764E-03
  6.57949013E-03  3.49947932E-03  3.25534449E-02  5.43676220E-02 -1.11507600E-06
 -3.77070000E-08  1.21606606E-02 -1.96345041E-01 -1.10444200E-06 -6.14982000E-07
  5.21118947E-02 -1.81399254E-01 -5.03125800E-06  2.54548800E-06 -3.72276323E-01
  3.93250618E+00  3.09556080E-05 -2.14053780E-05 -3.86998058E-01 -2.08977468E-03
  2.27426000E-07 -1.86668000E-07 -3.46373869E-03 -2.29630391E-03 -3.52678808E-04
 -7.77455514E-04 -2.26476739E-02  1.58806392E-02  9.79765290E-03  8.61304186E-03
 -4.09608713E-02  1.94295105E-02  3.00045517E-02 -2.64779649E-01 -1.08365098E-01
  2.27427690E-01 -6.07069232E-02 -3.56743057E-01 -6.74785713E-01 -2.81259235E-01
  2.30600489E-01  9.62314029E-04 -1.11627172E-02 -1.61423774E-03  3.02301348E-03
 -9.67312380E-03  3.52559969E-04  7.77280343E-04 -2.26468369E-02  1.58818462E-02
 -9.79802893E-03 -8.61314662E-03 -4.09591480E-02  1.94323290E-02 -3.00054345E-02
  2.64800471E-01 -1.08366489E-01  2.27430218E-01  6.07016258E-02  3.56769397E-01
 -6.74786800E-01 -2.81237471E-01 -2.30584001E-01 -9.61727676E-04 -1.11625265E-02
 -1.61388580E-03 -3.02264798E-03  9.67309578E-03  1.72933894E-02  7.83305965E-02
  3.83683263E-01  2.66369008E-03  5.25711030E-04 -2.44452131E-03 -1.39934922E-02
 -1.76815095E-03 -7.21349564E-01  1.96341148E-03  6.06793337E-04  8.94739088E-03
  1.39926518E-02  1.76586028E-03  7.21359956E-01  1.96336764E-03  6.06548751E-04
 -8.94712354E-03 -1.72931608E-02 -7.83328476E-02 -3.83667748E-01  2.66374566E-03
  5.25509146E-04  2.44415095E-03  1.25670000E-07  2.02267000E-07  3.35877673E-02
  8.93286046E-03  7.18149000E-07 -5.21067000E-07 -4.68678134E-03 -1.29453221E-02
  8.22136000E-07 -2.95667150E-05  4.39823688E-01  2.89655714E-01 -1.01959140E-05
 -7.55734450E-05  2.95099486E+00  2.02606047E-01 -3.25731520E-05 -8.66621000E-07
  4.13259669E-03  3.51221203E-04 -1.98580000E-08 -1.37334000E-07 -1.41220529E-03
 -1.92521523E-03  4.50073423E-02  7.24897593E-04 -3.77155129E-03 -4.74077919E-03
  5.69666435E-02 -8.35415031E-04 -3.63066525E-03  1.75044958E-01  1.51911053E-01
  2.10137043E-03 -2.36529893E-02 -1.61003750E+00 -1.20220064E+00  7.95320258E-01
  4.03884301E-01  1.70199828E-03 -1.70260402E-03 -2.21296301E-04 -1.95149941E-03
 -4.81252974E-03  1.41223379E-03  1.92525591E-03  4.50071861E-02  7.25835227E-04
  3.76964915E-03  4.74080179E-03  5.69665894E-02 -8.33991120E-04  3.62855260E-03
 -1.75047182E-01  1.51909747E-01  2.10245409E-03  2.36446010E-02  1.61006454E+00
 -1.20220013E+00  7.95339612E-01 -4.03795293E-01 -1.70177647E-03 -1.70243111E-03
 -2.21612671E-04  1.95170301E-03  4.81260650E-03  5.03449000E-07  8.36765000E-07
  1.06225559E-01  1.26305161E-02 -4.04927000E-07 -2.95531700E-06  1.05990710E-01
  1.54217232E-02  8.90380000E-08 -4.13408200E-06  4.76253342E-01  3.66388988E-02
 -7.38671200E-06  3.72107190E-05 -2.33261169E+00 -2.33512238E-01  2.51177170E-05
  1.30679000E-07 -1.51352892E-02 -1.28270813E-03 -1.04903000E-07 -6.32790000E-08
  4.65718034E-03  8.02969823E-03  1.84721640E-02 -3.37641956E-03  1.93814835E-02
 -5.24003521E-02  2.48159840E-02 -1.68927804E-02  2.30223766E-02  3.63163278E-01
  6.24670349E-03  3.21399581E-01  4.63633252E-01 -1.08108886E+01  1.42662236E-01
 -2.18597756E+00 -9.60637827E-01 -1.88470587E-04  3.82962084E-03 -3.93095322E-03
  1.67373624E-03 -3.77451518E-03 -4.65515582E-03 -8.02609763E-03  1.84733150E-02
 -3.37640069E-03 -1.93869748E-02  5.23847953E-02  2.48181558E-02 -1.68897764E-02
 -2.30326334E-02 -3.63258005E-01  6.27878250E-03  3.21365425E-01 -4.63695071E-01
  1.08097605E+01  1.42720468E-01 -2.18584564E+00  9.60253362E-01  1.89333676E-04
  3.83100243E-03 -3.93239477E-03 -1.67140132E-03  3.77528436E-03  1.44655253E-02
  8.28929090E-02  6.73757437E-01 -7.76234610E-04 -8.45181728E-04 -2.41424969E-04
  1.35050975E-02 -8.51216147E-02  1.16096699E+00 -1.30339391E-02  1.07898110E-03
 -7.99621264E-03 -1.35052193E-02  8.51192265E-02 -1.16092488E+00 -1.30330883E-02
  1.07975673E-03  7.99808822E-03 -1.44628913E-02 -8.28797887E-02 -6.73647768E-01
 -7.76261093E-04 -8.45591210E-04  2.41205787E-04  2.40174200E-06  4.28707200E-06
  3.82637356E-02 -1.44656964E-01  8.96817600E-06 -1.64768790E-05  7.50213491E-02
 -2.32814521E-01  8.15582600E-06 -4.85606170E-05  3.44067726E-01 -1.77354896E+00
  1.44582601E-04  8.38971293E-04  3.81495743E-01 -3.98858053E+00 -6.10303288E-04
  1.56869300E-06  7.38219318E-03 -3.30942374E-03 -8.23357000E-07 -3.53854000E-07
  2.19111782E-03  4.12042620E-03  1.58179702E-02 -7.43730711E-02  2.90516855E-02
 -2.91797983E-02  1.29689862E-02 -7.72061872E-02  3.65829220E-02  1.08880183E-01
  1.23904279E-01 -4.47155236E-01  1.59492956E-01  3.19148962E+00  2.28330667E-01
 -5.71529994E-02  3.52725331E-01 -9.74074391E-03 -1.58872143E-03  1.12186822E-02
 -7.21697385E-04  1.96151205E-03 -2.19163953E-03 -4.12133802E-03  1.58132741E-02
 -7.43578645E-02 -2.90515947E-02  2.91830100E-02  1.29637137E-02 -7.71892298E-02
 -3.65802835E-02 -1.08870677E-01  1.23878541E-01 -4.47070274E-01 -1.59504171E-01
 -3.19085973E+00  2.28306996E-01 -5.70926294E-02 -3.52617996E-01  9.73925117E-03
 -1.58836032E-03  1.12168663E-02  7.22423452E-04 -1.96126285E-03  6.55984000E-07
  1.01279400E-06 -4.18102100E-03 -3.98107189E-02 -7.36467000E-06 -2.10398000E-06
 -1.07211172E-02 -3.32043169E-02 -7.48571500E-06 -2.75630770E-05 -7.15418354E-03
 -1.42233738E-01 -2.96113040E-05 -2.15419467E-04 -2.92958730E-01  2.19403072E+00
  4.01892581E-04  2.05427800E-06 -4.54705140E-03  2.09505449E-02 -4.80978000E-07
 -2.61885000E-07  9.55661272E-03  1.70889724E-02 -4.56825414E-03 -3.62874124E-03
 -2.88588911E-02 -7.04795220E-02 -1.32976808E-02 -2.17069529E-02 -5.13144678E-02
 -5.60836284E-01 -1.96215314E-01  1.72745693E-01 -3.47135899E-01 -4.85911069E+00
 -3.06424370E-01 -6.15580946E-01 -1.73121487E+00  2.58359861E-03 -6.84424097E-03
  5.30306222E-03  1.19922826E-02  4.98282939E-03  9.55671671E-03  1.70892764E-02
  4.56283164E-03  3.62927687E-03 -2.88526444E-02 -7.04903081E-02  1.32904358E-02
  2.17098175E-02 -5.13058325E-02 -5.60657725E-01  1.96211665E-01 -1.72851073E-01
 -3.46976564E-01 -4.86127217E+00  3.06383074E-01  6.16057425E-01 -1.73134590E+00
  2.58325699E-03  6.84331060E-03 -5.30237939E-03  1.19926648E-02  4.98170095E-03
  1.12386927E-02  1.02203797E-01  3.81188480E-01 -1.51297860E-03  4.49770560E-03
  1.62399361E-03 -2.02387885E-03 -2.04900416E-02  1.15724309E-01 -4.57083558E-03
 -3.98589199E-03  1.02740218E-02 -2.02072142E-03 -2.05126626E-02  1.15981472E-01
  4.57442703E-03  3.98555355E-03  1.02720066E-02  1.12423956E-02  1.02235339E-01
  3.81304498E-01  1.51354317E-03 -4.49737168E-03  1.62472599E-03  2.64406624E-02
  4.64158952E-02 -4.00628500E-06  1.38347910E-05  8.60342881E-02 -1.61578299E-01
 -7.56509800E-06  2.17364410E-05  8.33468712E-02 -8.08372136E-01 -3.99361860E-05
  2.08039406E-04  1.48709595E+00  6.86142887E+00 -6.99921740E-05  3.91069992E-04
 -5.12627857E+00  1.42515508E-02 -9.67384000E-07 -6.56501000E-07 -5.57076481E-03
 -2.89368543E-03 -2.00905981E-03 -3.52697467E-03  2.55401155E-02 -7.51425390E-02
  2.19495574E-03  1.15312353E-02  2.76660469E-02 -8.32408887E-02  1.69196946E-02
  3.86720906E-02  1.45557460E-01 -4.35294398E-01 -5.53127736E-02  3.48157814E+00
  5.73115038E-02 -3.91989691E-01  4.36672990E-01 -7.87339800E-03 -1.74221681E-03
  9.19190363E-03  4.03617757E-03  9.67001388E-04 -2.00783294E-03 -3.52482650E-03
 -2.55445238E-02  7.51597091E-02  2.19675441E-03  1.15204516E-02 -2.76696635E-02
  8.32574394E-02  1.69223406E-02  3.86837647E-02 -1.45591820E-01  4.35405821E-01
 -5.53005227E-02  3.48254102E+00 -5.73922843E-02  3.92055154E-01  4.36805930E-01
 -7.87578256E-03  1.74240754E-03 -9.19435767E-03  4.03597670E-03  9.67657800E-04
  4.27834706E-03  6.31170473E-03 -7.29339000E-07  3.29742200E-06 -6.93749440E-02
 -7.70949442E-03  3.36400000E-09  3.73215700E-06 -7.47792967E-02 -2.45317406E-01
 -4.56293500E-06  4.70425900E-06 -2.62073644E-01 -2.06493799E+00  5.21477230E-05
 -1.71460528E-04  3.59899825E+00  1.82990087E-02  6.19468000E-07 -1.73806300E-06
 -4.57516785E-03 -2.91490567E-03  1.89006769E-02  2.99716645E-02 -3.81678631E-02
  2.06894961E-02 -6.36643104E-03 -1.40682383E-02 -4.01889103E-02  2.49545616E-02
 -9.68721555E-03 -2.17788749E+00  1.29404063E-02 -3.45741506E-01 -8.39852036E-01
 -2.17990506E+01 -4.75229716E-01 -4.97578590E+00 -1.98280393E+00  8.73698133E-04
 -4.84977304E-03 -3.35498537E-03  9.96772524E-03  7.38513032E-03 -1.89025894E-02
 -2.99751895E-02 -3.81676384E-02  2.06810332E-02  6.37366103E-03  1.40759650E-02
 -4.01892316E-02  2.49310613E-02  9.69750800E-03  2.17824013E+00  1.28983891E-02
 -3.45697672E-01  8.40042002E-01  2.17980113E+01 -4.75279125E-01 -4.97580506E+00
  1.98258385E+00 -8.72198033E-04 -4.85107876E-03 -3.35613186E-03 -9.97190801E-03
 -7.38616769E-03 -3.13720687E-03 -2.63139800E-01  1.52110810E+00  1.81010090E-02
  6.90951109E-03 -1.74233127E-02  2.91122667E-02  3.26772492E-01  9.07883594E-02
  1.79710964E-02 -3.37156360E-03  1.39887946E-02 -2.91083273E-02 -3.26797046E-01
 -9.05412110E-02  1.79719135E-02 -3.37096791E-03 -1.39927168E-02  3.13801450E-03
  2.63085253E-01 -1.52080391E+00  1.80993705E-02  6.91215728E-03  1.74201984E-02
 -6.02302800E-06 -9.74952400E-06 -2.71034875E-02 -3.80988044E-02 -4.24225100E-06
  1.60881560E-05 -6.22730926E-02 -7.19098456E-02 -9.59723500E-06  5.35237146E-04
 -1.38905981E-01  8.81618702E-01 -1.83405141E-04  1.24987789E-03 -1.29705148E-01
 -1.61036430E+00 -7.22649206E-04  2.14670000E-06 -6.42078565E-03 -3.55288313E-02
 -2.02543700E-06 -9.42624000E-07 -1.31464507E-02 -2.16275844E-02 -2.32207105E-02
  1.37769653E-02  5.37363905E-02  6.94492790E-02 -1.31104230E-02 -1.30825332E-02
  6.58850357E-02  3.64146785E-01 -2.04688655E-01  2.70996548E-01  2.50260107E-01
 -6.69775962E+00 -4.88045952E-01  1.44901573E+00 -2.76640589E-01  6.70730775E-03
 -3.03842118E-03 -2.81996786E-03 -2.27743277E-03 -4.46252499E-03  1.31458073E-02
  2.16265848E-02 -2.32131362E-02  1.37617490E-02 -5.37402026E-02 -6.94458558E-02
 -1.31035278E-02 -1.30985469E-02 -6.58955279E-02 -3.64115953E-01 -2.04633413E-01
  2.70884098E-01 -2.50249439E-01  6.69620793E+00 -4.88007003E-01  1.44864893E+00
  2.76786668E-01 -6.70514298E-03 -3.03880532E-03 -2.81796530E-03  2.27511421E-03
  4.46180124E-03  2.26958900E-06  3.83479700E-06  2.22677598E-03 -2.21811940E-02
  7.64495000E-07 -1.34387930E-05  6.74686274E-03  1.24337062E-02  6.12571600E-06
 -2.87519360E-05 -3.44320789E-03 -3.06378637E-01 -1.22359370E-05  1.32898204E-04
 -8.06029397E-02  1.70782122E+00  1.54299528E-04  7.76798000E-07  8.70939874E-04
  1.33420066E-02  2.21685000E-07  1.94275000E-07  4.77545987E-03  1.02347128E-02
 -5.24421665E-03 -4.32391682E-02 -2.23272626E-02 -4.18590152E-02 -1.56242306E-02
 -1.27420968E-01 -4.52827905E-02 -1.13138823E+00 -1.56081381E-01  1.74723532E-01
 -5.93878089E-01  6.10597716E+00 -2.71516925E-01 -3.95238235E-02  1.56810314E+00
 -5.18132504E-03 -7.58196945E-03 -7.12203692E-03  1.97201674E-02  2.27231895E-03
  4.77082674E-03  1.02272862E-02  5.23626373E-03  4.32475808E-02 -2.23267882E-02
 -4.18516928E-02  1.56170861E-02  1.27432191E-01 -4.52820779E-02 -1.13089593E+00
  1.56093900E-01 -1.74751225E-01 -5.93708664E-01  6.11241658E+00  2.71412045E-01
  3.80475664E-02  1.56867913E+00 -5.18121574E-03  7.58073290E-03  7.12119516E-03
  1.97170501E-02  2.26962457E-03 -3.38880422E-03  2.15427450E-01 -1.15435375E+00
 -2.36299416E-03  1.24370189E-02  1.14960103E-02 -1.64159921E-02  1.14206539E-01
 -1.15721350E+00  3.06920868E-03  8.00706462E-03  1.50457129E-02 -1.64259963E-02
  1.14112867E-01 -1.15729865E+00 -3.06530710E-03 -8.00810242E-03  1.50427409E-02
 -3.38826149E-03  2.15490131E-01 -1.15474888E+00  2.36838781E-03 -1.24352513E-02
  1.15001665E-02  3.67522610E-02  5.79017100E-02 -3.39075300E-06 -5.24517700E-06
  5.93588543E-03 -4.96050266E-02 -9.20827400E-06 -8.01047200E-06  1.17167373E-02
 -3.97284568E+00 -2.02508000E-06  7.12243990E-05  1.45098851E+00 -1.30929210E+01
  4.89341500E-06 -2.62295059E-04  7.68739086E+00 -2.46767128E-02 -9.89065000E-07
 -3.69999300E-06  2.16747343E-02  1.09003408E-02  6.52068721E-03  1.04410088E-02
  2.13207701E-02 -3.00265395E-02  4.34422001E-03 -2.99129060E-02  1.56581005E-02
 -2.51699219E-02  3.03261984E-02 -2.49879390E-01  1.83100087E-01 -3.04555449E-01
 -9.68745405E-02  5.95678019E+00  2.27974444E-01 -1.67523998E+00  4.13100808E-03
 -7.82442460E-03 -1.23366145E-03  7.58493886E-03  9.03848075E-03  3.00813010E-03
  6.52330844E-03  1.04452960E-02 -2.13271331E-02  3.00277303E-02  4.33399140E-03
 -2.99259839E-02 -1.56624629E-02  2.51647563E-02  3.03131992E-02 -2.49968180E-01
 -1.83150346E-01  3.04606164E-01 -9.69211916E-02  5.95825097E+00 -2.28068260E-01
  1.67551806E+00  4.05758201E-03 -7.82612484E-03  1.23246071E-03 -7.58532506E-03
  9.03890678E-03  3.00906442E-03 -2.19559354E-02 -3.66181505E-02  7.00667000E-07
 -3.29930600E-06  2.19585430E-02  1.18505175E-01  1.54418100E-06 -1.15343000E-07
 -2.61062310E-02  3.79601244E-01 -2.46818000E-07 -3.42130240E-05  2.45905253E-01
 -2.09037938E+00 -1.34408100E-05  1.90078932E-04 -1.54063495E+00 -8.66091968E-03
  6.52160000E-08  1.52727400E-06 -2.05574270E-03 -1.30654888E-03  5.56719702E-03
  8.97076604E-03  1.03559144E-02 -8.53421731E-02  4.11534854E-02 -3.71483664E-02
  4.17043576E-03 -1.18067637E-01  4.86203488E-02  3.03807035E-01  7.03813549E-02
 -1.20488048E+00  3.88096978E-01  1.41103801E+00  2.43235877E-01 -9.78512146E-01
  2.90764225E+00  5.41618166E-03 -2.65014120E-03  1.20823115E-02 -9.82052094E-03
  1.98641622E-04 -5.56715943E-03 -8.97068382E-03  1.03563852E-02 -8.53405051E-02
 -4.11537837E-02  3.71486237E-02  4.17030097E-03 -1.18062805E-01 -4.86202560E-02
 -3.03843405E-01  7.03834715E-02 -1.20488342E+00 -3.88120205E-01 -1.41078286E+00
  2.43267113E-01 -9.78527747E-01 -2.90756383E+00 -5.41622598E-03 -2.65007481E-03
  1.20828679E-02  9.82100719E-03 -1.98758419E-04  1.68999785E-02 -6.36693627E-02
  8.23819712E-01 -1.05185812E-02 -8.33483687E-03 -1.79778125E-02 -1.07112086E-02
 -2.46575494E-01  8.80176405E-01 -7.37828788E-03 -7.13869353E-03 -9.44935701E-03
  1.07108047E-02  2.46582632E-01 -8.80252491E-01 -7.37896187E-03 -7.13893798E-03
  9.44956412E-03 -1.69014227E-02  6.36650669E-02 -8.23837551E-01 -1.05189098E-02
 -8.33507401E-03  1.79781390E-02  7.66444000E-07  1.23278600E-06 -4.21680727E-02
  3.71161927E-02  4.08102000E-07 -2.01294100E-06 -6.23955545E-02 -1.22481201E-03
  1.64725400E-06 -8.21624440E-05 -3.93804081E-01  8.98775259E-01  8.38362600E-06
 -2.74716326E-04 -2.79931264E-01  2.59208097E+00  1.37468746E-04 -6.93146000E-07
  1.12142157E-02 -1.80909822E-02  1.88391000E-07 -6.97850000E-08  2.74462403E-03
  3.81505298E-03  4.48910524E-03 -9.50243300E-06  2.22109446E-02  8.04216721E-03
  7.40802699E-03  1.02003117E-02  2.66368616E-02 -4.00184944E-01 -9.35658777E-03
 -7.88171715E-04  6.78727580E-02  1.33617759E+00  4.23428578E-01  8.97453375E-01
 -3.91033744E+00 -1.20985239E-02  7.63618249E-03 -8.80018481E-03 -2.78447868E-03
  1.85048444E-03 -2.74454446E-03 -3.81493444E-03  4.48790366E-03 -7.56521900E-06
 -2.22102284E-02 -8.04243443E-03  7.40683540E-03  1.02027216E-02 -2.66355758E-02
  4.00180475E-01 -9.36465590E-03 -7.77416767E-04 -6.78707053E-02 -1.33601912E+00
  4.23441042E-01  8.97497287E-01  3.91031212E+00  1.20984147E-02  7.63635800E-03
 -8.80027581E-03  2.78486240E-03 -1.85042412E-03 -1.26817000E-07 -2.18739000E-07
  1.79982068E-02  4.27690153E-02  9.85380000E-08  7.89860000E-07  8.12583378E-03
  6.97654408E-02 -2.78755000E-07  2.20141300E-06  1.39530152E-01  4.46791068E-02
 -5.12874000E-07  3.72272290E-05 -6.33158241E-01  2.54105567E-01 -5.08651050E-05
 -2.22659000E-07 -1.33165419E-03 -1.24252902E-03 -1.05000000E-08 -2.00280000E-08
 -2.82420969E-03 -1.86867348E-03  1.17249014E-02 -8.31546328E-03  1.86330269E-02
 -6.27614731E-02  3.63937397E-04 -4.64374585E-02 -2.76611641E-02  9.19088398E-01
 -5.70505628E-02  1.58179661E-01  5.54906558E-01 -2.11741494E+00  4.64241683E-01
 -7.21229883E-01 -4.89375290E-01 -7.60438256E-04 -6.48712165E-03  1.52396132E-02
  1.03316796E-02  4.52416826E-03 -2.82330036E-03 -1.86715296E-03 -1.17230476E-02
  8.31382050E-03  1.86338740E-02 -6.27644570E-02 -3.62352814E-04  4.64338426E-02
 -2.76603798E-02  9.19008715E-01  5.70327161E-02 -1.58179558E-01  5.54896587E-01
 -2.11894321E+00 -4.64205274E-01  7.21584812E-01 -4.89525888E-01 -7.60981927E-04
  6.48770752E-03 -1.52395683E-02  1.03323840E-02  4.52548388E-03  2.66988212E-02
  1.65648562E-01  1.15233778E+00 -2.64309480E-03  6.18250936E-03 -1.04184409E-02
  1.49302579E-02 -4.50443063E-02  1.06253595E+00 -1.25648791E-02 -4.53320910E-03
 -2.67401374E-03  1.49342997E-02 -4.50036011E-02  1.06253353E+00  1.25635036E-02
  4.53371723E-03 -2.67281092E-03  2.66984218E-02  1.65632410E-01  1.15242394E+00
  2.64131912E-03 -6.18327958E-03 -1.04196906E-02 -4.26425807E-02 -7.18559898E-02
  1.68099000E-06 -8.47880000E-07 -4.41301350E-02  2.36893373E-01  4.63794000E-06
 -2.94538300E-06 -1.74600135E-01  3.07359507E+00 -2.57157600E-06 -1.77873700E-05
  9.70175479E-01  5.52291410E+00 -1.38476920E-05  7.02792230E-05 -1.97359610E+00
  4.92748115E-03  5.32602000E-07  3.08858000E-07  1.54745623E-02  3.82477931E-03
  9.14851554E-03  1.56787194E-02 -2.94336983E-02  8.19507949E-02 -3.97398899E-02
 -5.79457231E-02 -3.94671495E-02  1.18493194E-01 -3.25692688E-02 -1.10997049E-01
 -1.17699269E-01  2.78094912E-01 -3.24160506E-01 -7.04886685E-01  8.44894559E-02
 -5.41522887E-01  2.77720690E+00  4.22394111E-04 -3.30811463E-03  2.44735891E-03
 -3.02940880E-03 -1.23401426E-03  9.14841348E-03  1.56785604E-02  2.94354871E-02
 -8.19515660E-02 -3.97408867E-02 -5.79453017E-02  3.94685080E-02 -1.18493093E-01
 -3.25705724E-02 -1.10983575E-01  1.17712580E-01 -2.78106674E-01 -3.24165479E-01
 -7.05139016E-01 -8.44713062E-02  5.41492714E-01  2.77725132E+00  4.22960874E-04
  3.30844261E-03 -2.44705440E-03 -3.02942652E-03 -1.23424385E-03 -1.47314774E-02
 -2.32530347E-02 -8.10727000E-07  1.83537200E-06  5.40990001E-02  4.98550224E-02
 -1.36750900E-06  1.78833900E-06  3.51597568E-02  4.91846154E-01 -1.25279000E-06
  1.00435590E-05  4.53766276E-01 -7.73886258E+00  1.19091380E-05 -3.68406970E-05
  3.42613072E+00  1.28821376E-02 -3.01760000E-08 -1.36711000E-07 -2.99982145E-03
 -2.74418577E-03  6.56109494E-04  7.62911170E-05 -2.97808935E-03  6.58543330E-02
 -3.78317699E-02  2.64270617E-02  4.73258602E-04  7.92103690E-02 -4.55157869E-02
 -5.06237735E-01 -2.34915016E-01  5.03652916E-01 -7.22538511E-01 -3.21062738E+00
  1.42466091E-01 -1.22317058E+00  7.45345271E-01  1.23744254E-02  1.93191973E-02
 -1.54491334E-02  1.33286497E-02 -1.87432988E-02 -6.55985169E-04 -7.60762570E-05
 -2.97743266E-03  6.58547437E-02  3.78311359E-02 -2.64272066E-02  4.73515303E-04
  7.92126122E-02  4.55151760E-02  5.06211711E-01 -2.34917814E-01  5.03646503E-01
  7.22528253E-01  3.21070827E+00  1.42487245E-01 -1.22318170E+00 -7.45324376E-01
 -1.23743197E-02  1.93191454E-02 -1.54484022E-02 -1.33284206E-02  1.87428626E-02
 -2.87995144E-03  1.25559792E-02 -3.21664303E-02 -1.16295617E-03 -4.03472426E-04
  3.11663998E-03 -1.64880171E-02 -1.91489549E-01  2.57223140E-01 -1.04234793E-02
  1.32982844E-02 -1.10581605E-02  1.64881474E-02  1.91499446E-01 -2.57259762E-01
 -1.04241860E-02  1.32976423E-02  1.10581686E-02  2.87916774E-03 -1.25578366E-02
  3.21416752E-02 -1.16348184E-03 -4.03163103E-04 -3.11606075E-03  3.57166000E-07
  5.75800000E-07  8.03518264E-02 -2.49318695E-01  1.24745000E-07 -1.33991400E-06
  1.62797613E-01 -5.05167377E-01  1.00720600E-06 -3.32888530E-05  2.80838769E-01
 -1.10249901E+00 -8.14550800E-06 -9.21413550E-05 -1.99562178E-01  1.13553672E+00
  3.91552170E-05 -3.15743000E-07  1.83577340E-02 -5.43863308E-02 -1.87312000E-07
 -7.55690000E-08 -1.97536772E-02 -3.28480436E-02  9.53479232E-03 -6.88068956E-02
  1.31830161E-01  1.04517593E-01  1.08486921E-02 -1.00282816E-01  1.79383337E-01
  4.01936904E-01  5.71223250E-02 -2.53779202E-01  5.20154484E-01 -1.01436407E+00
 -2.09339569E-01  4.52155904E-01  8.13955974E-01 -9.86752843E-03 -6.60128389E-03
  1.42157129E-02  5.69679060E-04 -1.47444277E-04  1.97535092E-02  3.28477478E-02
  9.53356613E-03 -6.88053421E-02 -1.31829753E-01 -1.04516285E-01  1.08472094E-02
 -1.00280316E-01 -1.79383095E-01 -4.01935519E-01  5.71161597E-02 -2.53776137E-01
 -5.20150132E-01  1.01439053E+00 -2.09337689E-01  4.52146978E-01 -8.14015337E-01
  9.86759245E-03 -6.60139229E-03  1.42158112E-02 -5.69581084E-04  1.47459587E-04
  1.74170000E-07  2.73782000E-07 -4.38595376E-02  1.49995344E-01 -2.97673000E-07
 -5.71901000E-07 -5.69083219E-02  1.87152403E-01 -1.35233000E-07 -6.64167200E-06
 -1.60588929E-01  5.92294805E-01 -3.39579100E-06  8.30936240E-05  3.17242943E-01
 -1.18081507E+00 -4.32285270E-05 -1.56995000E-07 -4.32375233E-03  1.36954517E-02
  2.84740000E-08  4.91160000E-08  9.68611493E-03  2.23419139E-02 -2.52864261E-02
 -8.63821313E-03 -4.36955346E-02 -1.51957469E-01 -3.76975947E-02 -2.07917726E-01
 -1.51802504E-01 -5.57108982E-01  7.57992512E-01  1.17742641E+00  7.26252046E-01
 -1.96221986E+00 -6.93969708E-01 -6.25752377E-01 -1.00111546E+00  5.73577921E-03
 -2.27707266E-04 -4.41756364E-02  2.66920966E-02 -2.23133673E-02  9.67629252E-03
  2.23246972E-02  2.53013481E-02  8.62391673E-03 -4.36868142E-02 -1.51888837E-01
  3.76925324E-02  2.07897588E-01 -1.51793312E-01 -5.56577368E-01 -7.58353908E-01
 -1.17737326E+00  7.26120788E-01 -1.95177992E+00  6.94437440E-01  6.23249197E-01
 -9.99708468E-01  5.74149167E-03  2.27448264E-04  4.41719966E-02  2.66933667E-02
 -2.23002495E-02  2.91644631E-02  3.46940154E-01  2.17143528E-01  1.99117616E-02
  6.85657485E-03  1.36633004E-02  4.52650818E-02  9.70201408E-01 -2.26813644E-01
  2.15220692E-02  4.86526262E-02  8.75158689E-03  4.52922852E-02  9.70606221E-01
 -2.27811346E-01 -2.15484912E-02 -4.86466310E-02  8.75270403E-03  2.91265220E-02
  3.46401738E-01  2.17753692E-01 -1.99295351E-02 -6.86174227E-03  1.36401504E-02
 -1.70565971E-02 -3.44238039E-02 -1.01339400E-06  2.04561170E-05 -4.93446982E-02
  2.44640435E-01  1.20718350E-05  2.65983400E-05 -1.60468863E-01  2.71267256E-01
 -1.48679016E-04  1.53993478E-04  1.94493424E-01  3.96205857E+00 -3.47415900E-04
 -4.41367227E-04 -2.04381645E+00  6.04988399E-03  4.69034100E-06  1.11952870E-05
 -1.07359816E-03  1.48070718E-02 -6.41679002E-03 -1.15402701E-02  1.48093787E-02
  1.90197008E-02 -4.26192108E-02  5.85393377E-02  1.30172160E-02 -8.37652592E-04
 -6.80877394E-02  7.78226474E-02  1.03263281E-01  2.30728391E-01 -1.07817809E-03
 -1.01326809E+00 -1.66946465E-01  6.34741873E-01 -6.58787750E-01 -4.03117126E-03
  8.79742038E-03 -5.11618333E-03 -3.58130093E-03 -5.98476102E-03 -6.41533685E-03
 -1.15386917E-02 -1.48067877E-02 -1.89956820E-02 -4.26182466E-02  5.85571623E-02
 -1.30159354E-02  8.64656696E-04 -6.80842462E-02  7.74701688E-02 -1.03218871E-01
 -2.30655233E-01 -1.06764530E-03 -1.01040307E+00  1.66937888E-01 -6.33966343E-01
 -6.59150752E-01 -4.03787307E-03 -8.79426011E-03  5.11582885E-03 -3.57430547E-03
 -5.98527483E-03  8.28325867E-03  1.28677144E-02 -5.81520600E-06 -1.15432380E-05
 -2.34365228E-02 -2.29886937E-02 -1.16264140E-05 -1.51038730E-05 -3.17360662E-02
 -4.49965238E-01 -2.34145000E-07 -4.83955940E-05 -1.08452091E-01  1.83753620E+00
  1.39947071E-04  1.88582526E-04 -3.73641019E-01 -1.45818240E-03  5.94749000E-07
 -2.28811000E-07  2.73470549E-04  2.46245092E-03  1.65344867E-02  2.88625033E-02
  2.40856884E-02 -2.07243776E-02 -1.45913028E-02 -1.11901593E-01 -1.11182821E-02
 -2.91780509E-02 -1.49979816E-02 -9.47139721E-01 -5.97492955E-01  6.34975709E-02
  1.60991210E-01 -1.77886872E+01  7.63241518E-01 -4.27837773E+00 -2.30843433E+00
 -8.65045955E-03 -1.10589131E-03 -5.59128201E-03 -1.52352257E-03 -2.22900156E-02
 -1.65402431E-02 -2.88757613E-02  2.40703220E-02 -2.07274963E-02  1.46191989E-02
  1.11990307E-01 -1.11420648E-02 -2.92943126E-02  1.50930778E-02  9.47452922E-01
 -5.97032742E-01  6.41969338E-02 -1.61456336E-01  1.77899361E+01  7.62827470E-01
 -4.27875543E+00  2.30907632E+00  8.64717460E-03 -1.10629627E-03 -5.61686911E-03
  1.50790934E-03  2.23034290E-02  6.22950029E-02  8.81758906E-01 -9.79604289E-01
 -2.83605804E-02 -8.45136349E-03  3.76561457E-02 -4.45582402E-02 -6.76471406E-01
  1.65769728E+00 -4.33668034E-02  9.19550713E-03 -3.16627479E-03  4.45295970E-02
  6.75880493E-01 -1.65756515E+00 -4.33540278E-02  9.22483209E-03  3.16076003E-03
 -6.23145138E-02 -8.81983645E-01  9.79465415E-01 -2.83490639E-02 -8.44732652E-03
 -3.76644584E-02  5.38293700E-06  1.07663630E-05 -4.17104374E-03  6.36613605E-02
  1.57368980E-05 -7.48075000E-05  3.93982631E-02  8.26066533E-02  5.03676140E-05
 -9.57552840E-05 -4.97137259E-01  4.90737502E-01 -4.27070600E-05 -1.27924664E-03
 -1.13050394E+00 -1.46823844E+00  6.72657367E-04 -3.00776000E-06  1.56728072E-02
  3.54987933E-02 -2.82646000E-07 -4.76388600E-06 -2.71662186E-03 -3.15912060E-03
  4.52261837E-03  3.82988264E-02  6.78068868E-04 -2.65860242E-02  3.59977768E-03
  4.28602834E-02 -2.26547059E-03  5.74939939E-01  6.40579105E-02  1.19151499E-01
 -3.56371212E-03 -4.83289524E+00 -4.10697503E-03  1.32871401E+00  6.27844102E-01
  1.12234298E-02  5.41387619E-03 -4.54016675E-04 -1.17636420E-02  8.26815693E-04
  2.72043052E-03  3.16597766E-03  4.53101427E-03  3.83126422E-02 -6.51341566E-04
  2.65509907E-02  3.60684743E-03  4.28634859E-02  2.30832182E-03 -5.74976927E-01
  6.41174688E-02  1.19295992E-01  3.56154466E-03  4.83356166E+00 -4.21910117E-03
  1.32910706E+00 -6.27486693E-01 -1.12204588E-02  5.41907408E-03 -4.56835319E-04
  1.17662117E-02 -8.23003066E-04 -2.36358700E-06 -3.67644500E-06 -1.84553024E-02
 -3.61834384E-02  7.91369800E-06  6.68542500E-06 -3.75868350E-02 -4.75548191E-02
  1.05060100E-05  1.26568087E-04  2.12388414E-03 -1.51619365E-01  3.72590020E-05
 -5.42385855E-04  4.52248990E-01  6.16481394E-01  8.53477790E-05  3.38102000E-07
  2.02466222E-03 -4.38627627E-04 -6.60930000E-08 -7.10580000E-07  7.21716646E-03
  1.26776795E-02 -4.57685253E-02  3.29478434E-02 -9.09235697E-02 -5.84200797E-02
 -1.50630112E-01  1.94863080E-01 -2.40567979E-01  8.54616693E-01 -1.42591562E-01
 -6.37217638E-01  5.96419033E-01  2.64370690E+00  6.61675021E-01  5.16960291E-01
  6.08766609E-01  1.44763983E-02 -1.42109385E-02  2.78510673E-02 -1.43134546E-02
  1.26320941E-02  7.21785448E-03  1.26790069E-02  4.57695477E-02 -3.29445253E-02
 -9.09264786E-02 -5.84278606E-02  1.50631972E-01 -1.94857609E-01 -2.40576584E-01
  8.54680920E-01  1.42568863E-01  6.37179790E-01  5.96482102E-01  2.64442968E+00
 -6.61648777E-01 -5.17132513E-01  6.08782698E-01  1.44762864E-02  1.42106685E-02
 -2.78504349E-02 -1.43152276E-02  1.26328991E-02  5.73797354E-02  5.59744632E-01
 -1.21780202E+00 -3.06561333E-02 -8.88698224E-03 -1.28018747E-02 -1.54457836E-02
 -3.04638864E-01  9.45841621E-02 -7.14403714E-03 -1.05983590E-02  3.20074140E-03
 -1.54429639E-02 -3.04596777E-01  9.45227225E-02  7.14261174E-03  1.05983371E-02
  3.20121879E-03  5.73794601E-02  5.59748964E-01 -1.21780278E+00  3.06558172E-02
  8.88573831E-03 -1.28016868E-02  2.63021073E-02  4.62792149E-02 -5.42513000E-07
  1.32736300E-06 -1.23214068E-01 -1.72786453E-01 -1.27239200E-06  3.60439400E-06
 -2.84637834E-01 -2.38070051E+00 -8.15954800E-06  6.94691000E-07 -3.07003363E+00
 -4.53971862E+00 -1.27277000E-05 -2.64361210E-05  9.86289399E-01  1.00328501E-01
  6.40055000E-07 -9.74530000E-08  3.72476845E-02  1.10697775E-02 -3.15158057E-03
 -6.20783142E-03 -2.85664774E-02  4.77111220E-02 -8.84789875E-03  4.60604842E-02
 -3.68369210E-02  6.19507290E-02 -2.80787536E-02 -5.09844739E-01 -1.63115170E-01
  2.85040067E-01  1.73725325E-01 -1.64406066E+00 -3.34389393E-02  1.61325632E-01
  6.45313841E-01 -3.02973587E-02 -4.71003793E-03  5.29954485E-03 -8.91182230E-03
 -3.03215894E-03 -3.15128589E-03 -6.20731623E-03  2.85666057E-02 -4.77110609E-02
 -8.84592791E-03  4.60580431E-02  3.68369162E-02 -6.19507630E-02 -2.80756705E-02
 -5.09840358E-01  1.63115560E-01 -2.85034657E-01  1.73721135E-01 -1.64390768E+00
  3.34406263E-02 -1.61262304E-01  6.45284153E-01 -3.02972451E-02  4.71013536E-03
 -5.29990017E-03 -8.91157787E-03 -3.03223120E-03 -2.26375242E-02 -3.60414962E-02
 -2.50891000E-07 -4.90744000E-07 -1.38341159E-01  6.96345241E-02 -6.03814000E-07
 -7.12649000E-07 -1.78040527E-01  1.34785886E+00 -1.31481000E-07 -1.04711000E-06
 -9.20316506E-01  4.16580499E+00  3.32790700E-06  1.19625930E-05 -1.31871628E+00
 -9.04118968E-03  5.30100000E-08 -3.97070000E-08  7.25040565E-04 -8.57655659E-04
 -3.90941312E-02 -7.21997526E-02  5.57084566E-03  1.24191937E-01  1.35216298E-01
  3.81793299E-01  1.23023711E-02  2.23717101E-01  3.78148016E-01 -1.11826470E+00
 -1.72036110E-01 -9.12900819E-01 -1.71365459E+00 -4.23673876E+00  2.00708690E-01
 -6.58595488E-01  2.30246623E-01  7.74956816E-03 -1.05323034E-02  1.82689975E-02
  5.62397993E-02 -3.27050811E-03  3.90939683E-02  7.21995497E-02  5.57136865E-03
  1.24194553E-01 -1.35211633E-01 -3.81793839E-01  1.23058212E-02  2.23732302E-01
 -3.78132474E-01  1.11822132E+00 -1.72043397E-01 -9.12944534E-01  1.71362151E+00
  4.23666976E+00  2.00727625E-01 -6.58577915E-01 -2.30260760E-01 -7.74969596E-03
 -1.05317373E-02  1.82703782E-02 -5.62385411E-02  3.27073794E-03 -1.55200388E-02
 -4.72730027E-01 -1.31537668E-01  1.03787529E-02 -2.17218240E-02 -6.22902957E-03
 -5.42545570E-02 -6.75331682E-01  5.21810007E-01 -1.26384198E-02  2.66995859E-03
  1.60462485E-03  5.42540944E-02  6.75330060E-01 -5.21799436E-01 -1.26378184E-02
  2.66950510E-03 -1.60476175E-03  1.55189714E-02  4.72729705E-01  1.31535346E-01
  1.03775434E-02 -2.17233754E-02  6.23032895E-03 -4.33991000E-07 -7.30601000E-07
 -2.68044229E-02  4.54723188E-02  2.20721000E-06  1.47953700E-06 -8.98356867E-02
  1.85194312E-01  5.92692100E-06  5.15938370E-05  3.60618950E-02 -2.12291230E-01
  2.53975330E-05  6.00370400E-05 -1.96853659E-01 -8.99055494E-01 -8.62682100E-06
 -1.81809700E-06  1.04668319E-02 -3.07136018E-02 -6.24114000E-07 -8.80594000E-07
 -1.09833155E-02 -1.96023570E-02  1.62548370E-02 -2.00792673E-02 -9.01596733E-02
  1.03731477E-01  2.82968143E-02 -2.82652677E-02 -1.32811446E-01 -3.21883006E-01
 -4.28291992E-02  1.06925665E-01 -5.71112243E-02 -1.37361185E+00 -2.13242217E-01
  6.30633152E-01  9.71369432E-01 -1.25764735E-02  6.27343644E-03 -1.28804645E-02
  1.95858182E-03  1.52511996E-03  1.09834428E-02  1.96025941E-02  1.62553857E-02
 -2.00779242E-02  9.01608660E-02 -1.03732842E-01  2.82981808E-02 -2.82629146E-02
  1.32813692E-01  3.21899166E-01 -4.28351405E-02  1.06925603E-01  5.71063139E-02
  1.37362358E+00 -2.13240105E-01  6.30611128E-01 -9.71441650E-01  1.25774834E-02
  6.27390217E-03 -1.28801641E-02 -1.95812507E-03 -1.52514678E-03  4.83746000E-07
  7.82359000E-07  1.05774647E-04 -1.91137311E-02  2.14418600E-06 -1.85596600E-06
 -8.53516468E-04 -2.56345486E-02  2.98860500E-06 -2.24035510E-05 -1.40117093E-02
 -3.64879075E-02  1.27781660E-05 -5.54983700E-06  1.96324954E-01  2.53371494E-01
 -7.34885200E-06  1.27204000E-07  4.42733884E-03 -2.73369964E-03  6.27770000E-08
  5.60630000E-08 -9.82450328E-03 -2.04462184E-02  6.71130317E-03  5.26085714E-02
 -1.13544855E-01  1.42410528E-01  4.58147082E-02  2.64465802E-01 -4.56396525E-01
  4.87001358E-01  7.44056163E-01 -7.33747812E-01  9.94702984E-01  6.22487164E-01
 -6.42115679E-01  3.36221178E-01  2.58159696E-01 -5.49397910E-03  2.25094602E-02
 -5.69829708E-02 -3.53082917E-02 -1.61450086E-02 -9.82355614E-03 -2.04444894E-02
 -6.71029985E-03 -5.26063111E-02 -1.13548611E-01  1.42401689E-01 -4.58106752E-02
 -2.64461398E-01 -4.56407478E-01  4.87013619E-01 -7.44065879E-01  7.33747525E-01
  9.94730449E-01  6.22544164E-01  6.42123677E-01 -3.36223164E-01  2.58179509E-01
 -5.49400884E-03 -2.25097752E-02  5.69831222E-02 -3.53094047E-02 -1.61442783E-02
 -4.36596297E-02 -6.81628950E-01  1.39265385E+00  5.50955732E-03 -2.95997124E-02
  4.70002086E-03  1.27544416E-02  3.25125887E-01 -1.52351415E-01  3.25480069E-02
  3.62770015E-03 -1.82548423E-02  1.27558003E-02  3.25139764E-01 -1.52361787E-01
 -3.25480070E-02 -3.62743947E-03 -1.82562806E-02 -4.36597519E-02 -6.81626981E-01
  1.39266825E+00 -5.50952705E-03  2.95994772E-02  4.70003542E-03 -5.67428395E-03
 -1.41496919E-02  4.53400000E-09  6.46952000E-07  1.74730903E-02  1.85672972E-01
 -1.38359000E-07  2.31367500E-06 -4.99685814E-02 -9.02921939E-01  1.08158500E-06
 -5.36102400E-06  2.36112075E+00 -1.57741056E+00 -3.29998700E-06 -1.38190800E-05
  9.55039739E-01 -3.54846756E-02  1.69966000E-07 -2.42068000E-07 -6.87697454E-03
  1.87952482E-02 -6.08587931E-03 -1.12255666E-02  3.71331363E-02 -5.44670919E-02
 -6.45418566E-02  5.84499006E-02  5.36346100E-02 -7.76366257E-02 -1.12555088E-01
 -8.97628490E-02  1.31635675E-01 -3.17543303E-01  9.12767370E-02  1.34939807E+00
  1.28343773E-01 -7.98842256E-01  1.64857529E+00 -3.16167893E-04  1.22322568E-02
 -8.27876791E-03  2.64368740E-03  2.29506778E-03 -6.08551668E-03 -1.12249487E-02
 -3.71327987E-02  5.44666561E-02 -6.45393465E-02  5.84475435E-02 -5.36341732E-02
  7.76360234E-02 -1.12551408E-01 -8.97657223E-02 -1.31633840E-01  3.17544588E-01
  9.12813755E-02  1.34943599E+00 -1.28340807E-01  7.98852750E-01  1.64853727E+00
 -3.15757818E-04 -1.22320642E-02  8.27838291E-03  2.64364817E-03  2.29499572E-03
  3.23217585E-03  4.74965469E-03 -1.19263000E-07 -2.32780000E-07  4.59807845E-02
 -3.97226694E-03 -2.79171000E-07 -3.59906000E-07  3.83910515E-02 -3.92707878E-01
  3.33840000E-08 -1.21608000E-07  3.18037963E-01 -3.97401284E+00  4.74172100E-06
  2.71335000E-07  1.27847974E+00  1.70259295E-03  3.07900000E-08 -4.34080000E-08
 -7.42524215E-03 -3.22633511E-03  8.80174076E-03  1.24090522E-02 -7.93510365E-02
  6.73418539E-02 -1.24334464E-02  5.73755994E-02 -2.36534040E-01  2.32360060E-01
  1.61974034E-02 -6.56463706E-01 -6.42909552E-01  3.95700060E-02  7.24303887E-02
  1.25716866E+00  5.45239522E-01  4.17812259E-01  3.19208789E-02  1.53744956E-02
 -1.11448992E-03 -2.85668546E-02 -1.05092745E-02  2.10141446E-02  8.80116561E-03
  1.24080083E-02  7.93523182E-02 -6.73429254E-02 -1.24304950E-02  5.73814532E-02
  2.36539385E-01 -2.32362270E-01  1.62064966E-02 -6.56447819E-01  6.42887511E-01
 -3.95956952E-02  7.24296570E-02  1.25748127E+00 -5.45243328E-01 -4.17901645E-01
  3.19058610E-02  1.53746144E-02  1.11587135E-03  2.85675391E-02 -1.05092504E-02
  2.10142786E-02  7.85533786E-02  1.15372695E+00 -1.57561160E+00 -2.66335693E-02
  1.12471217E-02 -3.93558043E-04  1.47017005E-03 -2.15032665E-01  1.46893403E-01
 -1.42558063E-02 -1.02079078E-02  1.62808980E-02  1.47001448E-03 -2.15027251E-01
  1.46901914E-01  1.42548700E-02  1.02081519E-02  1.62817865E-02  7.85544356E-02
  1.15373591E+00 -1.57565202E+00  2.66331622E-02 -1.12480566E-02 -3.93202966E-04
 -8.07567710E-03 -1.03230561E-02  5.14551000E-07  6.76007000E-07  1.84449937E-01
 -1.30896790E-01  1.52356900E-06  9.48432000E-07  4.81689971E-01  3.09661758E+00
 -4.07211100E-06  1.28840000E-08  1.91980606E+00 -1.24535794E+00  3.04329100E-06
 -9.23025000E-07  1.63771610E+00 -7.26549529E-02  1.97609000E-07  5.92397000E-07
  1.44620209E-02 -2.07627883E-02 -1.37812285E-02 -2.37677609E-02 -1.23666919E-02
 -5.68309762E-02 -6.47302137E-02  9.39141189E-02 -2.30239675E-02 -7.75040086E-02
 -1.03133429E-01  2.14570521E-01 -7.97342625E-03 -2.07281487E-01 -1.97592889E-01
  3.98743066E-01 -1.03776279E-01  3.87194022E-01 -8.65909754E-01  5.70331377E-03
 -1.13726357E-02  4.83037860E-05  1.35884730E-02  6.24213181E-03 -1.37814821E-02
 -2.37681958E-02  1.23657671E-02  5.68317747E-02 -6.47313780E-02  9.39158212E-02
  2.30218469E-02  7.75048824E-02 -1.03134743E-01  2.14571288E-01  7.97629351E-03
  2.07283803E-01 -1.97600442E-01  3.98783776E-01  1.03776322E-01 -3.87164257E-01
 -8.65883830E-01  5.70300834E-03  1.13723344E-02 -4.81922940E-05  1.35887256E-02
  6.24213560E-03  2.84246912E-02  4.61560674E-02  7.12240000E-08 -1.17948000E-07
  1.38371990E-01 -1.06200293E-01 -5.36100000E-08 -2.50375000E-07  1.96359858E-01
 -1.46679179E+00  1.51275600E-06 -6.83920000E-08  9.70648730E-01 -1.68239160E+00
 -3.38113900E-06  7.28854100E-06 -2.42864327E-01  3.74049188E-03 -4.85240000E-08
 -2.39500000E-08  3.48904011E-03  3.78770260E-05 -1.13091017E-02 -2.12458390E-02
 -9.22293076E-02  4.99283272E-02 -1.31892130E-02  1.42345929E-01 -3.50989099E-01
  1.36585052E-01 -5.05591223E-02 -1.78588640E-01  8.38434149E-01 -4.37555698E-01
  6.83353858E-01  9.25923144E+00  4.36277449E-01  2.61243850E+00 -4.80341014E-02
  2.23557499E-02 -2.32301965E-02 -6.60772714E-03 -9.87395339E-04 -2.77393473E-02
  1.13086377E-02  2.12450370E-02 -9.22259262E-02  4.99290499E-02  1.31880047E-02
 -1.42342693E-01 -3.50979370E-01  1.36589901E-01  5.05525018E-02  1.78578718E-01
  8.38426224E-01 -4.37573517E-01 -6.83326989E-01 -9.25932147E+00  4.36248407E-01
  2.61243887E+00  4.80090173E-02 -2.23558406E-02 -2.32296124E-02 -6.60463551E-03
  9.87214135E-04  2.77391150E-02  3.68973854E-02  3.68235094E-01 -1.06371073E+00
 -4.57105481E-03  3.17485082E-02 -2.85640557E-02 -3.59948406E-02 -1.05876284E-01
  9.11983002E-01  1.74969520E-02  8.53541509E-04  2.46786419E-02  3.59923468E-02
  1.05856327E-01 -9.11917132E-01  1.74971785E-02  8.52631813E-04 -2.46765334E-02
 -3.68969056E-02 -3.68226692E-01  1.06371953E+00 -4.57050261E-03  3.17481996E-02
  2.85634958E-02 -3.05552000E-07 -6.27377000E-07 -1.74933645E-01 -9.52116903E-02
  5.74537000E-07  4.95449800E-06 -6.56400683E-01 -2.89778648E-01  5.46810000E-07
  1.29768520E-05  1.85643273E+00  9.12002571E-01  2.55489590E-05  8.11407660E-05
 -2.65142086E-02  3.35437329E-01 -3.13254260E-05 -5.81053000E-07 -1.21847226E-02
 -1.27355284E-02  7.26060000E-08 -4.61045000E-07  1.11524996E-03  1.80573430E-03
  1.51122590E-02 -6.68493108E-03  1.54367305E-02 -3.27786121E-03  5.40320029E-02
  2.54799325E-03  4.09365853E-02 -1.03743463E-01 -2.36852749E-01 -5.93991220E-02
 -1.59645659E-01  1.73926691E+00 -4.05946222E-01 -7.38952970E-01 -5.86143964E-01
  3.90766371E-03  3.01746659E-03  3.42755467E-03  6.03238334E-03  8.75937051E-04
 -1.11545484E-03 -1.80610050E-03  1.51129932E-02 -6.68387585E-03 -1.54378856E-02
  3.27955966E-03  5.40334926E-02  2.55027117E-03 -4.09384696E-02  1.03749223E-01
 -2.36852819E-01 -5.93982915E-02  1.59646758E-01 -1.73928581E+00 -4.05944119E-01
 -7.38959138E-01  5.86147648E-01 -3.90762859E-03  3.01767757E-03  3.42803170E-03
 -6.03229923E-03 -8.75876768E-04  1.46661000E-07  2.26129000E-07  3.78213400E-03
  4.77477068E-03  5.40915000E-07 -3.00823000E-07  2.41033356E-02  1.69302347E-02
  3.49671000E-07 -1.05255870E-05 -1.77776395E-01 -1.02535256E-01  5.48678300E-06
 -3.05701620E-05 -4.57686708E-01 -2.41330886E-01  1.42425650E-05  1.34359000E-07
  6.31706689E-03  4.47343481E-03 -1.05350000E-08 -2.98910000E-08  2.60084353E-02
  4.75189000E-02 -1.04635203E-01 -7.74676095E-02  1.18190573E-01 -2.47947213E-01
 -4.12963287E-01 -1.99348784E-01  4.15056806E-01  7.47395400E-01  1.00318486E+00
  1.22288631E+00 -1.60310330E+00  2.88841639E+00  5.29023313E-01  5.48690159E-01
 -3.24361318E-01 -2.26629968E-02 -2.80429624E-02  6.66938520E-04 -1.87033316E-02
 -4.44753558E-02 -2.60091202E-02 -4.75201982E-02 -1.04630476E-01 -7.74666476E-02
 -1.18191532E-01  2.47955478E-01 -4.12947447E-01 -1.99344674E-01 -4.15060710E-01
 -7.47415193E-01  1.00317161E+00  1.22287405E+00  1.60312070E+00 -2.88838334E+00
  5.28988154E-01  5.48671750E-01  3.24376345E-01  2.26631377E-02 -2.80425742E-02
  6.68674780E-04  1.87029082E-02  4.44758156E-02  7.72505174E-02  4.66244654E-01
 -2.45982288E+00  3.68715170E-02 -2.07441577E-02 -1.05270397E-02  6.11901248E-03
  2.11399603E-01  4.95925857E-01  1.07049540E-02 -1.63010086E-02  6.22770630E-03
 -6.12088303E-03 -2.11422631E-01 -4.95877800E-01  1.07046978E-02 -1.63016305E-02
 -6.22754740E-03 -7.72497388E-02 -4.66228008E-01  2.45978793E+00  3.68721347E-02
 -2.07441302E-02  1.05278880E-02  6.25110000E-08  1.06737000E-07  5.19261577E-02
 -9.05095838E-03  8.65001000E-07 -9.14681000E-07  2.36536003E-01  1.74689320E-02
  1.72881900E-06  1.75778640E-05 -5.46137071E-01 -3.13871367E-01  1.42495010E-05
 -1.91722220E-05 -4.88039838E-01  3.41729126E-01  1.12518840E-05 -3.38776000E-07
 -4.21025311E-02 -2.51075327E-02  2.44820000E-08 -3.04539000E-07 -6.93341447E-04
 -1.64546423E-03  5.26225556E-03 -1.40075374E-02 -3.88899080E-03  2.07420978E-02
  1.76472110E-02 -1.25756827E-02 -7.42426396E-03 -3.75050268E-01 -8.83717102E-02
 -5.34388795E-02  1.29839740E-01 -3.85386191E-01 -1.46116723E-01 -4.91892472E-01
  8.89008548E-01 -7.37887626E-03  2.71159013E-03 -2.82615172E-03  4.82845329E-03
 -3.18297867E-03  6.93213537E-04  1.64522419E-03  5.26303608E-03 -1.40066100E-02
  3.88850965E-03 -2.07407028E-02  1.76487549E-02 -1.25737537E-02  7.42365878E-03
  3.75045887E-01 -8.83726265E-02 -5.34417385E-02 -1.29839782E-01  3.85371080E-01
 -1.46125580E-01 -4.91898699E-01 -8.89012208E-01  7.37880161E-03  2.71195306E-03
 -2.82601973E-03 -4.82817954E-03  3.18307234E-03  1.18320000E-07  1.82146000E-07
 -1.13533248E-03  1.20230032E-02  4.97748000E-07 -1.77532000E-07  2.65716097E-03
  2.33610562E-02  5.36080000E-07 -9.29988700E-06  1.04949976E-02  3.80338931E-02
  5.25171600E-06 -1.13265780E-05  6.40695924E-01 -3.44648867E-01 -1.19051000E-07
  1.19300000E-08  3.61806494E-03 -2.09293450E-04  7.00000000E-10  2.39140000E-08
  2.52621137E-02  4.45044687E-02  1.30642437E-01  7.81070204E-02  2.47947205E-02
 -1.80022245E-01  4.18364956E-01  3.62265041E-01  1.78242726E-01  5.40514657E-01
 -1.07045533E+00 -7.94556806E-01 -6.47985815E-01  5.43895678E+00 -1.17101567E+00
  6.71270143E-01  1.53460711E+00 -5.34106088E-03  2.46113821E-02  8.15664317E-02
  1.42530249E-02  1.16216641E-02  2.52597817E-02  4.45003551E-02 -1.30639400E-01
 -7.81038462E-02  2.47835814E-02 -1.80012271E-01 -4.18351634E-01 -3.62251024E-01
  1.78205124E-01  5.40639348E-01  1.07039990E+00  7.94509268E-01 -6.47839430E-01
  5.43753163E+00  1.17100991E+00 -6.70932433E-01  1.53461774E+00 -5.33907789E-03
 -2.46097484E-02 -8.15660885E-02  1.42521939E-02  1.16220945E-02  2.51518054E-02
  2.20236631E-01 -7.75168419E-01  2.47019344E-03 -1.43723724E-03 -5.70279849E-03
  1.18572111E-01  9.14093351E-01 -3.72161595E+00 -1.96740625E-02 -4.25535401E-02
 -3.30421296E-02  1.18566723E-01  9.14032908E-01 -3.72136154E+00  1.96718520E-02
  4.25561073E-02 -3.30428986E-02  2.51454362E-02  2.20154642E-01 -7.74970444E-01
 -2.46942561E-03  1.43563007E-03 -5.70464777E-03  1.43139325E-02  3.04962562E-02
 -5.01853200E-06 -5.45304000E-07 -3.47361093E-03 -2.78024747E-01 -1.98245510E-05
 -4.99291000E-07  5.62187012E-02 -3.19732789E-01  6.56783120E-05 -2.41474550E-05
 -9.38736536E-01 -7.91038353E+00  2.65074470E-05  1.33956970E-05  2.75853396E+00
  2.95358379E-02  1.47562000E-07 -6.91373000E-07  1.44878735E-02  2.62831358E-02
 -2.42746881E-03 -3.81217036E-03  2.27347493E-02  2.19747348E-02 -7.37462206E-03
  6.46228034E-03  4.94970042E-02  5.71361926E-02 -1.11953901E-02 -3.20323178E-02
 -6.98077648E-02 -7.72348619E-02 -9.97145630E-02  1.87307899E-01 -1.25902919E-01
 -1.79820866E-01  1.12977525E-01 -4.96040381E-03  6.11028061E-03  1.36600335E-02
 -1.83615747E-03 -6.06436711E-04 -2.42742602E-03 -3.81205330E-03 -2.27346562E-02
 -2.19759409E-02 -7.37386520E-03  6.46030608E-03 -4.94966055E-02 -5.71375891E-02
 -1.11927422E-02 -3.20043443E-02  6.97989090E-02  7.72353428E-02 -9.97457571E-02
  1.87367527E-01  1.25853327E-01  1.79834546E-01  1.12853591E-01 -4.95956952E-03
 -6.11016945E-03 -1.36610070E-02 -1.83653550E-03 -6.06528858E-04 -2.98122510E-03
 -4.23883341E-03  1.16036000E-07  6.12214000E-07 -1.00960650E-02  6.27076350E-04
  7.49111000E-07  7.91570000E-07  9.67300116E-03  2.57133029E-01 -6.55626200E-06
  4.80478000E-06 -1.26900015E-01  1.38369055E+00 -1.57820170E-05 -1.90353170E-05
 -6.38361195E-01 -8.24579972E-03  1.95168000E-07 -5.04240000E-08  2.55777773E-03
  4.12742839E-04  2.06954081E-02  3.80005995E-02  1.02114966E-01 -7.03517472E-02
  8.55986543E-02 -1.66111688E-01  4.29062829E-01 -1.80007661E-01  2.79919635E-01
  8.12459438E-02 -1.17916639E+00  1.36251301E+00 -1.60208165E+00  1.22757501E+01
 -4.76071084E-01  2.90059931E+00  5.70521367E-01 -4.39910754E-02  2.96043392E-02
 -1.63476923E-03 -1.26361847E-02  2.42977144E-02 -2.06972555E-02 -3.80039040E-02
  1.02123554E-01 -7.03464252E-02 -8.55997192E-02  1.66127627E-01  4.29091100E-01
 -1.79983683E-01 -2.79929559E-01 -8.13013609E-02 -1.17919293E+00  1.36245373E+00
  1.60212056E+00 -1.22762109E+01 -4.76143481E-01  2.90066162E+00 -5.70661659E-01
  4.39909102E-02  2.96057253E-02 -1.62930855E-03  1.26349775E-02 -2.42976048E-02
  2.11651778E-02  2.95965824E-01 -5.06443981E-01 -2.90458492E-04 -3.16281713E-02
  1.66185333E-02  5.55774004E-02  5.01825724E-01 -2.93291554E+00 -2.93560105E-02
  1.54141653E-02  5.50898504E-03 -5.55856419E-02 -5.01901055E-01  2.93318602E+00
 -2.93565812E-02  1.54114831E-02 -5.50683421E-03 -2.11673422E-02 -2.95965557E-01
  5.06523819E-01 -2.89409673E-04 -3.16285099E-02 -1.66170303E-02 -6.41127000E-07
 -1.33182500E-06 -1.15466641E-01 -1.36427402E-02  3.72123000E-07  1.14324960E-05
 -4.72842819E-01 -8.74483913E-02 -5.28639000E-07  2.20298050E-05  1.72905205E+00
 -2.81168661E-01  3.01858020E-05  3.30997858E-04  6.99153573E-01  5.66626457E-01
 -1.18489334E-04 -9.00625000E-07  7.29089871E-03  2.82634000E-03 -2.51239000E-07
 -1.17040500E-06 -9.38634950E-04 -2.20309611E-03 -1.41794288E-03 -6.09377819E-03
 -1.83180137E-02  2.40363731E-02  7.07231162E-04 -7.56682548E-03 -6.09281572E-02
 -2.48361707E-01 -7.87326691E-02 -6.77547125E-02  3.94446262E-01 -1.30713805E+00
 -7.52680143E-01  9.22900144E-02  1.77419812E+00 -1.11092860E-02 -1.82970411E-03
 -4.69059141E-03 -6.77997079E-04 -1.02887098E-03  9.38853377E-04  2.20348751E-03
 -1.41612659E-03 -6.09270723E-03  1.83188179E-02 -2.40384525E-02  7.10662414E-04
 -7.56382280E-03  6.09298466E-02  2.48376971E-01 -7.87360358E-02 -6.77577398E-02
 -3.94444886E-01  1.30712822E+00 -7.52679415E-01  9.22647412E-02 -1.77421733E+00
  1.11097735E-02 -1.82891679E-03 -4.68962992E-03  6.78009437E-04  1.02877708E-03
  1.21792000E-07  1.70877000E-07 -2.17045122E-03  6.10900756E-03  3.11011000E-07
  1.39966000E-07  8.68103956E-03  7.25885425E-03 -4.23729000E-07 -1.13156900E-05
 -1.67191818E-01  8.20193951E-02  6.10279400E-06 -4.31879810E-05 -3.97394738E-01
 -6.76337255E-01  2.33512510E-05  3.46173000E-07  3.29721316E-03 -5.13968457E-03
 -4.87880000E-08 -6.28530000E-08  2.32641826E-02  4.09197884E-02  1.66254358E-02
  1.57718645E-01  2.51749002E-02 -8.35180388E-02  8.29393373E-02  5.48834429E-01
  1.20318575E-01 -2.06049092E+00 -1.67137666E-01 -3.39797039E+00  6.53479140E-02
  2.26843678E+01 -4.22609840E-02  5.28820725E+00  7.04799915E-01  1.67686829E-02
  1.81035803E-03  5.23384076E-03  4.36147933E-02  6.29598020E-03 -2.32660974E-02
 -4.09233078E-02  1.66284479E-02  1.57722962E-01 -2.51772970E-02  8.35388185E-02
  8.29494286E-02  5.48854466E-01 -1.20332614E-01  2.06041433E+00 -1.67037450E-01
 -3.39803787E+00 -6.52830592E-02 -2.26846429E+01 -4.22713961E-02  5.28822984E+00
 -7.04876376E-01 -1.67696713E-02  1.80969185E-03  5.24006099E-03 -4.36158395E-02
 -6.29385106E-03  5.78110531E-02  8.22533430E-01 -2.25072390E+00  1.32607384E-02
  1.80753090E-02  4.55556990E-03  6.57852507E-02  8.46714008E-01 -2.68122246E+00
 -1.54654970E-02  3.21440084E-02  3.43076206E-03 -6.57896267E-02 -8.46786060E-01
  2.68134799E+00 -1.54646178E-02  3.21453930E-02 -3.42791551E-03 -5.78137681E-02
 -8.22503462E-01  2.25085171E+00  1.32636139E-02  1.80713377E-02 -4.55363209E-03
 -4.32088000E-07 -9.78746000E-07  2.29393568E-02 -1.01101107E-03 -1.06120000E-07
  9.70873700E-06  9.76496417E-02  1.09670830E-01 -2.20534100E-06  3.51007570E-05
 -4.91868679E-01 -3.29261565E-01  5.79034400E-05  1.86891174E-04 -1.72257173E-01
  6.65351473E-01 -6.05426990E-05 -4.46634000E-07 -8.36812759E-03 -2.29786980E-02
  5.79918000E-07 -1.59874400E-06  8.26134777E-03  1.40756876E-02 -3.01705155E-03
 -1.40763174E-02  3.47983702E-02 -4.77271400E-02 -1.30462978E-02 -2.82031594E-02
  7.01285573E-02 -2.88735107E-01  6.06651277E-02  1.71739151E-01  1.72447703E-02
  2.13472677E+00  3.02095498E-01  2.77874551E-01 -1.05924669E+00  3.56767041E-03
 -1.76193493E-03 -6.49468869E-03  1.01846145E-02  7.99549636E-04 -8.26127311E-03
 -1.40755312E-02 -3.01570017E-03 -1.40756060E-02 -3.47982224E-02  4.77254766E-02
 -1.30450582E-02 -2.82006525E-02 -7.01274192E-02  2.88762547E-01  6.06741315E-02
  1.71738862E-01 -1.72514398E-02 -2.13473834E+00  3.02129892E-01  2.77843836E-01
  1.05920626E+00 -3.56726493E-03 -1.76094705E-03 -6.49391013E-03 -1.01847185E-02
 -7.99495145E-04  1.50443000E-07  1.86904000E-07  2.71344784E-03  2.11391820E-02
  5.69390000E-08  9.97094000E-07  1.22237958E-03  3.64612943E-02 -8.45304000E-07
 -2.79699260E-05  5.11110691E-02  4.11121872E-02  1.01688570E-05 -3.15979740E-05
  1.10001374E-01  2.02651772E-01  1.10570720E-05  9.16320000E-08  6.90475505E-04
  4.35178123E-03  1.06260000E-07 -1.68281000E-07 -1.62331176E-02 -2.97867769E-02
  1.25922455E-01 -3.62308678E-02 -5.70085157E-02  1.76424497E-01  4.27382839E-01
 -2.10281202E-01 -2.48900845E-01 -8.71347276E-01 -3.93595733E+00  8.71718536E-01
  1.15918169E+00 -7.01138095E-01 -1.39439455E+00  2.52246193E-01  6.84449794E-02
 -1.49010087E-02  2.81996888E-02 -9.54097658E-02  4.60817794E-03  6.37879938E-02
 -1.62331012E-02 -2.97867502E-02 -1.25923615E-01  3.62263964E-02 -5.70079760E-02
  1.76425442E-01 -4.27387193E-01  2.10265209E-01 -2.48898618E-01 -8.71349662E-01
  3.93597224E+00 -8.71669782E-01  1.15925402E+00 -6.99849966E-01  1.39439721E+00
 -2.52560366E-01  6.85262053E-02 -1.49013094E-02 -2.81990103E-02  9.54106619E-02
  4.61033275E-03  6.37877751E-02 -5.05421839E-02  6.66341197E-01  2.66750464E+00
 -6.19774236E-02  8.36078210E-02  3.88374337E-02  8.88991313E-03 -8.27596350E-01
 -1.12267792E+00 -6.05229036E-02 -5.20412368E-02  4.00246962E-02  8.89250227E-03
 -8.27574201E-01 -1.12278712E+00  6.05234491E-02  5.20404699E-02  4.00250017E-02
 -5.05400760E-02  6.66377167E-01  2.66744132E+00  6.19769935E-02 -8.36085353E-02
  3.88386969E-02  2.25291473E-03  9.61170752E-04  1.68439000E-07 -1.80157000E-07
  2.54708144E-02  2.11668192E-02  5.82757000E-07 -1.26264700E-06 -1.35225491E-03
  2.09104176E+00  2.31610000E-08  5.57441100E-06  1.36950814E+00  3.63747939E-01
 -1.12954000E-07 -2.35645140E-05  3.61193972E-01 -1.05198090E-02 -3.09933000E-07
 -1.93157000E-07  3.16502440E-02 -6.46768802E-02 -2.54372048E-03 -4.73628331E-03
 -1.65307114E-02 -1.60308698E-02 -3.11954715E-03  2.56231018E-02  2.70513529E-04
 -5.24110129E-02  5.30846895E-03  2.44517526E-01 -3.15059654E-01  1.14736967E-01
 -1.44390119E-01 -6.97165648E-01 -8.20038885E-01  7.87431914E-01 -1.04008148E+00
  2.02149439E-03 -1.87491962E-02 -5.01650707E-03  6.88804644E-04  6.70180450E-03
 -2.54355115E-03 -4.73593277E-03  1.65300930E-02  1.60310594E-02 -3.11892579E-03
  2.56200152E-02 -2.71418700E-04  5.24113993E-02  5.31019045E-03  2.44543806E-01
  3.15054343E-01 -1.14735902E-01 -1.44403062E-01 -6.97060788E-01  8.20030201E-01
 -7.87445793E-01 -1.04010171E+00  2.02157626E-03  1.87489939E-02  5.01669901E-03
  6.88925833E-04  6.70193640E-03  8.23135335E-03  1.18041113E-02  9.18880000E-08
 -4.56280000E-07  5.63695962E-03  1.23259193E-02  2.01361000E-07 -7.83472000E-07
 -1.54905696E-02 -1.06069646E+00  2.22580000E-07 -7.43596000E-07  3.90949915E-01
  3.63216308E-01  1.39449000E-07  3.19919400E-06 -5.53370539E-01 -3.66549268E-03
 -1.09870000E-08 -4.17850000E-08  7.96644477E-03 -6.51022717E-03 -4.43686690E-03
 -1.02448081E-02  1.33754587E-02 -4.39900463E-02 -7.98422609E-02  9.00064719E-02
  4.15297329E-02 -1.45547683E-01 -2.03550941E-01  3.51304438E-01  9.98288691E-01
  1.33276850E-01  4.76480712E-01 -2.47971525E-02 -1.73552018E-01  3.27838721E-01
  2.02560345E-01  2.99769862E-02  1.18556046E-02  6.70630902E-02  1.64446388E-02
 -1.65875870E-02 -4.43652315E-03 -1.02441187E-02 -1.33752413E-02  4.39910084E-02
 -7.98423566E-02  9.00016152E-02 -4.15299002E-02  1.45550136E-01 -2.03550844E-01
  3.51306719E-01 -9.98290717E-01 -1.33272374E-01  4.76451919E-01 -2.49089363E-02
  1.73552574E-01 -3.27804115E-01  2.02567030E-01  2.99766871E-02 -1.18566632E-02
 -6.70630653E-02  1.64441849E-02 -1.65874998E-02 -1.53598003E-02 -4.89541085E-01
  6.26121649E-01 -2.32145363E-02 -3.87071616E-02 -2.74301225E-03 -8.88966972E-03
  3.45086561E-01  6.29838609E-01  4.02364087E-02  2.61481815E-02 -4.99758812E-02
 -8.89035471E-03  3.45087143E-01  6.29840170E-01 -4.02358025E-02 -2.61490552E-02
 -4.99754723E-02 -1.53600754E-02 -4.89551266E-01  6.26125115E-01  2.32143631E-02
  3.87073168E-02 -2.74277311E-03  5.93543458E-03  1.64734576E-02 -2.05000000E-08
  2.68834000E-07  2.60255779E-01 -3.01109051E-01 -3.80864000E-07  1.00419600E-06
  9.07926969E-01  2.52857572E+00  1.07735400E-06 -7.56678500E-06 -5.59394687E+00
 -1.93881936E-01  9.49520000E-08 -4.91773600E-06 -2.22581868E-01 -4.36855287E-02
  2.83280000E-07  1.04077000E-07 -1.14542410E-02  4.83248105E-02 -4.60293269E-03
 -1.02020506E-02  2.63377050E-02  3.28490773E-03  2.91867744E-02  1.02493010E-01
  5.83316589E-02 -1.08384393E-02  3.32839659E-02 -1.21209103E+00 -1.62022779E-01
  6.49704457E-01  1.18660917E-01 -3.88506770E+00 -2.48970479E-01  1.37861899E+00
  7.60004613E-02 -1.23553310E-02  1.09700062E-02  2.22930711E-02  1.48599818E-02
  7.06214893E-03 -4.60286689E-03 -1.02019623E-02 -2.63370683E-02 -3.28473476E-03
  2.91869460E-02  1.02493412E-01 -5.83303126E-02  1.08389310E-02  3.32838934E-02
 -1.21210640E+00  1.62023501E-01 -6.49706724E-01  1.18664836E-01 -3.88509341E+00
  2.48972439E-01 -1.37862511E+00  7.59901078E-02 -1.23552596E-02 -1.09698573E-02
 -2.22932591E-02  1.48600401E-02  7.06200528E-03  9.11710952E-03  1.62488357E-02
 -1.27939000E-07  3.26840000E-08  5.87601679E-02 -7.06267628E-02 -3.07474000E-07
 -4.89230000E-08  7.76447879E-02  1.02276454E+00 -1.27728000E-07  8.35586000E-07
  2.70993081E-01  4.45457698E+00 -1.99636800E-06  1.04138100E-06 -1.93290516E+00
  3.82427908E-02  2.34970000E-08  1.14950000E-08  4.38898569E-03  6.16553217E-03
  9.01275340E-05  1.61449547E-03  3.11048729E-02  2.61612079E-02  3.60852315E-02
 -8.49748488E-02  1.23163344E-01  6.63963836E-02  9.70307047E-02  5.32262789E-01
 -3.49096252E-01 -5.77636076E-01 -1.62503047E-01 -1.78465946E+00 -5.86446669E-02
 -1.42590852E+00  1.06270678E+00 -8.59712135E-03 -3.11565041E-02  7.24213917E-04
  8.30180546E-03  1.34301459E-02 -8.93201970E-05 -1.61285942E-03  3.11044842E-02
  2.61603536E-02 -3.60853686E-02  8.49600462E-02  1.23161977E-01  6.63950434E-02
 -9.70299299E-02 -5.32208634E-01 -3.49108154E-01 -5.77619896E-01  1.62503589E-01
  1.78470877E+00 -5.86469587E-02 -1.42591262E+00 -1.06269540E+00  8.59757515E-03
 -3.11564498E-02  7.23792558E-04 -8.30074374E-03 -1.34301414E-02  3.47118444E-03
 -1.32264316E-01  2.77826667E-01  3.51906980E-03  1.05142636E-02 -3.16172612E-02
  5.57908655E-03 -1.38728528E-01 -5.45429551E-01 -1.54348544E-02 -1.76771014E-02
  1.15873230E-02 -5.57862118E-03  1.38731166E-01  5.45410054E-01 -1.54339767E-02
 -1.76769067E-02 -1.15880158E-02 -3.47088660E-03  1.32257787E-01 -2.77844451E-01
  3.51801463E-03  1.05141667E-02  3.16168282E-02 -1.03342000E-07 -1.75056000E-07
  7.04570380E-02 -1.96832467E-01  8.48211000E-07  6.74859000E-07  2.91879394E-01
 -8.37941618E-01  1.92859500E-06 -6.37288000E-06 -1.95531676E+00  6.26636279E+00
 -1.97745400E-05 -3.53539630E-05 -4.38974787E-01  2.09890631E+00  1.27591140E-05
 -3.20638000E-07  2.24584501E-02  7.86974073E-03  1.07664000E-07  8.41150000E-08
 -2.86023716E-03 -5.80253115E-03  1.77193701E-02 -2.90281528E-02 -2.29772385E-02
  4.69912085E-02  3.13328249E-02 -4.00778055E-02 -1.70381451E-02 -1.09205054E+00
 -3.69904412E-02  2.13119739E-01 -5.48083577E-01 -5.78045899E+00 -2.80281576E-01
  2.39379445E+00 -2.43387572E+00  5.76092294E-03 -7.13657310E-05  2.15248552E-02
  1.64537086E-02  1.41633025E-02  2.86018056E-03  5.80240193E-03  1.77191297E-02
 -2.90282313E-02  2.29768034E-02 -4.69898015E-02  3.13321655E-02 -4.00780840E-02
  1.70365847E-02  1.09203955E+00 -3.69876959E-02  2.13116942E-01  5.48092402E-01
  5.78042255E+00 -2.80271651E-01  2.39378925E+00  2.43388945E+00 -5.76114155E-03
 -7.14103900E-05  2.15248659E-02 -1.64536356E-02 -1.41631944E-02  7.52930000E-08
  1.45960000E-07  2.05273990E-02 -5.80145742E-02  4.18289000E-07 -1.02126100E-06
  2.43807310E-02 -5.80942685E-02  6.75215000E-07  7.59150000E-06  1.87513976E-01
 -6.51821468E-01 -1.80596200E-06  2.20499260E-05  1.02426963E-01 -5.50031493E-01
 -1.10615690E-05  1.86822000E-07  6.28576517E-04 -9.25911175E-03 -3.73920000E-08
 -3.18920000E-08 -4.99610693E-02 -1.05138535E-01 -7.29402691E-03 -4.14755838E-02
 -2.06408091E-03  1.08002495E+00 -5.30273738E-02  5.66056317E-02  5.08189771E-02
 -3.53115057E+00  2.22922598E-01  9.10519106E-01 -4.19936823E-01 -2.89418577E+00
  2.59596343E-02 -9.17917812E-02 -7.29130965E-01  2.11895743E-02  2.31409278E-02
  5.91541151E-02 -9.72666236E-02 -8.88218419E-03 -4.99601814E-02 -1.05136745E-01
  7.29507952E-03  4.14758937E-02 -2.06384935E-03  1.08000703E+00  5.30271439E-02
 -5.66044591E-02  5.08208417E-02 -3.53106258E+00 -2.22940833E-01 -9.10539214E-01
 -4.19949654E-01 -2.89408563E+00 -2.59671040E-02  9.17579376E-02 -7.29152089E-01
  2.11903069E-02 -2.31385402E-02 -5.91542843E-02 -9.72665151E-02 -8.87747762E-03
 -1.10919447E-02  3.43160828E-01  8.90691133E-01 -6.15405400E-02 -7.37742822E-03
  6.04350604E-02  1.23594584E-03  4.76646234E-01  1.31670430E+00  9.07143646E-02
  4.68156424E-03 -4.00515961E-02  1.23661224E-03  4.76644336E-01  1.31669966E+00
 -9.07144441E-02 -4.67729341E-03 -4.00509562E-02 -1.10915919E-02  3.43151868E-01
  8.90653560E-01  6.15394819E-02  7.37446469E-03  6.04314974E-02  7.68572074E-02
  1.57050975E-01 -1.31306000E-07 -6.53303000E-07 -1.17061686E-01 -1.48711122E+00
  5.43460000E-08 -6.33525800E-06 -1.97298641E-01  6.78256961E+00 -1.54991700E-06
  3.27511260E-05  1.11289992E+00  4.36858412E+00  1.07141000E-07  1.00761620E-05
 -1.28931224E+00  1.03560949E-01 -1.54779000E-07  8.53094000E-07  7.96032097E-03
  3.76837776E-02 -3.13602678E-03 -5.38101736E-03  4.18399604E-03 -1.15652282E-02
  3.87338289E-02  2.24214416E-02  8.04735924E-03 -2.84596311E-02  1.31923003E-01
  6.53994359E-03  1.56388991E-02  2.71479930E-01 -8.97701586E-01  5.93397840E-01
 -2.09830384E-03  5.24434571E-01 -8.91880049E-01  3.70513805E-03 -4.60451802E-03
  2.26858914E-02  8.27007080E-03 -3.24067043E-03 -3.13597448E-03 -5.38091777E-03
 -4.18428289E-03  1.15654976E-02  3.87350059E-02  2.24209828E-02 -8.04832733E-03
  2.84608673E-02  1.31926562E-01  6.55001944E-03 -1.56380749E-02 -2.71482484E-01
 -8.97711362E-01  5.93490562E-01  2.06679505E-03 -5.24393604E-01 -8.91839551E-01
  3.70532451E-03  4.60420898E-03 -2.26857029E-02  8.26976178E-03 -3.24090977E-03
 -1.66712943E-02 -3.09020966E-02  8.39600000E-09 -6.00028000E-07 -8.54638816E-02
  1.98711803E-01  2.97200000E-08 -1.06056000E-06 -9.88990121E-02 -1.24857413E+00
  4.48069000E-07 -2.16747100E-06  4.16930320E-01 -2.87500202E+00  1.76750000E-07
  1.64431900E-06  1.47044970E+00 -5.88536192E-02 -6.10100000E-09 -1.17048000E-07
  1.60297976E-02  1.28202785E-02 -3.68901691E-02 -7.94143573E-02 -5.87793508E-03
 -3.00815240E-05  7.57322846E-03  1.04143834E+00 -8.24639539E-02 -4.51920486E-03
 -2.29583803E-03 -6.07510604E+00  2.40512872E-02 -1.12987593E+00 -5.30395308E-01
 -3.16632157E+00  7.12095228E-02 -6.63067284E-01 -1.89621230E-01 -5.04494702E-02
  1.98813736E-01 -1.83831058E-02  1.86229274E-02 -1.67653816E-01  3.68862253E-02
  7.94058109E-02 -5.87876710E-03 -3.07968400E-05 -7.56902094E-03 -1.04133892E+00
 -8.24635265E-02 -4.53689406E-03  2.30430797E-03  6.07473393E+00  2.41052716E-02
 -1.12988299E+00  5.30276591E-01  3.16660531E+00  7.12177700E-02 -6.63070910E-01
  1.89711659E-01  5.04449097E-02  1.98816124E-01 -1.83771956E-02 -1.86305100E-02
  1.67655412E-01 -8.76632262E-03  6.63558475E-01  4.71852587E-01 -2.63486432E-02
 -6.56462304E-02  1.65025956E-01 -1.22673224E-02  6.07658560E-01  4.66063277E-01
  2.74568639E-02  1.46233010E-01 -6.36189462E-02  1.22677225E-02 -6.07626145E-01
 -4.66116738E-01  2.74515846E-02  1.46237047E-01  6.36279470E-02  8.76738238E-03
 -6.63507933E-01 -4.71883903E-01 -2.63437210E-02 -6.56496449E-02 -1.65023268E-01
 -4.45395000E-06 -9.42939800E-06 -1.05165147E-02  1.84939983E-04  2.01068900E-06
  9.94729880E-05  1.62266599E-02 -1.67229929E-01  1.23413230E-05 -4.99298998E-04
 -1.42545646E-01 -1.17188496E-03 -6.92401080E-05 -4.10449158E-04  2.60806086E-01
 -7.10874846E-03  1.63516755E-04 -6.38583200E-06 -1.10186141E-01  8.48146506E-03
 -9.35872000E-07 -1.20763100E-06  1.09987874E-04 -7.72167779E-04 -9.71420935E-02
 -1.53225881E-02 -3.62622887E-02  2.98071112E-02 -2.78889386E-01 -3.19481113E-02
 -1.41725778E-01 -5.27221971E-01  4.41391946E-01  9.90889554E-02  8.60731087E-01
 -2.19966667E+00 -7.65261138E-01  5.95183555E-01 -6.75047456E-02 -1.56432233E-02
 -2.46023185E-02 -7.20399047E-03  1.79935963E-02 -7.91161267E-03 -1.09569336E-04
  7.73184071E-04 -9.71402085E-02 -1.53233993E-02  3.62634769E-02 -2.98205404E-02
 -2.78884156E-01 -3.19493588E-02  1.41732357E-01  5.27323036E-01  4.41361377E-01
  9.91389825E-02 -8.60757881E-01  2.20012783E+00 -7.65294624E-01  5.95311828E-01
  6.74430400E-02  1.56448315E-02 -2.46018130E-02 -7.20113136E-03 -1.79943289E-02
  7.91077051E-03 -1.34881000E-07 -2.83018000E-07  5.54143926E-02 -1.55706687E-02
  1.65162900E-06  1.32363000E-06  1.50920972E-01 -3.60509200E-02  4.88710000E-08
  6.31576180E-05 -1.60623701E-01  1.09197819E-01 -2.21165620E-05  2.36114802E-04
  1.32144573E-01  1.48518356E-01 -1.28492803E-04  3.14721600E-06  1.03280049E-02
 -4.44052017E-03 -2.55643000E-07 -6.83680000E-08  4.82263059E-02  1.05105265E-01
 -7.35360949E-03 -9.62018325E-04 -4.23466564E-02 -1.21333046E+00 -2.35095669E-02
 -1.94850700E-01 -1.31652944E-01  4.42124790E+00  5.70592420E-02 -2.34468819E-01
  1.37666177E+00 -2.34602226E+00  3.24493007E-02 -3.42213153E-02 -7.22588270E-01
  1.65386249E-02  7.38771132E-03  3.43993579E-02  9.89501731E-02 -7.28446996E-03
  4.82312708E-02  1.05116145E-01  7.35321748E-03  9.61585811E-04 -4.23476944E-02
 -1.21347837E+00  2.35072537E-02  1.94847456E-01 -1.31654410E-01  4.42210848E+00
 -5.70581695E-02  2.34307235E-01  1.37675569E+00 -2.34603179E+00 -3.24504094E-02
  3.42599659E-02 -7.22555642E-01  1.65415974E-02 -7.36868657E-03 -3.44021078E-02
  9.89490046E-02 -7.27179168E-03 -1.41873382E-02 -4.82829671E-01  4.04310039E-01
  5.86780074E-02 -3.25788312E-02 -1.86913728E-02 -1.07445398E-02 -5.97570398E-01
  2.88144401E-01 -7.99888630E-02  2.56698557E-02 -4.70496920E-02 -1.07434378E-02
 -5.97665826E-01  2.88120701E-01  7.99951496E-02 -2.56564999E-02 -4.70464703E-02
 -1.41871036E-02 -4.82921745E-01  4.04279733E-01 -5.86841617E-02  3.25756265E-02
 -1.87056638E-02  7.70997836E-02  1.62933621E-01 -4.89877000E-07 -1.53312000E-07
 -1.03169493E-02 -1.72208078E+00  1.67362300E-06 -3.71479200E-06 -1.94035144E-01
  9.00927781E+00 -1.10276010E-05 -1.90084100E-05  1.18821570E+00  7.48825211E+00
  2.99873900E-06 -6.50557300E-06 -3.13016013E+00  1.03430480E-01 -7.05973800E-06
 -1.97766300E-06  1.46345223E-02 -1.00911003E-04 -1.35013285E-03 -4.64626265E-03
  9.74306593E-03 -1.10495965E-02 -4.34599832E-03  9.73016576E-02  2.91448343E-02
 -2.41854636E-02 -4.34632476E-02 -9.72446453E-01 -2.85643360E-01  5.12725688E-01
  2.97436900E-01 -4.92183267E+00 -3.51066190E-01  1.17871031E+00  9.88134561E-01
 -1.43595358E-02  1.17887339E-03  2.21626906E-02  5.98718615E-03  1.06228904E-02
 -1.35040821E-03 -4.64658450E-03 -9.75218847E-03  1.10467379E-02 -4.34298376E-03
  9.72981161E-02 -2.91706326E-02  2.41783765E-02 -4.34503795E-02 -9.72361672E-01
  2.85679931E-01 -5.12697468E-01  2.97332981E-01 -4.92159318E+00  3.51007453E-01
 -1.17866510E+00  9.88084593E-01 -1.43574526E-02 -1.18092500E-03 -2.21638451E-02
  5.98493593E-03  1.06240600E-02  6.11725285E-03  1.17491523E-02  3.25100600E-06
 -3.61914000E-07 -2.12356680E-02 -6.16899273E-02  8.97050300E-06 -9.57969000E-07
  4.58288013E-03 -1.08194426E+00 -9.32014400E-06  7.17567300E-06  4.16960450E-01
 -4.39504600E+00  1.55195230E-05  3.21887200E-06  2.39852299E+00 -5.08146347E-02
  6.01293000E-07 -1.41304000E-07  3.00593635E-03 -1.52794540E-03  8.66906084E-03
  2.09390182E-02  4.01256843E-03  4.44599761E-02  5.68315789E-02 -1.87618658E-01
 -2.25628320E-02  1.30917536E-01 -1.79131275E-02  8.58001350E-01  3.91146397E-01
 -3.00874753E-01 -1.27943855E-01  2.38560357E+00 -6.53549008E-03 -6.26629108E-02
  8.65928484E-01 -1.32171992E-01 -5.04857766E-02 -2.12250515E-01  2.67962427E-02
  1.41283117E-03  8.66819018E-03  2.09371199E-02 -4.01255702E-03 -4.44594419E-02
  5.68314050E-02 -1.87591727E-01  2.25613349E-02 -1.30917021E-01 -1.79127565E-02
  8.57836614E-01 -3.91147103E-01  3.00902588E-01 -1.27970996E-01  2.38536609E+00
  6.53520278E-03  6.27166189E-02  8.65911087E-01 -1.32171968E-01  5.04860126E-02
  2.12251010E-01  2.67954121E-02  1.40873075E-03 -1.07814143E-02  2.92032826E-02
 -2.19061692E-01  9.08075671E-02  2.27856331E-02  5.46857419E-02  1.15490418E-02
  2.45052752E-01 -1.18613064E-01 -4.04687945E-02  2.76473633E-03  9.54155093E-02
  1.15483488E-02  2.45068157E-01 -1.18582428E-01  4.04653244E-02 -2.76688937E-03
  9.54173054E-02 -1.07819375E-02  2.92175965E-02 -2.19057666E-01 -9.08077181E-02
 -2.27855464E-02  5.46869573E-02  1.63857816E-02  1.74263404E-02  5.06910000E-08
  9.50710000E-08  1.87500113E-02  1.76276370E-02 -8.37992000E-07  4.35726000E-07
  4.34917787E-02  3.35038152E+00 -7.44870000E-07  5.00807000E-06 -2.76218701E+00
 -3.81649992E+00  7.10468200E-06  6.94799600E-06  1.03728908E+00 -4.62750873E-02
  1.13936200E-06  5.70353000E-07 -6.01189120E-02 -4.36569570E-02 -3.46911957E-03
 -9.49593557E-03 -3.60686160E-02 -1.09773785E-01  6.35449739E-02  1.35195136E-01
 -1.13796308E-01 -3.49623041E-01  2.49372554E-01 -1.05209250E+00  1.12430584E-01
  1.31740765E+00 -9.75576673E-01 -2.13553561E+00 -3.69388261E-01 -1.25770399E-01
  1.53022133E+00 -7.66297632E-03  1.72591593E-03 -3.03955269E-02  1.11345668E-02
  8.71863841E-03 -3.46911406E-03 -9.49597071E-03  3.60683655E-02  1.09773723E-01
  6.35446061E-02  1.35196530E-01  1.13795272E-01  3.49622452E-01  2.49370655E-01
 -1.05211092E+00 -1.12425513E-01 -1.31740915E+00 -9.75557142E-01 -2.13559823E+00
  3.69394197E-01  1.25759417E-01  1.53023636E+00 -7.66318752E-03 -1.72608317E-03
  3.03955645E-02  1.11348405E-02  8.71858786E-03 -1.49007300E-02 -3.02198406E-02
 -1.08149000E-07  3.84413000E-07 -6.02184885E-02  2.26102573E-01 -2.66812000E-07
  1.22891400E-06 -2.05367889E-01 -1.38151610E-02  3.16323000E-07 -3.59375100E-06
  5.69115749E-01  7.32988704E-01 -3.47179200E-06 -1.48898000E-07 -4.10106459E-01
  1.68702605E-02 -1.32776000E-07 -2.90820000E-08  1.47067085E-02  9.06750130E-03
  4.59688760E-02  1.04621603E-01 -9.60420459E-03  3.02689686E-02 -1.74759548E-03
 -1.45946152E+00 -1.39539676E-01  1.64841922E-01 -6.25507011E-02  8.02434542E+00
  4.92275000E-01  1.10516644E+00  7.29219259E-01  8.07484575E+00  8.25671456E-02
  1.34262088E+00  1.26168726E+00 -1.12181704E-01  8.34607573E-02  2.83024587E-02
  2.96759431E-02 -1.27977148E-01 -4.59673230E-02 -1.04618150E-01 -9.60354096E-03
  3.02692948E-02  1.74599130E-03  1.45942124E+00 -1.39540320E-01  1.64848854E-01
  6.25442520E-02 -8.02420497E+00  4.92216777E-01  1.10517417E+00 -7.29185101E-01
 -8.07490081E+00  8.25409297E-02  1.34261816E+00 -1.26170395E+00  1.12181541E-01
  8.34575483E-02  2.82976736E-02 -2.96737579E-02  1.27974532E-01 -2.02677908E-02
 -8.67295158E-01 -5.09373811E-01  1.32791109E-01 -6.05997442E-02  7.74623955E-02
  2.39735715E-02 -7.48937972E-01 -5.11438561E-01 -9.72077375E-02  1.36555588E-02
 -7.64878822E-02 -2.39749352E-02  7.48932942E-01  5.11466385E-01 -9.72062981E-02
  1.36514648E-02  7.64836663E-02  2.02673332E-02  8.67260403E-01  5.09376133E-01
  1.32789846E-01 -6.05937543E-02 -7.74594397E-02  7.23966000E-07  1.56642300E-06
 -2.61910307E-02  4.13658448E-02  2.09563000E-07 -1.77771580E-05 -1.09078671E-01
 -2.31894245E-01 -2.72357400E-06  1.00546980E-04  6.94550641E-01 -4.74613456E-01
  1.43944010E-05  9.58747840E-05  5.07618893E-01  7.71984565E-01 -4.65510670E-05
  5.17252000E-07  8.24790483E-02  2.06878359E-01 -1.11480400E-06  1.74705000E-07
 -4.87936040E-03 -6.54725268E-03 -4.53145893E-02  4.14081700E-02 -3.57817589E-02
 -4.85203108E-02 -1.46095324E-01  1.27968718E-01 -1.21938674E-01  1.00073726E+00
  4.73559238E-01 -7.08090860E-01 -3.26593590E-02  3.77195632E+00 -2.85978346E-01
 -2.57223588E-01 -1.69870501E+00  9.64620527E-03 -2.34134176E-02  1.17531925E-02
 -9.62914143E-03  1.12653861E-02  4.87947283E-03  6.54743359E-03 -4.53178731E-02
  4.14074262E-02  3.57825221E-02  4.85206637E-02 -1.46104687E-01  1.27965906E-01
  1.21940523E-01 -1.00075987E+00  4.73581681E-01 -7.08095792E-01  3.26631898E-02
 -3.77210355E+00 -2.85976939E-01 -2.57253660E-01  1.69875511E+00 -9.64608692E-03
 -2.34143640E-02  1.17527446E-02  9.62903143E-03 -1.12652279E-02  1.99288000E-07
  3.80576000E-07 -4.50237271E-02  1.38407494E-02  1.04731000E-07 -2.43098900E-06
 -1.32675837E-01  4.70013725E-02  7.40112000E-07 -8.97222900E-06  1.55029198E-01
 -9.74802019E-02  2.36015000E-06 -5.90819970E-05 -5.33438063E-01  2.68631283E-01
  3.49016070E-05 -4.82201000E-07 -6.94267846E-03 -8.74090560E-03 -6.15490000E-08
 -9.16750000E-08  3.43342506E-04  1.71984890E-03  1.99009562E-02 -1.74033692E-02
 -1.65390341E-02 -8.78553722E-03  1.27394910E-01 -9.55969272E-04 -9.13255986E-02
 -3.22287475E-01  4.88850906E-01  5.41289442E-02 -1.31004049E-01 -8.42602128E-01
 -7.55693339E-01 -1.74977548E-01 -2.69553755E-01  1.83001715E-02  1.35202919E-02
  9.91039956E-02  9.57128677E-03  1.03208830E-02  3.42862278E-04  1.71875414E-03
 -1.99004975E-02  1.74043794E-02 -1.65397947E-02 -8.76713048E-03 -1.27396573E-01
  9.58462147E-04 -9.13247125E-02 -3.22407481E-01 -4.88846925E-01 -5.41040573E-02
 -1.31028314E-01 -8.42758053E-01  7.55688953E-01  1.75004511E-01 -2.69574918E-01
  1.83025078E-02 -1.35193094E-02 -9.91024658E-02  9.56989712E-03  1.03227879E-02
 -3.97563849E-03 -3.43028653E-01  2.50716780E-01  7.19691701E-03  2.37727286E-02
 -4.95676918E-02 -2.76997358E-03  2.57092337E-01 -5.61767813E-03  5.13470823E-02
 -3.73546482E-02  2.65891759E-02 -2.77107191E-03  2.57101265E-01 -5.60319595E-03
 -5.13486125E-02  3.73542697E-02  2.65932257E-02 -3.97550313E-03 -3.43019602E-01
  2.50722087E-01 -7.19460726E-03 -2.37744464E-02 -4.95680447E-02  1.73376668E-03
  1.05228193E-02  2.85740000E-08  2.44794000E-07  6.95485286E-03 -1.54183921E-01
 -6.87758000E-07 -2.35884300E-06  1.27091614E-01 -1.22038920E+00  6.16580900E-06
  1.14945600E-06  7.13711547E-01  8.61660222E-01  6.37721100E-06  5.56020700E-06
 -2.23507379E-01  1.83625006E-02  1.63943100E-06  1.98244800E-06 -8.50708037E-02
  2.75595929E-01  1.44765730E-03  5.06517315E-03 -1.72426140E-01 -1.90468972E-03
 -1.60896876E-02 -9.28465062E-02 -5.51200128E-01  6.82504342E-03 -6.25076687E-02
  4.68858456E-01  1.29149635E+00 -3.08873565E-01  2.46439550E-01  1.02275137E+00
 -8.33560335E-01 -2.10103854E-01 -3.95563974E-01 -1.10732886E-03  3.70493387E-02
  2.46391087E-02  1.32115806E-03 -5.33955332E-03  1.44778455E-03  5.06535153E-03
  1.72426263E-01  1.90570507E-03 -1.60896395E-02 -9.28457484E-02  5.51200073E-01
 -6.82121022E-03 -6.25080272E-02  4.68838440E-01 -1.29149211E+00  3.08857025E-01
  2.46447944E-01  1.02270813E+00  8.33553240E-01  2.10108566E-01 -3.95546015E-01
 -1.10725891E-03 -3.70497017E-02 -2.46391985E-02  1.32106562E-03 -5.34011180E-03
  3.72324349E-03  7.79332431E-03 -1.20696800E-06  1.33230000E-07  1.92032731E-02
 -5.84929404E-02 -3.61012200E-06  5.72513000E-07  7.53452643E-02  6.34892623E-03
  5.92313300E-06 -2.26576100E-06 -1.50396586E-01 -1.38398340E-01 -7.79848000E-06
  1.20983800E-06  9.49472933E-02 -7.13767014E-03 -1.03334000E-07 -1.20473000E-07
 -1.50861877E-02  1.61012785E-02 -1.84835528E-02 -4.15321652E-02  1.57984148E-02
 -8.62371634E-04 -4.67441477E-03  5.63129868E-01  5.08810731E-02  3.48021982E-02
  3.57183042E-02 -3.07037825E+00  5.56440117E-02 -4.61946283E-01 -3.40609166E-01
 -3.56856301E+00 -2.40619205E-01 -1.03557072E+00  2.35400686E-01 -9.19423610E-03
  1.05887099E-01  1.81221139E-02  3.69945768E-03 -1.05080826E-01  1.84841632E-02
  4.15335031E-02  1.57980286E-02 -8.63156653E-04  4.67495440E-03 -5.63144733E-01
  5.08838500E-02  3.48032325E-02 -3.57218236E-02  3.07041906E+00  5.56779482E-02
 -4.61940086E-01  3.40621459E-01  3.56863449E+00 -2.40620145E-01 -1.03557332E+00
 -2.35377143E-01  9.19279779E-03  1.05889521E-01  1.81240369E-02 -3.69930564E-03
  1.05082942E-01 -1.31452865E-02  2.25411796E-01  4.72052484E-01  2.14452525E-02
 -1.54395344E-02  7.91470595E-02  8.76116201E-03  4.73411673E-01  1.94848177E-01
  5.06276523E-02  3.42588817E-02 -7.45179140E-02 -8.76089952E-03 -4.73425997E-01
 -1.94876165E-01  5.06299319E-02  3.42605400E-02  7.45200110E-02  1.31453752E-02
 -2.25404904E-01 -4.72055339E-01  2.14454215E-02 -1.54409166E-02 -7.91481497E-02
 -1.57448000E-07 -3.98494000E-07  3.57799259E-02  1.83188015E-02  8.30252000E-07
  4.99036700E-06  6.16167704E-02 -1.27843639E-01 -1.74938900E-06 -1.27037300E-05
 -1.50450526E-01 -1.99844751E-01 -5.30667600E-06 -5.29134460E-05  4.03133077E-01
  1.10623483E-02  1.66323580E-05 -8.71160000E-07 -7.16963273E-02  6.84638436E-02
  7.15156000E-07 -3.50674000E-06  2.97212441E-03  6.32459070E-03  8.41943861E-02
  4.96217119E-02 -1.73826787E-03 -5.95852350E-02  2.80026118E-01  1.86341419E-01
 -1.09188712E-02 -8.74800967E-02 -6.54900750E-01 -5.26566900E-01  3.61913100E-01
 -1.15888682E+00  2.39756172E-01  7.58008036E-01  7.54909462E-02 -8.46118062E-03
 -1.68358171E-02 -1.02330316E-02  2.14789251E-02 -7.07795858E-04 -2.97182491E-03
 -6.32402740E-03  8.41933203E-02  4.96225673E-02  1.73886788E-03  5.95819487E-02
  2.80022611E-01  1.86344401E-01  1.09213886E-02  8.74785229E-02 -6.54890740E-01
 -5.26578227E-01 -3.61919169E-01  1.15886251E+00  2.39750051E-01  7.58015417E-01
 -7.54686570E-02  8.46113213E-03 -1.68347036E-02 -1.02323140E-02 -2.14791420E-02
  7.08150021E-04  7.07210000E-08  1.26480000E-07 -1.87384883E-01 -4.94635277E-02
  6.54851000E-07 -9.53758000E-07 -5.96427860E-01 -1.52660006E-01  1.28940200E-06
  4.23796100E-06  1.31970899E+00  3.41137043E-01 -5.30977600E-06  9.03884600E-06
 -9.46094928E-01 -1.15525411E-01 -3.33183400E-06  2.34847000E-07  1.26646762E-02
 -1.31457240E-05  1.01456000E-07 -2.22596000E-07  6.42634922E-03  1.65761529E-02
 -3.25333073E-03 -2.37579500E-03 -9.81389152E-03 -1.40453926E-01 -1.31997984E-01
  3.40957141E-02 -2.81920732E-01 -6.27199948E-01  9.03270022E-02  2.85203752E-02
 -2.19060705E-01  1.91052157E-01 -8.09108545E-02  1.79406510E-01  5.05857509E-02
 -1.14188388E-01 -1.12173691E-01 -4.88059999E-02  1.07755449E-02  9.78683543E-02
  6.42278060E-03  1.65675377E-02  3.24640578E-03  2.37540797E-03 -9.81568363E-03
 -1.40340057E-01  1.31978031E-01 -3.41284064E-02 -2.81865666E-01 -6.27639224E-01
 -9.03330156E-02 -2.85092778E-02 -2.19164454E-01  1.90317225E-01  8.08995788E-02
 -1.79196110E-01  5.05899618E-02 -1.14164735E-01  1.12189845E-01  4.88062471E-02
  1.07575942E-02  9.78517390E-02 -1.99621098E-02 -5.18041085E-02  1.05829695E-01
  7.93839157E-02  1.07468782E-01 -2.79151931E-03  1.25169087E-02 -4.83346927E-02
  1.65538387E-01  1.41755013E-02 -1.73722203E-01  9.57884443E-02  1.25128542E-02
 -4.82096014E-02  1.65545637E-01 -1.41874185E-02  1.73720866E-01  9.57873018E-02
 -1.99630951E-02 -5.17635442E-02  1.05831848E-01 -7.93830870E-02 -1.07494770E-01
 -2.79236183E-03  9.01467692E-03  1.83770111E-02  8.81518000E-07 -8.30075900E-06
 -9.21832825E-03 -1.20539727E-02 -2.95872520E-05  3.17502760E-05  3.37439033E-01
  2.26026500E-01 -5.49812790E-05  1.86181156E-04  4.19699913E+00 -1.16989008E+00
  5.46396560E-05  1.94541589E-04  1.15282754E+00 -4.14936287E-02  6.91644800E-06
 -3.20188800E-05  1.31401647E-01 -2.03237380E-02 -2.00606799E-02 -3.37982904E-02
 -1.56709802E-03  1.01081492E-01  6.19089800E-02  9.07715644E-02 -2.82670813E-02
  3.80403102E-01  2.68660780E-01  8.97915269E-01  3.38380722E-01 -1.60843510E+00
 -9.60982982E-01  2.82082590E+00  1.01342609E-01 -1.24461768E-01  5.16762371E-01
 -1.20151242E-02 -8.87276267E-03 -2.14399647E-02  1.83437266E-02  1.47494275E-02
 -2.00638901E-02 -3.38034536E-02  1.56068636E-03 -1.01117899E-01  6.19106162E-02
  9.07771938E-02  2.82498482E-02 -3.80543667E-01  2.68670483E-01  8.97994541E-01
 -3.38359906E-01  1.60889856E+00 -9.60901992E-01  2.82095197E+00 -1.01362391E-01
  1.24160862E-01  5.16972054E-01 -1.20143230E-02  8.86796515E-03  2.14437257E-02
  1.83546928E-02  1.47532027E-02  1.96088601E-02  3.31702050E-02 -1.57965620E-05
 -7.85264800E-06 -6.09113255E-02 -9.97835097E-02 -5.34162940E-05 -2.53816750E-05
 -2.45171144E-01 -1.55617280E+00  1.30735428E-04  5.18885790E-05  1.40201667E+00
 -4.11055697E+00 -9.00418740E-05 -9.52208560E-05  7.58231581E-01 -5.46576556E-03
  2.01813300E-06  8.71299000E-07  8.72292785E-03 -1.53775387E-03 -1.15396520E-02
 -2.83510665E-02  2.28706908E-02 -1.15321725E-04 -7.10083248E-03  3.60159112E-01
  6.31267897E-02  1.00554215E-01  2.10049112E-01 -1.14050410E+00  6.13085847E-03
  5.37480929E-02 -2.68190141E-01 -2.59414358E+00  2.97926022E-02 -7.43824374E-01
  8.20388695E-03  9.70790231E-02 -5.08965537E-02  3.63807128E-03 -6.51409119E-02
 -4.48982188E-02  1.15416469E-02  2.83561975E-02  2.28718262E-02 -1.14746078E-04
  7.09826201E-03 -3.60203652E-01  6.31657507E-02  1.00544936E-01 -2.10131743E-01
  1.14032247E+00  6.12206997E-03  5.37359394E-02  2.68131189E-01  2.59420846E+00
  2.98146755E-02 -7.43876733E-01 -8.18701154E-03 -9.71129462E-02 -5.08648883E-02
  3.65340361E-03  6.51438420E-02  4.49264122E-02 -3.88134940E-03  1.15784388E-01
  1.63964405E-02 -4.07984853E-03  9.16885670E-02 -4.57382148E-03 -1.08109783E-02
  3.77033604E-01  2.04879868E-03  3.93310345E-02  2.87239261E-04 -1.18700589E-02
  1.08142180E-02 -3.77053866E-01 -2.00551023E-03  3.93287495E-02  3.36290381E-04
  1.18992396E-02  3.87593448E-03 -1.15792645E-01 -1.63671038E-02 -4.10100404E-03
  9.16587533E-02  4.57276307E-03  1.24600200E-06  2.48602400E-06 -6.29018544E-03
  5.62850967E-02 -1.32953900E-06  1.16216400E-06  1.92591849E-01 -2.18637938E-01
  4.80971790E-05  3.22204210E-05  3.85964134E-01 -1.14864739E+00  6.21210786E-04
 -1.77429071E-04 -3.10257067E-01 -1.36897887E+00  1.74342677E-04 -6.13821600E-06
 -3.12318092E-02  2.17926239E-01  1.93141260E-05 -3.69795000E-06 -1.18724844E-02
 -1.90849705E-02  1.79194659E-02  1.26956517E-01  1.06794325E-02  2.21793320E-02
  4.28833771E-02  4.92643848E-01  5.85873265E-02  3.01593699E-01 -2.33927594E-02
 -1.61872956E+00  1.31118719E-01  4.43626966E-01  2.76591970E-02  1.06084112E+00
  7.56124220E-01  3.19504019E-03  1.61346546E-02 -1.56402967E-02  3.76244767E-02
  1.54514522E-02  1.18665343E-02  1.90749062E-02  1.79200311E-02  1.26927387E-01
 -1.06613565E-02 -2.21510804E-02  4.28918023E-02  4.92533938E-01 -5.85084954E-02
 -3.01334406E-01 -2.34908561E-02 -1.61826257E+00 -1.31401677E-01 -4.42792784E-01
  2.76263039E-02  1.06088062E+00 -7.55975443E-01 -3.19868015E-03  1.61375618E-02
 -1.56336420E-02 -3.76190879E-02 -1.54470775E-02  2.93283700E-06  4.96573400E-06
  1.03436564E-01  5.14240250E-02 -9.09083100E-06 -1.51579960E-05  3.50614140E-01
  1.68121827E-01 -3.68428020E-05 -2.29457138E-04 -8.62052666E-01 -3.68163567E-01
  2.08235936E-04 -6.07119453E-04  5.88739422E-01  6.30434020E-01  1.09689619E-04
 -7.09692000E-07 -1.52369919E-02 -5.17389830E-03  1.29960800E-06 -2.69146000E-07
  1.02122925E-03 -3.96283711E-03 -2.83856411E-03 -1.34097877E-02 -1.13244448E-02
 -3.66446979E-02  6.62810710E-04 -5.18288619E-02  3.29524732E-01  2.47170974E+00
  2.42256177E-02  3.05774459E-01  8.65029820E-01  2.82578267E+00 -1.24567353E-01
  5.80360151E-01  1.30845929E-01  1.95260036E-01  2.78105928E-02  5.56021203E-02
 -3.17217708E-02  3.82721236E-02 -1.02150444E-03  3.96212150E-03 -2.83766942E-03
 -1.34091911E-02  1.13245998E-02  3.66520104E-02  6.61617091E-04 -5.18274523E-02
 -3.29513129E-01 -2.47168020E+00  2.41413948E-02  3.05777061E-01 -8.65027484E-01
 -2.82587448E+00 -1.24596446E-01  5.80370645E-01 -1.30878010E-01 -1.95252255E-01
  2.78101642E-02  5.56039487E-02  3.17189121E-02 -3.82699600E-02 -8.49813132E-04
 -8.65073655E-02 -2.13609867E-01 -5.14071218E-02 -3.09230900E-06 -3.00307921E-02
  2.77240784E-02 -2.01357705E-01 -5.15111052E-01  1.84323887E-02 -6.18469198E-02
 -5.34451186E-02 -2.77237036E-02  2.01377285E-01  5.15161516E-01  1.84276613E-02
 -6.18431675E-02  5.34485085E-02  8.48959601E-04  8.64931959E-02  2.13583248E-01
 -5.14072527E-02 -7.81827000E-06  3.00272194E-02  2.87348000E-07  7.67763000E-07
 -1.98613875E-02 -6.06288651E-03 -2.32832000E-07 -1.32369420E-05 -1.93953713E-01
 -2.82984509E-02 -2.96728400E-06  1.56820940E-05 -4.37059950E-01  1.52420437E+00
 -9.95095130E-05  9.81231910E-05  9.46963172E-01 -2.02551174E-02 -5.92725350E-05
  2.51131000E-07  1.44684865E-01 -7.60311153E-02  9.77539000E-07 -1.38694200E-06
 -8.38665382E-03 -1.29174792E-02 -9.13320051E-02  2.67056712E-02  7.06044339E-02
  1.43291873E-02 -3.55454276E-01  1.38791395E-01  3.46814888E-01  1.74166669E-01
  1.03755368E+00 -2.98936852E-01 -1.76891681E+00  1.56792450E-01 -7.07407151E-01
  4.80249245E-01  4.66681036E-01 -3.65047597E-03  2.01123494E-02 -3.51260363E-02
  3.54661622E-03  4.27663045E-02  8.38739794E-03  1.29187690E-02 -9.13330733E-02
  2.67077702E-02 -7.06064684E-02 -1.43335947E-02 -3.55458178E-01  1.38799617E-01
 -3.46825068E-01 -1.74202923E-01  1.03757052E+00 -2.98982563E-01  1.76896211E+00
 -1.56943276E-01 -7.07409713E-01  4.80220028E-01 -4.66702458E-01  3.65056031E-03
  2.01133420E-02 -3.51268294E-02 -3.54675012E-03 -4.27665489E-02 -5.36956000E-07
 -9.21976000E-07 -7.38712110E-02 -7.19314218E-02  1.23815100E-06  3.28871000E-06
 -2.60804042E-01 -2.25839867E-01  5.98798800E-06  3.39691520E-05  6.71605048E-01
  3.02027548E-01 -3.34626770E-05  8.98258490E-05 -5.71196245E-01 -6.02356349E-01
 -8.50000000E-06 -2.04975000E-07  3.45853835E-03  2.25922035E-02 -3.66200000E-08
 -7.44160000E-08 -5.56201517E-03 -1.57454504E-02  4.68438300E-04 -1.27328399E-02
  5.17417697E-03  1.50408482E-01 -7.23167570E-02 -3.27560842E-02  2.04143843E-01
  7.11682872E-01  1.40482678E+00 -1.96129651E-01  1.77580633E-01 -1.06693167E+00
  2.75304191E-01  5.95343089E-03 -3.86789628E-01  1.38746079E-01 -9.93894417E-02
 -1.67898039E-01 -3.26826455E-02  1.87266568E-01 -5.55798461E-03 -1.57371334E-02
 -4.70352530E-04  1.27346563E-02  5.17240277E-03  1.50299778E-01  7.23122085E-02
  3.27585876E-02  2.04147389E-01  7.12406081E-01 -1.40492586E+00  1.96059831E-01
  1.77667481E-01 -1.06440058E+00 -2.75341263E-01 -6.47211491E-03 -3.86485272E-01
  1.38742362E-01  9.93539199E-02  1.67886054E-01 -3.26702421E-02  1.87225997E-01
 -2.10695039E-02 -2.56971953E-01 -4.65937951E-01  8.29380981E-02  2.53772425E-01
 -6.06281477E-02  2.97882858E-02  3.01913952E-01  5.18993581E-01  9.27461161E-02
 -2.38870538E-01  7.56244579E-02  2.97904950E-02  3.01893556E-01  5.18901239E-01
 -9.27493042E-02  2.38867409E-01  7.55896354E-02 -2.10650012E-02 -2.57062095E-01
 -4.66117114E-01 -8.29631509E-02 -2.53750548E-01 -6.06001028E-02  1.72591669E-02
  4.31926324E-02 -1.02259200E-06 -4.59359600E-06 -3.88614708E-02 -5.60605283E-01
 -8.12919500E-06 -1.28899240E-05  1.53036150E-01  7.07925070E-01 -9.78914930E-05
  9.99617320E-05 -2.98886746E+00  2.85863703E+00  1.12086318E-04 -2.76010014E-04
 -1.40890415E+00  1.05520658E-01 -3.84964390E-05  3.86175530E-05  1.87866938E-01
 -1.18112536E-01  1.74232851E-02  3.19922462E-02  1.00589496E-02 -1.41765887E-02
 -5.37032274E-02 -1.72097934E-01  2.85036272E-02 -6.86739367E-02 -2.72708301E-01
 -4.11752434E-01 -7.44681992E-02  4.66687039E-01  1.21334145E+00 -2.70293177E+00
  1.88570884E-02  6.15609559E-01 -6.49852418E-01 -2.59564395E-03 -4.23448278E-02
  2.03201095E-02 -1.33913378E-03  1.29568282E-02  1.74232272E-02  3.19922186E-02
 -1.00788467E-02  1.41718213E-02 -5.36912067E-02 -1.72095360E-01 -2.85726426E-02
  6.86607595E-02 -2.72665798E-01 -4.11670569E-01  7.46613585E-02 -4.66700107E-01
  1.21316218E+00 -2.70223397E+00 -1.90037522E-02 -6.15387870E-01 -6.49859777E-01
 -2.59731326E-03  4.23494378E-02 -2.03148688E-02 -1.34098294E-03  1.29549810E-02
 -1.98835425E-02 -3.48996391E-02 -1.85589340E-05  3.62568210E-05 -1.07227557E-02
  1.73167763E-01 -6.85331740E-05  1.24086084E-04  7.31495204E-02  7.23539669E-01
  2.05594621E-04 -3.27879676E-04 -4.68640109E-01  2.80703751E+00 -1.38092440E-04
  2.86135418E-04 -6.76264510E-01 -1.32833806E-02  7.67450600E-06 -7.87940000E-06
 -1.68134917E-04 -1.22895073E-02  1.14620570E-02  2.44514605E-02  5.07220316E-03
 -2.74370508E-03 -3.28846741E-03 -3.27413633E-01  8.85725224E-03 -4.20503814E-03
 -1.96757968E-02  2.04477048E+00  2.76396249E-01  3.01565922E-01  2.45419765E-01
  6.62371152E+00  1.04363011E-01  1.37523316E+00  7.99569847E-01 -2.46674276E-02
  9.58669689E-02  3.17288017E-02  3.38612855E-02 -1.13363693E-01 -1.14637071E-02
 -2.44564757E-02  5.07236490E-03 -2.73853718E-03  3.28990835E-03  3.27460055E-01
  8.88853488E-03 -4.19012456E-03  1.97490106E-02 -2.04445666E+00  2.75805500E-01
  3.01642415E-01 -2.45341610E-01 -6.62417975E+00  1.04240301E-01  1.37523591E+00
 -7.99735313E-01  2.47209146E-02  9.59082975E-02  3.17945501E-02 -3.38733149E-02
  1.13440476E-01  1.24719611E-02 -2.53272016E-01 -4.43064483E-01  6.81633524E-02
 -5.50780532E-02  7.14031593E-02  5.91490048E-03 -6.76311204E-02 -2.02296929E-01
  2.88362705E-03  1.30903325E-02 -8.79951640E-02 -5.90295300E-03  6.77535220E-02
  2.02524514E-01  2.84637225E-03  1.31885309E-02  8.80266652E-02 -1.24808737E-02
  2.53159636E-01  4.42880890E-01  6.81294001E-02 -5.51813777E-02 -7.14294992E-02
  3.53753800E-06  8.91214600E-06  6.03626736E-03  2.46750660E-02 -5.90996700E-06
 -1.18223965E-04  5.05711053E-02  5.98163211E-02  2.58630110E-05  1.22680100E-04
  5.56990333E-01 -6.22866594E-01 -6.35991724E-04  6.09610049E-04 -6.29559258E-01
  1.38187598E+00 -3.28228693E-04  1.62340390E-05  2.06123660E-01 -1.72667811E-01
  3.64855060E-05 -2.42011000E-05 -1.45548456E-04 -1.20629052E-04  5.50227586E-02
  1.16299335E-02  2.39242084E-02  6.75378011E-03  1.91921122E-01  2.82942539E-02
  7.81810235E-02  2.60299147E-01 -5.26486351E-01  1.94723227E-02 -3.41733943E-01
  1.89794560E+00  3.94169417E-01 -6.15159960E-01 -6.74556876E-02 -2.34402726E-03
 -1.47096463E-02 -1.04669907E-02 -6.50019961E-03 -5.68977401E-03  1.52642477E-04
  1.33706093E-04  5.50184114E-02  1.16361271E-02 -2.39440814E-02 -6.82518845E-03
  1.91909245E-01  2.83230121E-02 -7.82836001E-02 -2.60464987E-01 -5.26455301E-01
  1.92761059E-02  3.42201491E-01 -1.89908996E+00  3.94166748E-01 -6.15415751E-01
  6.72282342E-02  2.34311924E-03 -1.46930508E-02 -1.04747921E-02  6.49975613E-03
  5.69512474E-03 -4.11984900E-06 -7.22075500E-06  9.81629068E-02 -1.72955351E-01
  6.23777000E-07  3.42737780E-05  3.64625381E-01 -5.93038844E-01  2.24671900E-05
  1.67849830E-04 -1.10707904E+00  1.58461499E+00 -1.31499328E-04  6.02045720E-04
  7.37244072E-01 -1.36728716E+00 -1.19697736E-04 -2.47405500E-06 -4.17495100E-02
  3.66384960E-02  7.81000000E-09 -2.38661500E-06  1.60451611E-03  3.06862167E-03
  3.63477410E-04  5.49500573E-04 -9.56914264E-03  2.01835625E-02 -4.50954187E-02
  1.82103315E-02 -1.24826045E-01 -3.06977396E-01  3.07995865E-01 -2.21492117E-02
 -2.58651360E-01 -1.45151079E+00  4.92566853E-02 -1.46002806E-01 -3.54837071E-01
 -5.30891673E-02 -5.27379414E-02 -3.87724614E-02  2.79806656E-02  3.10079364E-02
  1.60477397E-03  3.06917758E-03 -3.63063876E-04 -5.49475093E-04 -9.56882925E-03
  2.01794178E-02  4.50966374E-02 -1.82130829E-02 -1.24827123E-01 -3.06975662E-01
 -3.08006703E-01  2.21594518E-02 -2.58667238E-01 -1.45122806E+00 -4.92638892E-02
  1.45951782E-01 -3.54791093E-01 -5.30906672E-02  5.27373743E-02  3.87725336E-02
  2.79806241E-02  3.10070065E-02 -5.99301425E-03 -5.62318171E-02  2.01891944E-01
  1.29633945E-02  4.18158709E-02 -1.89269111E-02  5.69271698E-03  1.28339166E-01
  2.94400452E-01 -2.42012216E-03 -5.55249366E-02  6.54118390E-02  5.69293415E-03
  1.28344398E-01  2.94392955E-01  2.42012168E-03  5.55237476E-02  6.54128802E-02
 -5.99325714E-03 -5.62319339E-02  2.01864520E-01 -1.29635439E-02 -4.18167658E-02
 -1.89273701E-02  2.43044488E-03  1.28194134E-02  3.71001000E-07 -8.23333000E-07
  1.14790464E-01 -3.85396367E-01 -4.25187000E-07  2.05548100E-06 -2.94302560E-01
 -3.01536101E+00 -1.31039890E-05  4.60830890E-05 -3.80663129E+00  1.40073313E+00
 -2.22229600E-06 -3.12501270E-05 -2.96734377E+00 -3.71734481E-01 -1.35662000E-07
  2.81236900E-06 -3.27815086E-02  2.25430408E-03 -1.12150276E-02 -2.12069555E-02
  9.30162571E-03  2.75362339E-03  4.56827818E-02  1.36110566E-01  2.04252958E-02
  2.64430847E-02  1.84089009E-01 -2.74708712E-01 -4.58473654E-02  1.10561029E-01
 -5.62534526E-01 -8.43811566E-01 -2.21634234E-02  3.59510315E-01  6.32232441E-01
  3.90881897E-03  6.39244349E-03 -1.48879192E-02  1.55025148E-02  5.83122024E-03
 -1.12153343E-02 -2.12075349E-02 -9.30130914E-03 -2.75496747E-03  4.56826404E-02
  1.36114365E-01 -2.04243006E-02 -2.64479309E-02  1.84086925E-01 -2.74702768E-01
  4.58448570E-02 -1.10545559E-01 -5.62512031E-01 -8.43702647E-01  2.21540822E-02
 -3.59490327E-01  6.32234736E-01  3.90907930E-03 -6.39245608E-03  1.48879303E-02
  1.55025877E-02  5.83114614E-03 -2.51665886E-02 -4.52602995E-02 -2.24792000E-07
  4.27975400E-06  2.12535532E-01  1.40033722E-01 -9.56259000E-07  1.51621680E-05
  6.14906297E-01  2.00335488E+00  2.50521300E-06 -4.46256230E-05 -3.12953717E+00
  4.75321853E+00 -7.94656000E-07  3.22326900E-05  5.64210915E-01  1.30442156E-02
  9.43150000E-08 -9.94103000E-07  7.83710210E-03  6.42365286E-03 -1.40733571E-03
 -5.94183243E-03  2.09114426E-02 -1.14117640E-02 -1.85010324E-02 -3.37949864E-02
  7.74945587E-02 -1.04195065E-01  1.45163315E-01  1.63837317E+00  2.32156046E-01
  2.34175378E-01  7.06873577E-01 -6.15367315E+00 -6.94113459E-02 -1.12394198E+00
 -1.17783953E+00  8.57821734E-02  1.66440362E-01  6.69871300E-02  2.59274306E-02
 -2.00709104E-01  1.40790333E-03  5.94320825E-03  2.09114906E-02 -1.14118699E-02
  1.85003892E-02  3.37781587E-02  7.74923938E-02 -1.04193083E-01 -1.45167590E-01
 -1.63834584E+00  2.32149722E-01  2.34162331E-01 -7.06853357E-01  6.15371365E+00
 -6.94167905E-02 -1.12393516E+00  1.17785206E+00 -8.57797773E-02  1.66439473E-01
  6.69755792E-02 -2.59296704E-02  2.00708846E-01  1.72164719E-02 -3.55143747E-01
  3.05410942E-01  3.62973532E-02 -1.09358417E-01  8.81792032E-02 -1.66471057E-02
 -9.41597887E-02  1.85062477E-01  3.26044911E-02 -2.32646584E-02 -1.20223639E-01
  1.66470987E-02  9.41574963E-02 -1.85056677E-01  3.26026558E-02 -2.32646530E-02
  1.20222471E-01 -1.72166882E-02  3.55139207E-01 -3.05411583E-01  3.63000490E-02
 -1.09358051E-01 -8.81845965E-02 -2.74932000E-07 -7.47158000E-07  3.22111751E-02
 -4.04875355E-02 -1.25421000E-07  1.10237150E-05 -2.77131375E-02  2.35960014E-01
 -1.69382000E-06  5.96582710E-05 -6.58528252E-01  3.78518414E+00  8.00294530E-05
 -4.29601200E-06 -2.53381264E-01 -1.07060930E+00  3.87673390E-05  4.81007400E-06
  2.98288069E-01 -1.21314895E-02 -2.61850600E-06 -2.80536000E-07  1.04971537E-02
  2.03684112E-02  4.37143315E-02 -3.31372764E-02  5.23599144E-02 -1.34084702E-01
  1.40876680E-01 -1.21967184E-01  2.79368062E-01 -2.03260073E-01 -3.93819363E-01
  6.56299026E-01 -1.83304114E+00 -3.07445587E+00 -1.40591972E-01  5.28660908E-01
 -7.54515885E-02 -2.33756822E-02 -1.46951270E-02 -2.38884501E-02 -7.62274254E-03
  1.40355055E-02 -1.04962080E-02 -2.03665626E-02  4.37133051E-02 -3.31357437E-02
 -5.23597297E-02  1.34072017E-01  1.40872804E-01 -1.21960971E-01 -2.79366201E-01
  2.03280893E-01 -3.93805294E-01  6.56282958E-01  1.83303014E+00  3.07445972E+00
 -1.40602763E-01  5.28684302E-01  7.54619774E-02  2.33752296E-02 -1.46954047E-02
 -2.38888357E-02  7.62158524E-03 -1.40364085E-02  8.72749000E-07  1.62707800E-06
  7.36625201E-03  1.28126089E-01 -2.15176400E-06 -8.75737300E-06  4.85807684E-02
  4.92372885E-01 -7.14329100E-06 -2.76136990E-05 -2.30291358E-01 -1.81098856E+00
  4.23678970E-05 -1.07960210E-04  2.60166820E-01  9.13849401E-01  6.94305100E-06
 -2.09410000E-08 -3.25977010E-02 -3.60608891E-02 -1.60265000E-07  2.14840000E-08
  1.16560492E-02  3.00330058E-02 -1.08866385E-02  3.79911473E-03 -2.87480931E-02
 -3.27522790E-01 -9.66174183E-02 -1.14941133E-02 -1.73614838E-01  2.04166719E-02
 -2.48280072E-01  4.43319692E-01  2.99128921E-01  7.39995943E-03  2.70442802E-01
 -3.60573759E-01  8.22864592E-02  3.96184303E-02 -6.37350828E-02  3.48473332E-01
 -5.75852463E-02  1.38525071E-01  1.16561204E-02  3.00330789E-02  1.08871188E-02
 -3.79984894E-03 -2.87476497E-02 -3.27528972E-01  9.66151239E-02  1.14947646E-02
 -1.73614574E-01  2.05057411E-02  2.48271281E-01 -4.43336422E-01  2.99182149E-01
  7.30955204E-03 -2.70441970E-01  3.60594344E-01  8.22700577E-02  3.96205974E-02
  6.37211947E-02 -3.48477580E-01 -5.75836792E-02  1.38522462E-01 -6.21480308E-03
  8.75765032E-02  4.18627126E-01 -6.62598985E-02  1.50530266E-01 -1.70834864E-01
  4.42422722E-04 -1.35503352E-01  3.23779861E-01  4.32946519E-02 -1.79999896E-01
  1.24532242E-02  4.42713446E-04 -1.35511033E-01  3.23789389E-01 -4.32953512E-02
  1.80002339E-01  1.24470528E-02 -6.21419442E-03  8.75759021E-02  4.18633043E-01
  6.62604473E-02 -1.50523251E-01 -1.70835257E-01 -1.77573397E-02 -4.38073757E-02
 -7.93606000E-07  2.42880000E-07  1.00893845E-01  4.95234477E-01 -4.28083000E-07
 -3.21377500E-06 -3.26221845E-01  1.86553940E+00  1.05082150E-05 -4.91288010E-05
  2.53826785E+00  8.55426507E-01  4.14209100E-06  6.42528200E-06  2.67045243E-01
  1.16607051E-01 -6.45017000E-06  6.91199000E-07 -1.71604864E-01  1.03277340E-01
  2.01686809E-02  4.10041059E-02  3.03237962E-02 -5.48098361E-02  3.64422011E-02
 -3.24874759E-01  1.16296400E-01 -2.19086651E-01  2.02772861E-01  7.70385832E-01
 -3.34630755E-01  6.42687208E-01 -9.85764807E-01 -1.38123717E-01  1.99685044E-01
 -5.98128218E-01  6.86092587E-01 -3.62789449E-02  1.86629570E-02  1.24537715E-02
 -2.37803563E-02 -3.14664207E-02  2.01685388E-02  4.10038350E-02 -3.03256481E-02
  5.48100455E-02  3.64431637E-02 -3.24872822E-01 -1.16302117E-01  2.19087352E-01
  2.02779477E-01  7.70382449E-01  3.34643568E-01 -6.42697964E-01 -9.85820193E-01
 -1.38153553E-01 -1.99689401E-01  5.98119604E-01  6.86078690E-01 -3.62797569E-02
 -1.86618904E-02 -1.24525900E-02 -2.37805505E-02 -3.14661518E-02  3.80553065E-02
  7.23198587E-02  2.56834000E-07 -8.04814000E-07  2.35583521E-02 -4.56428888E-01
 -1.22370000E-08 -3.65449800E-06  5.82353527E-03 -4.94917027E-01  4.05517100E-06
  1.68901950E-05  5.45602842E-01 -3.69181474E+00 -2.45188600E-06 -5.68740800E-06
  9.69221795E-01  5.32510105E-03  8.73581000E-07  4.29144000E-07  3.88006867E-03
  1.57282965E-02 -1.13898323E-02 -2.36384508E-02 -6.04111511E-02  2.30306517E-02
  4.29440771E-02  3.37426574E-01 -1.11668486E-01  3.25595293E-02 -1.23079425E-01
 -2.38772657E+00 -1.66732822E-01  4.87916418E-02 -1.21679753E-01 -9.43806626E-01
  2.23353399E-01 -1.33709459E-01 -2.84904803E-01 -1.71315805E-02  8.49384014E-02
  1.29864583E-01 -2.06034741E-02  2.58353784E-01  1.13902080E-02  2.36396515E-02
 -6.04120871E-02  2.30305185E-02 -4.29474970E-02 -3.37435186E-01 -1.11666964E-01
  3.25558447E-02  1.23069861E-01  2.38765324E+00 -1.66734035E-01  4.87675755E-02
  1.21661513E-01  9.43771259E-01  2.23364563E-01 -1.33676520E-01  2.84897259E-01
  1.71368543E-02  8.49397686E-02  1.29840206E-01  2.05955290E-02 -2.58354541E-01
 -2.98457771E-02  7.21552274E-01 -2.18817248E-01 -5.88777484E-02 -9.16499325E-02
 -7.43167062E-02  7.10206935E-02 -4.11170236E-02  5.12725591E-01  5.61157586E-02
 -8.21081889E-02 -8.67091757E-02 -7.10225590E-02  4.11324853E-02 -5.12715546E-01
  5.61110439E-02 -8.21153020E-02  8.66958433E-02  2.98459758E-02 -7.21555694E-01
  2.18845374E-01 -5.88816960E-02 -9.16493481E-02  7.43253654E-02 -8.33906000E-07
 -1.90244500E-06  3.69485095E-02  4.48696679E-03  4.33126800E-06  1.97960600E-05
  2.74480915E-02 -1.19077839E-01 -6.22499200E-06 -2.52333070E-05  4.90293424E-01
 -1.70392202E+00  9.10506140E-05  1.06009220E-05 -1.36482994E-01 -2.82284015E-01
  1.83548000E-06  5.22484500E-06  7.24235516E-01  2.93654142E-01  1.94155790E-05
 -3.63206450E-05 -7.69415173E-03 -1.50611814E-02  1.42172960E-02 -6.81906439E-03
 -4.45364480E-02  1.05938658E-01 -2.71972972E-02  5.95192161E-03 -1.95100674E-01
  3.13885438E-02  2.42831218E-01 -2.16318810E-01  1.17789186E+00  4.37659342E-01
 -1.29848302E-01 -2.46470991E-01  3.38056374E-01  1.99480916E-02 -1.92872089E-02
 -8.20873475E-03 -2.74334785E-02  6.41752046E-02  7.69455363E-03  1.50621316E-02
  1.42194823E-02 -6.81792483E-03  4.45386926E-02 -1.05949246E-01 -2.71816720E-02
  5.96012738E-03  1.95113726E-01 -3.13347847E-02  2.42761276E-01 -2.16335716E-01
 -1.17795269E+00 -4.37506517E-01 -1.29839828E-01 -2.46399608E-01 -3.38028711E-01
 -1.99506757E-02 -1.92813691E-02 -8.20782021E-03  2.74272950E-02 -6.41696286E-02
  6.62518000E-07  1.23738400E-06 -4.69354126E-02 -1.02979560E-02  2.22441900E-06
 -6.89260000E-06 -6.05480906E-02 -3.61966227E-02  5.66327700E-06 -2.42189550E-05
 -4.27142950E-01  1.71668500E-01  4.99255000E-06 -9.52191030E-05  2.53969465E-01
  1.44217059E-01  3.64707830E-05  3.75352000E-07 -9.03755762E-02 -2.31497053E-02
  1.78021200E-06 -2.63196200E-06 -4.45972758E-03 -1.21203482E-02 -1.25150668E-02
 -3.42388956E-03  2.17532926E-02  9.68483520E-02 -4.84147683E-03 -1.00060185E-02
  9.40434417E-02  5.73797140E-01 -2.73972759E-01 -2.35200067E-01  1.30731088E-01
  3.09971080E-01  1.69681183E-01  2.87338528E-01  1.13037895E-01 -2.23831487E-03
 -6.20002528E-02 -1.83185730E-01  4.11291546E-02 -2.10746342E-02 -4.45841099E-03
 -1.21175928E-02  1.25089120E-02  3.42573769E-03  2.17496127E-02  9.68086487E-02
  4.83335651E-03  1.00095203E-02  9.40518058E-02  5.74062447E-01  2.73957699E-01
  2.35202141E-01  1.30766697E-01  3.10152193E-01 -1.69659714E-01 -2.87372493E-01
  1.13071867E-01 -2.23448622E-03  6.20122085E-02  1.83199275E-01  4.11294046E-02
 -2.10990656E-02  5.43673885E-03  3.57826153E-02 -1.20461058E-01 -6.89177730E-02
 -5.71905638E-03 -7.10415440E-02  1.80494708E-03 -1.51714322E-01 -1.29662022E-01
 -6.17670213E-02 -3.62875405E-02  1.79033453E-01  1.79854350E-03 -1.51712325E-01
 -1.29713984E-01  6.17720686E-02  3.62797344E-02  1.79038297E-01  5.43967804E-03
  3.57131306E-02 -1.20438656E-01  6.89125140E-02  5.70856257E-03 -7.10355489E-02
  1.15317955E-02  2.66257907E-02  2.12117200E-06  4.04084000E-07 -7.44959788E-02
 -2.87063312E-01  2.37147200E-06 -6.18475900E-06  5.15701023E-02  7.13908354E-01
  2.12975460E-05 -8.64810380E-05 -1.35186219E+00 -2.98034766E-02 -8.60145200E-06
 -1.79599390E-05 -3.47698657E-02 -8.74188271E-02  3.55520590E-05  1.42128850E-05
 -4.28280197E-01  7.47485789E-01 -1.53658060E-03 -4.28950211E-03  2.52207823E-02
  6.59366288E-03 -1.93659795E-02  6.39453339E-02  1.84965519E-01  6.24555590E-02
 -9.69013464E-02 -3.77261641E-01 -7.95735502E-01 -1.06046629E-01  4.07442863E-01
 -1.35004103E+00  2.08002533E-01  5.56365649E-01 -1.37774493E-01  1.96748308E-02
  5.33114332E-02  8.32345876E-03  6.05944579E-02 -7.32129819E-02 -1.53612454E-03
 -4.28861192E-03 -2.52189197E-02 -6.59390435E-03 -1.93622860E-02  6.39392467E-02
 -1.84965991E-01 -6.24531699E-02 -9.68837654E-02 -3.77264883E-01  7.95752157E-01
  1.06019886E-01  4.07323897E-01 -1.35005588E+00 -2.08010645E-01 -5.56380821E-01
 -1.37819510E-01  1.96731247E-02 -5.33141738E-02 -8.32451615E-03  6.05964270E-02
 -7.32189868E-02 -6.01955616E-03 -1.07779023E-02 -2.43621500E-06 -5.64299000E-07
 -3.90243208E-02  4.39337769E-02 -3.19564300E-06 -2.00010000E-06 -1.04130613E-01
  4.38025500E-01 -2.04342680E-05  9.28447900E-06 -1.69085870E-02  1.11213523E+00
  1.30390330E-05  7.72092400E-06 -4.69133947E-01 -5.77051355E-03 -4.54246700E-06
 -1.10444400E-06 -3.79690467E-02  5.63512215E-02  9.99134710E-03  2.39978271E-02
 -5.25404354E-02  2.11553724E-02  2.89304775E-03 -3.53030943E-01 -1.01792005E-02
  4.62743913E-02 -9.53219897E-02  2.20050201E+00 -2.35874900E-01  5.87594726E-01
  8.35232832E-01 -2.07096983E-01  2.14080361E-01 -2.74762087E-01  2.33825961E-01
 -7.72311474E-02  3.66321529E-01  6.70675120E-02 -2.49877160E-03  3.94049849E-01
 -9.99165451E-03 -2.39985243E-02 -5.25401077E-02  2.11552642E-02 -2.89484939E-03
  3.53037975E-01 -1.01760094E-02  4.62670426E-02  9.53174654E-02 -2.20049384E+00
 -2.35877805E-01  5.87615874E-01 -8.35246653E-01  2.07079934E-01  2.14060977E-01
 -2.74759221E-01 -2.33822946E-01  7.72308521E-02  3.66326041E-01  6.70566699E-02
  2.50603082E-03 -3.94048759E-01 -8.26918529E-02  5.31516931E-01 -2.57457499E-01
 -2.75159734E-02 -2.25687703E-01 -6.35740608E-03  5.46811952E-02 -7.33861952E-01
  5.65332313E-01  6.64243346E-03  1.08051498E-01 -5.53950382E-04 -5.46781872E-02
  7.33845451E-01 -5.65313075E-01  6.64354991E-03  1.08049131E-01  5.51436592E-04
  8.26941831E-02 -5.31533768E-01  2.57464381E-01 -2.75209093E-02 -2.25693434E-01
  6.35956723E-03 -1.04665000E-07 -1.54133000E-07  1.39592463E-02 -3.80744806E-02
  6.85311000E-07  5.95644000E-07  4.53872990E-03  1.44250792E-01  1.22838300E-06
  7.63478000E-06 -2.48084020E-01  1.23247211E+00  1.94843950E-05  2.60246250E-05
 -2.55508198E-01 -7.14579352E-02 -1.10478530E-05  4.27606900E-06 -3.56281405E-01
 -2.18464728E-01 -6.73349000E-07  1.02021400E-06 -2.70332013E-02 -5.51592546E-02
  2.98828142E-03  1.68395669E-02  1.65731117E-02  4.65414966E-01  5.71063686E-02
  9.36131908E-02  5.47449659E-02 -9.09953919E-01 -2.68106458E-01 -1.29937724E-01
 -5.76301700E-01  1.04095647E+00  3.55229740E-01  1.38072454E-01 -4.26197825E-01
  1.26734510E-02 -1.85933753E-02 -2.46930214E-02  3.11061498E-02 -5.41782754E-02
  2.70342330E-02  5.51614174E-02  2.98762114E-03  1.68399300E-02 -1.65731200E-02
 -4.65434380E-01  5.71035313E-02  9.36151093E-02 -5.47441386E-02  9.10004765E-01
 -2.68098940E-01 -1.29933886E-01  5.76291590E-01 -1.04098283E+00  3.55224919E-01
  1.38085714E-01  4.26215494E-01 -1.26742197E-02 -1.85933131E-02 -2.46944018E-02
 -3.11064965E-02  5.41770811E-02  1.36354000E-07  2.75264000E-07  3.54781664E-02
  2.75092301E-02  3.36209000E-07 -1.60053300E-06  7.59556287E-02  1.03680770E-01
  2.23149400E-06 -8.33212300E-06  7.36939290E-02 -3.78730734E-01  2.73926700E-06
 -2.77791960E-05  3.52478946E-03  1.54071422E-02  1.24537280E-05 -2.28872000E-07
  3.85895026E-02 -1.13059702E-03 -2.71650000E-08  1.22740000E-08  1.78334371E-02
  3.90553649E-02  2.42282264E-02 -1.20938378E-02  2.96167563E-02 -3.49132459E-01
 -2.36031802E-02 -2.64370987E-01 -5.26813632E-02 -3.39637063E-01  9.90688139E-01
  7.91540119E-01  1.87086962E-01 -4.92046877E-01 -1.42729721E-01 -3.06817016E-01
 -3.55209404E-01  1.74254841E-01 -6.95431959E-02 -1.78992808E-01 -5.33195382E-01
 -8.26462323E-02  1.78332226E-02  3.90547711E-02 -2.42287342E-02  1.20951618E-02
  2.96165558E-02 -3.49122025E-01  2.36044084E-02  2.64371870E-01 -5.26772431E-02
 -3.39701876E-01 -9.90706784E-01 -7.91513235E-01  1.87046235E-01 -4.92071324E-01
  1.42734940E-01  3.06820436E-01 -3.55209866E-01  1.74256550E-01  6.95444848E-02
  1.78991384E-01 -5.33195159E-01 -8.26542255E-02 -8.07527532E-02  1.70063164E-01
 -2.37870574E-01 -1.00276827E-01 -2.58096386E-01 -4.25084021E-02 -1.41235067E-01
  1.06063754E+00 -1.33350514E-01 -9.20238013E-02 -9.71998782E-02  3.95321827E-02
 -1.41236333E-01  1.06065636E+00 -1.33359148E-01  9.20289760E-02  9.71965578E-02
  3.95393376E-02 -8.07504201E-02  1.70045243E-01 -2.37869610E-01  1.00284801E-01
  2.58094707E-01 -4.25102595E-02  4.29069013E-03  9.20407612E-03 -2.50945000E-07
 -7.41858000E-07  7.22155266E-02 -1.03971023E-01 -9.61923000E-07  1.70293900E-06
  7.12790012E-02  2.00794921E-03  1.17868100E-06  1.27432440E-05  2.79718191E-01
  1.14567596E+00 -2.02488100E-06  1.18333500E-06 -4.05203835E-01  9.06420860E-02
 -7.01028900E-06 -2.32027600E-06 -2.93269057E-03 -5.27858031E-02  1.10056508E-02
  2.15836709E-02 -1.88367995E-02  5.77476372E-03  2.63635995E-02 -1.44105904E-01
 -5.55031335E-02  3.29610637E-02  6.43230164E-02  8.59272120E-02  1.96508233E-01
 -1.24325593E-02  2.69107783E-02  2.20918546E-01  5.43087975E-02  5.14382688E-02
 -2.26896984E-01  1.18929912E-03 -2.41147292E-02 -7.26273745E-03 -8.34705083E-03
  2.66720511E-03  1.10061766E-02  2.15847537E-02  1.88366454E-02 -5.77529541E-03
  2.63631193E-02 -1.44115282E-01  5.55026775E-02 -3.29628413E-02  6.43221825E-02
  8.59346352E-02 -1.96504340E-01  1.24401799E-02  2.69207529E-02  2.20902817E-01
 -5.43103433E-02 -5.14422500E-02 -2.26885571E-01  1.18791245E-03  2.41161378E-02
  7.26318451E-03 -8.34682440E-03  2.66880411E-03  3.80300539E-03  7.48583062E-03
  8.49885000E-07  3.63408000E-07  2.25500086E-02 -4.27013783E-02  1.72741800E-06
  1.08898300E-06  8.01335525E-02 -1.55296553E-01  4.87875000E-07 -3.80149100E-06
 -3.04483857E-02 -3.69174109E-02 -5.76029000E-07  3.62388000E-07  6.49307238E-02
  3.27312253E-03  9.96731000E-07  6.22430000E-08 -4.51960893E-03 -5.01649523E-04
 -6.17010853E-03 -1.74248975E-02 -4.49026357E-02 -6.55958478E-02 -4.16797162E-02
  2.98103123E-01  1.26612361E-01 -4.31700982E-02  2.39806571E-01 -1.71120049E+00
 -6.81042067E-01 -9.61553133E-01 -4.48702216E-01 -4.58106267E+00  1.04164381E-01
 -9.77239242E-01 -5.72634743E-01 -2.42275101E-02  8.30004272E-02 -2.68363990E-01
  1.05342014E-01  2.52368721E-01  6.17005368E-03  1.74247153E-02 -4.49023862E-02
 -6.55962944E-02  4.16805312E-02 -2.98101196E-01  1.26606789E-01 -4.31662437E-02
 -2.39799865E-01  1.71120987E+00 -6.81004349E-01 -9.61556395E-01  4.48710245E-01
  4.58107827E+00  1.04169087E-01 -9.77244862E-01  5.72639541E-01  2.42211294E-02
  8.29766194E-02 -2.68364809E-01 -1.05342952E-01 -2.52360091E-01 -5.43298195E-02
  4.54097322E-01 -2.00454701E-01  3.50036763E-01  2.79718641E-01  1.52373129E-01
  6.76987734E-02 -5.52445173E-01  1.27608804E-01  1.66895588E-01  1.02353033E-01
 -7.02139880E-02 -6.76953921E-02  5.52418800E-01 -1.27603626E-01  1.66888687E-01
  1.02355250E-01  7.02171580E-02  5.43261509E-02 -4.54064737E-01  2.00441513E-01
  3.50039423E-01  2.79715732E-01 -1.52378070E-01  6.85080000E-08  6.93000000E-09
 -2.11359374E-02  1.99901931E-02 -1.83450500E-06  2.05953000E-07  3.46358425E-02
 -1.32260218E-01 -9.37260000E-07  2.68226660E-05 -2.91710207E-01  3.66534239E-01
 -3.33398570E-05 -2.42660880E-05 -2.06013567E-01 -3.96243642E-01  9.96338700E-06
 -3.02931800E-06  6.68233367E-02  1.12389148E-01  1.74454400E-06  3.70583000E-07
  3.30041810E-02  6.73807720E-02 -7.96610976E-03  1.17220045E-02  2.48735223E-02
 -5.78156788E-01 -4.67551629E-02 -1.92511842E-02  9.60684283E-02  9.58437620E-01
  2.69439597E-01  6.63656556E-02 -2.91907933E-01 -2.69846286E+00 -1.62405846E-01
  7.50370772E-01  3.93062921E-01 -3.30240854E-02  2.84078445E-02  2.43372817E-02
 -2.47216090E-03  1.10037266E-02 -3.30053880E-02 -6.73833042E-02 -7.96730805E-03
  1.17222132E-02 -2.48742858E-02  5.78179294E-01 -4.67557641E-02 -1.92489488E-02
 -9.60718625E-02 -9.58490326E-01  2.69443840E-01  6.63455157E-02  2.91919817E-01
  2.69843376E+00 -1.62392902E-01  7.50350557E-01 -3.93080526E-01  3.30255390E-02
  2.84055878E-02  2.43370729E-02  2.47102704E-03 -1.10020187E-02 -5.27119000E-07
 -1.05226100E-06  3.02235270E-03 -9.91705656E-04 -7.56153000E-07  7.80720200E-06
  5.74072003E-03  1.67369537E-04 -2.59014900E-06 -3.59280500E-06 -3.39377234E-02
 -7.34054755E-02  2.28414100E-06  4.13320870E-05  1.17582598E-01  1.81485118E-01
 -1.80594840E-05  1.20039000E-07 -7.28842101E-03 -2.62631842E-03  4.04884000E-07
  4.37560000E-08 -8.31856035E-03 -1.66043809E-02  1.74393931E-02 -9.26695931E-03
 -1.47883921E-02  1.96941094E-01 -1.27901674E-01  3.01672913E-01 -1.58705033E-01
 -1.93386440E-01  1.36622153E+00 -5.82457061E-01 -4.69837286E-01 -1.83175218E-01
  7.74714065E-02 -8.91666926E-03  5.49442113E-02  2.12997636E-01 -3.85810059E-01
  2.25506487E-02  1.74684198E-01 -1.73646887E-01 -8.31857117E-03 -1.66042046E-02
 -1.74400010E-02  9.26285871E-03 -1.47848677E-02  1.96936867E-01  1.27902386E-01
 -3.01675606E-01 -1.58720199E-01 -1.93381025E-01 -1.36623294E+00  5.82417935E-01
 -4.69841547E-01 -1.83177973E-01 -7.74751645E-02  8.92384728E-03  5.49531309E-02
  2.12997587E-01  3.85801237E-01 -2.25699050E-02  1.74677155E-01 -1.73652907E-01
  1.20471562E-01 -9.25782432E-01  1.32967925E-01 -8.32243873E-02 -1.70325395E-02
  9.39384996E-02 -2.26092144E-02  5.95581998E-01  1.19712557E-01 -1.91988996E-01
  1.77899557E-01  1.34478917E-01 -2.26092464E-02  5.95595110E-01  1.19733019E-01
  1.91983383E-01 -1.77885702E-01  1.34481042E-01  1.20471225E-01 -9.25780044E-01
  1.32970083E-01  8.32319523E-02  1.70424956E-02  9.39298546E-02  2.66577719E-03
  1.15971446E-02 -5.83475000E-07  7.51808000E-07  4.17974583E-02 -1.20089251E-01
  6.11791000E-07 -2.18717200E-06  3.10082185E-01 -6.01860875E-01 -9.89546900E-06
  2.31737470E-05  1.63701488E+00  8.51364536E-01  9.51980000E-08 -2.18704900E-06
 -5.09041994E-01  2.22920073E-01  2.29151000E-06  2.00693300E-06  1.69527311E-01
 -1.58024603E-02  3.91954427E-02  8.24012084E-02 -1.76819498E-02  8.76757720E-03
  3.14209215E-02 -7.55877321E-01 -3.39457663E-02  4.51723121E-02  1.09708245E-01
  1.91099673E+00  3.23050632E-01 -6.80334980E-01 -2.76943783E-01 -5.96707738E-02
  2.38113410E-01 -3.16526019E-01  5.02415971E-01 -3.62021510E-02 -3.84194333E-02
  1.61636464E-02  2.57803404E-02 -1.54135792E-02  3.91936318E-02  8.23975232E-02
  1.76819008E-02 -8.76636027E-03  3.14184229E-02 -7.55845933E-01  3.39434399E-02
 -4.51733952E-02  1.09699090E-01  1.91093785E+00 -3.23035923E-01  6.80343125E-01
 -2.76901313E-01 -5.95632584E-02 -2.38126748E-01  3.16560430E-01  5.02409626E-01
 -3.62007586E-02  3.84217353E-02 -1.61612908E-02  2.57817541E-02 -1.54142602E-02
 -1.28000023E-03 -2.31476282E-03 -8.01990000E-08 -1.73794000E-07  2.14626106E-02
  6.38085555E-02 -2.75789000E-07 -3.12932000E-07  1.45748462E-01 -8.82654324E-01
  1.61902000E-06 -2.98954300E-06  2.30670022E-01 -1.36220810E+00  1.67216800E-06
  2.16223600E-06  6.58062687E-01 -8.26525125E-03 -1.84077000E-07 -2.78300000E-09
  1.11581442E-03 -4.00762734E-03  4.85211230E-03  1.15996850E-02 -2.75867476E-03
  1.28340576E-02 -6.91433755E-02 -1.26544721E-01 -5.18925093E-02 -1.23904840E-01
  2.49546253E-01  3.06187183E-01  8.64296230E-01  2.09437002E-01 -2.32955725E-01
 -6.58356811E-01  2.04099679E-02 -1.83802366E-01 -1.64065778E-01 -1.43221544E-01
 -1.62343555E-01  2.83435927E-01 -1.05606770E-01  6.12668025E-03  4.85178303E-03
  1.15998982E-02  2.75771610E-03 -1.28482351E-02 -6.91311267E-02 -1.26580061E-01
  5.18816400E-02  1.23896821E-01  2.49520376E-01  3.06428365E-01 -8.64229874E-01
 -2.09588298E-01 -2.32778583E-01 -6.58229005E-01 -2.03806198E-02  1.83787383E-01
 -1.64097161E-01 -1.43179755E-01  1.62357711E-01 -2.83445706E-01 -1.05656719E-01
  6.12983019E-03  5.66706613E-02 -5.75454416E-01  5.07889758E-02 -1.73647595E-01
 -1.33648951E-02  5.52759234E-02  1.08967206E-02  1.07768226E-01  3.41961062E-01
 -7.39021448E-02 -1.47593118E-03  2.84122121E-01  1.08745262E-02  1.07824901E-01
  3.41867022E-01  7.38613828E-02  1.52376073E-03  2.84041764E-01  5.66688247E-02
 -5.75407670E-01  5.08509617E-02  1.73612479E-01  1.33611930E-02  5.52863280E-02
 -1.44054777E-02 -4.27421179E-02  4.02802800E-06  1.62227600E-06  2.46459928E-02
  3.89155831E-01  1.66971500E-06  9.73290800E-06  5.80627240E-02  2.36051099E+00
 -3.76866360E-05  6.28174260E-05  1.92785653E+00  5.27367621E-01 -2.81046820E-05
 -1.33402680E-05 -2.52664466E-01  3.68700640E-01  2.23096290E-05 -1.36442100E-06
  2.41605031E-01  4.17704549E-02 -4.48637792E-02 -8.96155367E-02  7.81160728E-03
 -1.23780449E-02 -5.31052032E-02  6.86264349E-01  1.45998118E-02 -9.09918301E-02
 -1.11411218E-01 -9.18620388E-01  7.95213375E-02  2.55449443E-01  1.56637956E-01
  7.66472680E-01  8.03262561E-02 -1.87134754E-01 -1.05479522E-01 -3.55613453E-02
 -6.72983680E-03  1.19567167E-02 -4.65919876E-02 -2.09430486E-02 -4.48646704E-02
 -8.96168977E-02 -7.81251668E-03  1.23837957E-02 -5.31140857E-02  6.86262330E-01
 -1.45960295E-02  9.10047169E-02 -1.11437577E-01 -9.18496409E-01 -7.95592928E-02
 -2.55438343E-01  1.56704080E-01  7.66601980E-01 -8.03161758E-02  1.87200650E-01
 -1.05499224E-01 -3.55587271E-02  6.71872169E-03 -1.19593899E-02 -4.65929536E-02
 -2.09437951E-02 -3.84784241E-02 -7.95168178E-02 -2.17583500E-06 -4.60740000E-07
  2.14898572E-02  7.56690058E-01 -3.45595800E-06  6.76126000E-07  1.36640785E-01
 -2.82384849E+00 -8.16710000E-07 -1.39210270E-05  9.05594346E-01 -1.03723271E+00
  2.08971300E-05  3.50239300E-06  5.10286697E-01  1.66164037E-02 -3.44128100E-06
 -1.17125900E-06  3.20982566E-02  1.15654724E-02 -1.05885833E-03  4.65192966E-03
  1.55070028E-02  9.38200954E-02  7.28280030E-02 -3.30028156E-01  8.50724731E-02
  6.93259849E-02 -1.07278767E-01  2.41028815E+00 -2.81327563E-01  1.20856580E+00
  1.34650159E+00  8.52602672E-01 -1.64637812E-01  1.04876497E-01 -3.63484003E-01
  2.88111534E-01  1.10140461E-01 -1.44426440E-02 -3.47703255E-01 -5.90610308E-02
  1.05923070E-03 -4.65094541E-03  1.55086487E-02  9.38170567E-02 -7.28391351E-02
  3.30014162E-01  8.50801093E-02  6.93374227E-02  1.07323216E-01 -2.41020948E+00
 -2.81487772E-01  1.20855575E+00 -1.34653827E+00 -8.52722384E-01 -1.64649261E-01
  1.04905465E-01  3.63455355E-01 -2.88122153E-01  1.10188585E-01 -1.44907586E-02
  3.47693001E-01  5.90541161E-02 -5.32494303E-02  3.77612012E-01  1.29879986E-01
  1.45938078E-01  4.64992220E-02 -6.22517026E-02 -1.60622714E-01  3.72915984E-01
 -5.73145686E-01  2.07833910E-01 -3.20439542E-01 -3.31516737E-01  1.60623866E-01
 -3.72884660E-01  5.73205236E-01  2.07837913E-01 -3.20442736E-01  3.31553708E-01
  5.32646565E-02 -3.77739068E-01 -1.29851600E-01  1.45961782E-01  4.64940672E-02
  6.22696491E-02 -1.36745200E-06 -3.88904100E-06 -3.66515385E-02  2.23956590E-02
  1.02294400E-06  3.36496800E-05  9.15940939E-03 -1.78887829E-01 -5.24057000E-07
  2.21697009E-04  4.42678681E-01 -7.51215782E-01  1.44311531E-04  5.72003150E-05
  2.05627209E-01  1.67433175E-01 -2.76882400E-05  2.96423120E-05 -2.67348536E-01
 -2.17776891E-02  1.35448960E-05  6.09489100E-06  4.69088083E-03  1.32236174E-02
 -1.28499129E-03 -2.49445788E-02 -6.61942689E-02 -2.22404796E-01 -5.45272995E-03
 -6.45264478E-02 -1.77090731E-01  1.36082436E+00  1.65810510E-01 -1.51784150E-01
  2.04860493E-01  6.22308442E-01  3.52311632E-02 -4.14207736E-01 -5.19404095E-02
 -1.86807410E-02  3.67495882E-02  1.59989818E-02  2.67403887E-03 -1.22579511E-02
 -4.69874591E-03 -1.32394291E-02 -1.28489772E-03 -2.49421446E-02  6.61852756E-02
  2.22529582E-01 -5.45741806E-03 -6.45110696E-02  1.77073189E-01 -1.36101525E+00
  1.65819663E-01 -1.51838715E-01 -2.04841386E-01 -6.22206308E-01  3.52045455E-02
 -4.14175957E-01  5.19547808E-02  1.86744329E-02  3.67538784E-02  1.59981835E-02
 -2.67982614E-03  1.22505707E-02 -2.93150500E-06 -6.07295400E-06  2.72035710E-02
  4.32726534E-03  1.43836700E-06  5.81916130E-05  5.05510154E-02 -1.28298411E-02
  9.74622100E-06 -2.19786496E-04 -1.61042134E-02  2.19200862E-01  7.46655970E-05
 -1.08766349E-04 -1.82291268E-01 -9.45649199E-02  5.25651970E-05  1.24438000E-06
  3.77294896E-02  2.23144254E-02  2.20461000E-06  1.34539400E-06  6.58862569E-04
 -2.08713175E-04 -4.85818979E-03  4.98131067E-03  7.31737846E-04  1.56674346E-01
  1.05351978E-01 -5.30748506E-02 -2.20412224E-01 -1.40261358E+00 -3.81641180E-01
 -1.34223029E-01 -6.39948941E-01  1.86541276E+00 -1.17793982E-01  4.53380440E-01
  7.32974114E-01 -2.22694181E-01 -3.84185441E-01  2.35242755E-01  1.58459469E-01
 -1.69185116E-03 -6.59789973E-04  2.06810311E-04 -4.86538877E-03  4.97758516E-03
 -7.23531084E-04 -1.56683023E-01  1.05380262E-01 -5.30861156E-02  2.20442186E-01
  1.40287274E+00 -3.82035894E-01 -1.34133703E-01  6.40038593E-01 -1.86538700E+00
 -1.17819717E-01  4.53356596E-01 -7.32983106E-01  2.22735773E-01 -3.84191287E-01
  2.35245583E-01 -1.58435008E-01  1.70133143E-03  1.50836585E-01 -4.47474830E-01
  7.26442996E-01  2.66278575E-01 -1.19095271E-02  2.09343841E-01  2.84257493E-02
 -3.96453602E-02 -1.74078941E-01  2.13032454E-01 -1.70583837E-01 -2.47705614E-01
 -2.84170760E-02  3.97099958E-02  1.74209436E-01  2.13061213E-01 -1.70610667E-01
  2.47733683E-01 -1.50844279E-01  4.47376772E-01 -7.26526058E-01  2.66357688E-01
 -1.19297116E-02 -2.09410664E-01  1.68798000E-07 -4.09269000E-07  2.17778836E-03
 -1.00244466E-01 -1.32666380E-05 -2.16958200E-06 -1.06198003E-01  2.78197293E-01
 -1.13944650E-05  2.57527815E-04  8.67794563E-02  1.43606354E-01 -1.77943650E-04
 -4.50443680E-05  3.04973114E-01  1.38393327E-01  9.22760300E-06 -1.85572330E-05
 -8.55789472E-02  3.13037965E-02 -6.15731400E-06 -2.72417760E-05 -3.73233330E-02
 -7.93587127E-02 -2.27552106E-04 -2.65322793E-02  4.23613802E-02  7.74043122E-01
 -3.30223614E-02 -3.90709231E-02  7.24980984E-02 -2.04992883E+00 -3.10508777E-03
  3.08359018E-01  3.73982142E-01  1.02061401E+00 -9.63286535E-02 -1.81333348E-01
 -8.06642989E-02  9.29094438E-02  2.66999023E-02 -8.60817481E-03 -2.09343927E-02
 -8.52943460E-05  3.73168250E-02  7.93443900E-02 -2.26732209E-04 -2.65338256E-02
 -4.23602899E-02 -7.73893541E-01 -3.30104368E-02 -3.90686413E-02 -7.25005651E-02
  2.04941476E+00 -3.13766041E-03  3.08216203E-01 -3.73934287E-01 -1.02078723E+00
 -9.63157650E-02 -1.81380553E-01  8.07777469E-02 -9.28973670E-02  2.66963513E-02
 -8.60357151E-03  2.09293476E-02  8.88735570E-05 -2.36116500E-06 -4.76774000E-06
  5.57456173E-03  3.95164653E-04 -5.72015600E-06  3.63664680E-05 -1.30941046E-03
  1.13960651E-02 -1.96132550E-05 -1.34471080E-05  9.43548564E-02 -1.58302118E-01
  3.74138180E-05  3.06273480E-05 -1.52993935E-01 -1.70593234E-02 -1.45470130E-05
  5.41484000E-07  2.42659104E-02 -2.71247617E-02  3.59682000E-07 -1.82924000E-06
 -4.08185148E-03 -7.58087322E-03  4.56564632E-02  7.04692061E-03  6.81334663E-02
 -7.76553759E-02 -1.27220198E-01  7.61174964E-02  5.22817696E-02  1.27238845E+00
  1.85782042E+00 -4.51401773E-01  6.00409249E-01  3.63398679E-01  1.91629509E-01
  1.57441357E-01 -2.09795554E-02  2.83094072E-01  1.45636131E-01 -9.15013761E-02
  1.06508552E-01  6.68513923E-02 -4.08178409E-03 -7.58126762E-03 -4.56555313E-02
 -7.04327076E-03  6.81329321E-02 -7.76086659E-02  1.27197075E-01 -7.61073013E-02
  5.22449986E-02  1.27196679E+00 -1.85773802E+00  4.51518599E-01  6.00262385E-01
  3.63652464E-01 -1.91603334E-01 -1.57506709E-01 -2.08588254E-02  2.83054560E-01
 -1.45563797E-01  9.14618150E-02  1.06542427E-01  6.68480985E-02 -9.59683773E-02
 -2.36608762E-01 -6.10171496E-01 -3.52288378E-01  9.53004425E-02 -4.17116173E-01
  4.13299685E-02  3.09395136E-01  6.30723911E-01 -1.44922595E-01  1.47599586E-01
  7.48769349E-02  4.13340711E-02  3.09398966E-01  6.30685771E-01  1.44878215E-01
 -1.47572036E-01  7.48315982E-02 -9.59379084E-02 -2.36685497E-01 -6.10032475E-01
  3.52238925E-01 -9.53131651E-02 -4.17078191E-01  3.84430810E-03  2.11002634E-03
 -4.00139000E-07  9.48284200E-06 -1.23978051E-01 -7.58905480E-02  1.00490370E-05
 -2.88966800E-05 -7.16759608E-02  2.31327018E+00 -1.54091000E-06 -3.00713700E-05
 -1.78285565E+00 -6.71640897E-01 -2.69196210E-05 -7.22999300E-06  1.99260089E-01
 -2.07370377E-01  4.47253600E-06 -2.74338400E-06 -1.48638265E-01 -2.94788591E-01
 -1.75319077E-02 -4.20580439E-02 -7.15273552E-03  1.80364989E-02  3.32751821E-02
  5.34138808E-01 -7.42163329E-02  2.57678245E-02  5.16674271E-02 -2.33722703E+00
  1.57379761E-01  6.17742998E-01  1.38392545E-01 -9.65081983E-01 -7.94242832E-02
  2.56135095E-01  5.80661082E-01  7.54788100E-02  2.32879658E-02 -2.22388865E-02
 -2.27853777E-02  2.68448256E-02 -1.75388923E-02 -4.20729693E-02  7.15264467E-03
 -1.80316623E-02  3.32837889E-02  5.34286641E-01  7.42214852E-02 -2.57596130E-02
  5.16839986E-02 -2.33764780E+00 -1.57370867E-01 -6.17815465E-01  1.38454641E-01
 -9.64935901E-01  7.94410590E-02 -2.56114941E-01  5.80638345E-01  7.54955753E-02
 -2.32916297E-02  2.22405463E-02 -2.27896089E-02  2.68449278E-02 -2.04564679E-02
 -4.13166129E-02 -2.15671000E-07  2.53590000E-08 -5.48553246E-02  3.09510339E-01
  7.70777000E-07 -1.40096000E-06 -1.89536079E-01 -1.37619541E-02 -9.53106600E-06
  1.90995100E-05  3.11467832E-01  4.19777972E-01  1.37469200E-05 -2.35996100E-06
 -2.22142778E-01  3.99656535E-03 -1.86776700E-06  3.04545800E-06 -6.65027071E-03
 -2.21450421E-02 -3.14041619E-03 -1.12431674E-02  3.21118831E-02  1.93818012E-02
 -2.00551468E-02  2.77064721E-01 -1.66619922E-01 -5.74474460E-02 -8.75139104E-03
 -1.04566404E+00  1.28652785E+00  8.24265718E-02 -8.64343135E-01 -8.06435249E-01
  4.11000923E-01 -1.86095316E-01 -1.88532575E-01 -3.67658831E-01  5.75757953E-02
  1.87767518E-02  7.41803911E-02  1.00022276E-01 -3.14055097E-03 -1.12436805E-02
 -3.21104033E-02 -1.93786485E-02 -2.00576209E-02  2.77083302E-01  1.66621325E-01
  5.74474768E-02 -8.74192271E-03 -1.04580044E+00 -1.28653975E+00 -8.23814837E-02
 -8.64410738E-01 -8.06623022E-01 -4.11006784E-01  1.86134915E-01 -1.88547586E-01
 -3.67663573E-01 -5.75643230E-02 -1.87834549E-02  7.41902187E-02  1.00025759E-01
 -3.42736258E-02 -1.61786415E-01 -5.12127053E-01 -2.45022615E-01 -1.87935374E-01
 -9.44468609E-02  1.18861315E-01  6.97030610E-03  9.53814757E-01 -1.40506264E-01
 -2.60318433E-02  2.67461389E-01  1.18866285E-01  6.97059684E-03  9.53839715E-01
  1.40504579E-01  2.60212683E-02  2.67463535E-01 -3.42715254E-02 -1.61796616E-01
 -5.12129192E-01  2.45026549E-01  1.87938442E-01 -9.44343211E-02  2.33941718E-02
  6.13440951E-02  4.51410000E-07  9.57202000E-07 -5.27931635E-02 -4.78351020E-01
 -4.07107000E-07  9.93897000E-07 -1.34980445E-01 -4.62165602E+00 -5.69491100E-06
  1.77942430E-05 -3.39952287E+00  1.32210454E+00 -1.13429500E-06  1.03644020E-05
 -5.25426858E-01 -5.89051847E-01 -1.79560500E-06 -3.11873500E-06  3.50137408E-01
 -6.25393327E-02  1.37630034E-02  3.22525380E-02  2.32806805E-02 -3.29137513E-02
 -4.28154198E-02 -4.02806503E-01 -2.66479296E-02 -5.62764333E-02 -1.33394576E-01
  1.25131221E+00  4.47513549E-01 -1.82759985E-01  3.42633993E-01 -2.29289553E-01
  2.91092929E-02  3.22446265E-03 -2.48685415E-01 -1.75648525E-02  3.89595391E-02
  1.74133898E-03  2.99644839E-02  8.02061518E-02  1.37636817E-02  3.22538291E-02
 -2.32811153E-02  3.29135684E-02 -4.28128607E-02 -4.02815028E-01  2.66482443E-02
  5.62742750E-02 -1.33389511E-01  1.25130119E+00 -4.47514984E-01  1.82768986E-01
  3.42652336E-01 -2.29318364E-01 -2.91048511E-02 -3.23258958E-03 -2.48666598E-01
 -1.75626608E-02 -3.89608227E-02 -1.74114129E-03  2.99650566E-02  8.02075546E-02
  4.27449296E-02  8.99261734E-02  8.02500000E-09  1.11819000E-07 -4.39440143E-02
 -9.38301575E-01 -1.45770000E-07  6.86868000E-07 -2.44340898E-01  4.40172798E+00
  1.73600000E-09 -1.95224400E-06 -1.45357330E+00  1.98005296E+00 -7.40041000E-07
 -3.14796900E-06 -7.17157051E-01 -2.29172394E-02  1.96003000E-07 -5.62530000E-08
  1.86750726E-02 -1.34188083E-02 -6.00492683E-04 -6.87768078E-03 -3.60324807E-02
  3.94545617E-02 -5.80936187E-02  1.59518153E-01  1.86440372E-02 -7.69352599E-02
  1.24832348E-01 -9.03408445E-02  1.06267840E+00 -9.36093778E-02 -3.89513776E-01
  1.32852771E-02 -1.55968555E-01 -8.14770473E-03  1.40676934E-01 -3.24198917E-02
 -3.49708573E-01  7.26786969E-02 -6.20240768E-02 -1.63448337E-01 -6.01026183E-04
 -6.87833771E-03  3.60344063E-02 -3.94640192E-02 -5.80926409E-02  1.59509912E-01
 -1.86422968E-02  7.69313523E-02  1.24835899E-01 -9.02185134E-02 -1.06267709E+00
  9.34679048E-02 -3.89555436E-01  1.28843247E-02  1.55972495E-01  8.24951342E-03
  1.40656506E-01 -3.24116751E-02  3.49726249E-01 -7.27062174E-02 -6.20419822E-02
 -1.63438316E-01  1.51851209E-01 -7.89335396E-01  3.61661161E-01  2.58703699E-02
  7.44005009E-02  1.14544517E-01 -4.01090248E-02  6.03809784E-01  4.87741037E-02
  1.20728931E-02 -4.87642004E-02 -5.81321451E-02 -4.01113761E-02  6.03814167E-01
  4.87862916E-02 -1.20796511E-02  4.87800639E-02 -5.81371478E-02  1.51853020E-01
 -7.89356495E-01  3.61688614E-01 -2.58716845E-02 -7.43730473E-02  1.14569945E-01
  1.15293524E-02  3.11382784E-02  8.68115000E-07  1.50517800E-06 -8.50039355E-02
 -5.62277244E-01 -2.05667800E-06  1.10044710E-05 -2.50639195E-01  1.33246781E+00
 -3.71670050E-05  8.17665260E-05 -4.78707916E+00 -3.12453207E-01 -8.22854700E-06
  9.57094700E-06 -8.80544985E-02 -3.55664273E-01  7.44777200E-06 -6.82555200E-06
 -6.96866944E-01 -4.58862207E-01 -1.38428500E-02 -3.12897553E-02 -2.46089056E-02
  4.46114263E-03 -8.06087983E-02  3.92160119E-01 -4.78798978E-02  5.81212184E-02
 -1.87879344E-01 -2.00406350E+00 -5.94128632E-02  8.48540264E-01 -4.68239828E-02
 -1.04870989E+00 -3.07330615E-03  2.86244668E-01  3.19099114E-01  4.19639216E-02
 -2.47666174E-02 -5.65306216E-02  1.03075558E-02 -1.55040007E-02 -1.38412952E-02
 -3.12864268E-02  2.46076527E-02 -4.45839412E-03 -8.06091753E-02  3.92126684E-01
  4.78799218E-02 -5.81221853E-02 -1.87884873E-01 -2.00395842E+00  5.94016573E-02
 -8.48487683E-01 -4.67612346E-02 -1.04870846E+00  3.09040684E-03 -2.86224746E-01
  3.19155093E-01  4.19679471E-02  2.47631201E-02  5.65329594E-02  1.03111333E-02
 -1.55009218E-02  2.53520877E-02  5.37582456E-02 -7.91059000E-07  5.61900000E-08
 -3.78932502E-02 -5.75334512E-01 -2.07822100E-06  2.25019000E-06 -1.82679057E-01
  3.04787840E+00  5.55543800E-06 -1.62988380E-05 -7.45558670E-01  1.57967798E+00
  2.76568200E-06  5.15958000E-07 -4.70225472E-01 -1.93926427E-02 -6.58603000E-07
 -1.22054500E-06 -7.30838951E-02 -4.19114308E-02  6.75330473E-03  1.10276213E-02
  2.68129760E-02 -1.17277657E-01  5.64165006E-02  1.02882767E-01 -5.97532059E-03
 -2.56482723E-03 -2.06456021E-01 -2.42647140E+00  8.34559419E-02 -2.34968501E+00
  6.76701421E-01  7.53506213E+00 -2.93784405E-03  1.82364360E+00  4.39437558E-01
  1.37895108E-02  1.09585794E-01 -2.51233466E-01  4.81370830E-02 -1.36305893E-01
 -6.75346411E-03 -1.10275536E-02  2.68099778E-02 -1.17275213E-01 -5.64085007E-02
 -1.02897380E-01 -5.97142625E-03 -2.56947385E-03  2.06452876E-01  2.42653957E+00
  8.35083220E-02 -2.34967482E+00 -6.76639363E-01 -7.53504293E+00 -2.94252607E-03
  1.82363832E+00 -4.39446521E-01 -1.37737680E-02  1.09569105E-01 -2.51224876E-01
 -4.81328573E-02  1.36315833E-01 -1.07576952E-02  2.98987360E-01 -3.00563254E-01
  1.96526818E-02  3.83083718E-01 -3.21943610E-01 -5.80374017E-02  3.49882278E-01
 -4.52384298E-01 -7.04223010E-02  2.50166274E-01 -2.23376246E-01  5.80369913E-02
 -3.49913657E-01  4.52364902E-01 -7.04205312E-02  2.50158615E-01  2.23365654E-01
  1.07497998E-02 -2.98947568E-01  3.00553015E-01  1.96573281E-02  3.83083779E-01
  3.21932683E-01 -6.17358000E-07 -1.65866200E-06  2.60525865E-02 -1.09013460E-02
  2.77392000E-06  2.48738240E-05 -8.94170583E-02  4.12090091E-01 -2.42013500E-06
 -4.31357770E-05 -8.46627887E-01  2.08159042E+00  1.27903032E-04 -7.65699500E-06
 -8.49908180E-02  4.14243472E-01  9.35617300E-06  7.55364000E-06  1.72549221E-01
 -1.64139242E-01  2.26827430E-05  1.96759410E-05 -4.72155539E-02 -9.78413084E-02
  5.57894927E-03  3.00862463E-03 -2.53291032E-02  8.93576599E-01  2.09231814E-02
 -8.17247275E-02 -9.17780769E-03 -2.24562902E+00 -1.65847768E-01  9.25307020E-01
 -5.23551803E-01  9.02792216E-01  2.26476361E-01  4.22678384E-02 -1.11703813E+00
 -2.06795243E-02 -1.12545703E-02  2.57949426E-02 -5.52884587E-02 -3.53412849E-02
  4.72148773E-02  9.78399191E-02  5.57832155E-03  3.00946580E-03  2.53363097E-02
 -8.93567266E-01  2.09181840E-02 -8.17177983E-02  9.19288712E-03  2.24565647E+00
 -1.65831724E-01  9.25332547E-01  5.23569499E-01 -9.02729557E-01  2.26475917E-01
  4.22920420E-02  1.11704844E+00  2.06773909E-02 -1.12536704E-02  2.57916916E-02
  5.52873694E-02  3.53400181E-02 -4.77890000E-07 -1.05326900E-06 -2.06885166E-02
 -1.38035032E-03  1.06562600E-06  1.19395480E-05 -5.92995608E-02  5.68555096E-02
  3.27940100E-06 -6.79393140E-05  2.06798300E-01 -4.69679207E-01  1.70042490E-05
 -6.06876970E-05 -1.60150028E-02  4.94194112E-02  1.90012280E-05  8.10209000E-07
 -6.55490952E-03 -5.16444185E-02  2.59185900E-06  2.07182400E-06  6.72535921E-03
  1.14527284E-02 -1.56058370E-03 -7.01306885E-03 -9.42497391E-02  1.88982238E-02
 -4.74703199E-02 -5.62861076E-02 -1.79979459E-01 -1.09642405E+00 -7.10817917E-01
  4.54059450E-01 -3.13529187E-01 -7.13501019E-01  6.81382918E-02  1.09925912E-02
 -1.25708381E-01 -3.79315360E-01  1.40850652E-01  7.36654428E-02  1.73844222E-03
  5.54839401E-02  6.72533633E-03  1.14525810E-02  1.56086451E-03  7.01156613E-03
 -9.42549139E-02  1.88992816E-02  4.74680711E-02  5.62873500E-02 -1.79968405E-01
 -1.09637681E+00  7.10806328E-01 -4.54113981E-01 -3.13562508E-01 -7.13725301E-01
 -6.81481556E-02 -1.09415395E-02 -1.25723145E-01 -3.79323192E-01 -1.40861396E-01
 -7.36656778E-02  1.74894019E-03  5.54818485E-02 -3.80620902E-02  4.02126944E-01
  2.98118554E-02 -1.18615875E-02 -2.29943903E-03 -1.28893737E-01  9.33688427E-02
 -4.08027831E-01  3.91158837E-01 -6.18099244E-02  2.22374378E-03  1.22885800E-01
  9.33751141E-02 -4.08046787E-01  3.91197699E-01  6.18081730E-02 -2.21789000E-03
  1.22911591E-01 -3.80622844E-02  4.02121293E-01  2.98010505E-02  1.18659934E-02
  2.30840691E-03 -1.28890299E-01  1.20466297E-02  2.65724542E-02 -1.56124000E-07
 -2.05571700E-06 -7.09399360E-02 -3.68092788E-01 -1.24447800E-06  5.49831600E-06
  7.30373566E-01  3.88441418E+00 -1.01638300E-06  1.15050970E-05  2.67075708E+00
  1.17390705E+00  5.76296000E-06  6.07959800E-06 -4.76663886E-01  3.14424143E-01
  3.86160000E-08  2.85900900E-06 -4.98736825E-01 -3.27793305E-01  3.85482676E-02
  8.10415190E-02  1.79731640E-02  3.38947233E-02 -4.38394339E-02 -7.43960376E-01
 -2.00536950E-02  1.53931864E-01 -4.40143808E-02  1.78215172E+00  1.95278735E-01
 -6.25527034E-01 -7.77830190E-01 -3.93830475E-01 -2.13053148E-01  4.69341600E-01
 -6.71022497E-01  2.18361311E-02  5.67400087E-02 -3.28490098E-02  1.57883656E-02
  4.79178087E-02  3.85501923E-02  8.10453857E-02 -1.79721166E-02 -3.38970433E-02
 -4.38375921E-02 -7.43992152E-01  2.00538413E-02 -1.53938560E-01 -4.40114507E-02
  1.78220551E+00 -1.95278553E-01  6.25552152E-01 -7.77832893E-01 -3.93879405E-01
  2.13048646E-01 -4.69347928E-01 -6.70989170E-01  2.18346615E-02 -5.67369588E-02
  3.28495322E-02  1.57895709E-02  4.79180801E-02 -4.97635305E-02 -1.02373553E-01
 -3.20170000E-08 -2.66037000E-07  3.71359907E-03  9.95300526E-01 -3.33378000E-07
 -1.06598000E-07  1.67440376E-01 -4.04780669E+00  3.48433700E-06 -4.57037800E-06
  1.26077534E+00 -3.37499684E-01 -3.90847200E-06  2.79463500E-06  1.52648039E-01
 -3.90503620E-03  5.29075000E-07 -1.17275900E-06 -5.39522577E-02 -4.06891792E-02
 -4.65123794E-03 -9.90016814E-03  3.95687362E-02  6.26412610E-02 -4.55331209E-02
  1.49256386E-01  1.41792753E-01 -3.82952178E-02 -8.30776993E-02 -5.99935237E-01
 -3.31240162E-01  4.17494395E-01 -8.52645808E-01  9.27512561E-02 -6.08800235E-03
  9.46476575E-03  1.71612495E-01 -2.34890723E-01  2.92136848E-01 -7.19315360E-02
  9.39661471E-02 -2.59065696E-01  4.65082926E-03  9.89928182E-03  3.95674209E-02
  6.26441258E-02  4.55367092E-02 -1.49247175E-01  1.41792714E-01 -3.83066414E-02
  8.30595066E-02  5.99891181E-01 -3.31161404E-01  4.17501592E-01  8.52649352E-01
 -9.27259506E-02 -6.08097141E-03  9.45562603E-03 -1.71606015E-01  2.34894334E-01
  2.92128562E-01 -7.19208961E-02 -9.39575436E-02  2.59069431E-01  4.23118627E-02
  3.74095523E-02 -6.55493828E-02  1.18120570E-01  1.08194384E-01 -1.65436387E-01
  2.28509971E-03 -3.96124905E-02 -5.82896806E-02  1.82839839E-01 -4.90295201E-01
  4.58492898E-01 -2.28334576E-03  3.95891535E-02  5.82677454E-02  1.82842865E-01
 -4.90299253E-01 -4.58503074E-01 -4.23133346E-02 -3.73757465E-02  6.55536332E-02
  1.18114337E-01  1.08192180E-01  1.65427891E-01  2.95260000E-08  1.52308000E-07
  3.81612667E-02  4.81963616E-02  2.03958300E-06 -1.23525900E-06 -3.20637909E-02
  1.39316973E-01  1.11510050E-05  1.61769130E-05 -1.55119001E-01  2.66236410E-01
  8.55161210E-05 -1.73732310E-05 -1.50705662E-01  1.02014847E-01  9.52605300E-06
  9.29565100E-06  6.58259642E-02 -1.47897766E-01 -3.62733200E-06 -1.25186200E-06
 -1.28062820E-02 -2.88902342E-02 -3.58056199E-02  2.36831671E-02  9.24167514E-03
  3.29129687E-01 -6.20598092E-03  3.33579129E-02  2.26774715E-03 -1.21369587E+00
 -1.92175138E-01  1.70371019E-01  1.18717278E-01 -9.28555909E-02  2.08003060E-01
 -1.49886944E-01  3.81468354E-01 -2.45394897E-02 -1.02820439E-01 -6.93441395E-03
 -7.73036455E-03 -2.74926990E-02  1.28092075E-02  2.88962012E-02 -3.58050248E-02
  2.36813929E-02 -9.23624115E-03 -3.29180741E-01 -6.20370170E-03  3.33514396E-02
 -2.25433838E-03  1.21381282E+00 -1.92184031E-01  1.70415725E-01 -1.18761394E-01
  9.28897967E-02  2.08008021E-01 -1.49883198E-01 -3.81474163E-01  2.45405684E-02
 -1.02820900E-01 -6.93508614E-03  7.73061114E-03  2.74937527E-02 -2.97308000E-07
 -6.47449000E-07 -7.74003487E-03  3.64898757E-04  1.05434200E-06  8.49176200E-06
 -1.05459621E-02  1.81344032E-02  5.72230700E-06 -6.46893400E-05  1.24284936E-02
 -4.51445413E-02  1.69948860E-05 -3.40378390E-05  1.06509393E-01 -2.09360465E-01
  1.03093280E-05  1.23780000E-07 -1.13350517E-02 -6.30791876E-03 -3.94789000E-07
 -2.59945000E-07 -9.27214922E-03 -2.02830890E-02  1.50281115E-02 -2.15323517E-02
 -4.74816348E-02  2.00516324E-01 -2.58776095E-02  1.87379520E-01  1.23141825E-01
 -2.74111118E-01  1.28728943E-01  6.30181415E-02 -3.30234241E-01  2.84005170E-01
  2.92745765E-01 -1.58705117E-02  1.15176853E-01  3.73117101E-01  2.79122764E-01
  1.74541675E-02  1.49887846E-01  5.32738002E-02 -9.27265051E-03 -2.02841720E-02
 -1.50263999E-02  2.15294600E-02 -4.74860780E-02  2.00526860E-01  2.58824751E-02
 -1.87378498E-01  1.23147996E-01 -2.74133008E-01 -1.28731639E-01 -6.30320367E-02
 -3.30273745E-01  2.83979560E-01 -2.92749430E-01  1.58798191E-02  1.15167989E-01
  3.73114157E-01 -2.79121323E-01 -1.74420316E-02  1.49885149E-01  5.32788066E-02
 -1.06362624E-01  3.34955196E-01 -3.72371414E-01  7.14527753E-02 -2.47179496E-01
  3.09222964E-01  1.18317095E-01 -1.33247528E-01  4.57903518E-01  3.90192153E-02
 -2.01486688E-01  4.75016574E-01  1.18318194E-01 -1.33244515E-01  4.57902672E-01
 -3.90161583E-02  2.01487296E-01  4.75019457E-01 -1.06367963E-01  3.34967791E-01
 -3.72395165E-01 -7.14544224E-02  2.47190781E-01  3.09233127E-01 -8.85166891E-03
 -1.39476435E-02  1.41733300E-06 -1.35686000E-07  8.37606769E-02 -1.87511837E-01
 -1.17810400E-06  4.48120000E-07 -2.10801332E-01  2.49277204E+00  5.59773000E-07
 -3.93634000E-07 -2.05318641E+00 -4.67649754E-01  4.43198000E-07  6.27109000E-07
  2.71237087E-01  3.14080855E-01 -3.14134500E-06  8.12693000E-07 -3.15835130E-01
 -2.56157074E-01 -2.61969274E-03 -8.77105680E-03  7.54266015E-03  3.14937880E-02
  1.74157756E-02  2.17732105E-01 -2.29675115E-02  1.02708132E-02  5.65521810E-02
 -1.28140953E+00 -1.24450858E-01  8.38412922E-01 -2.29035167E-01 -6.39444010E-01
 -6.74322125E-02  7.91436857E-02  1.03909700E-01  1.52170233E-02  2.34871044E-02
  7.82642673E-02 -9.08382955E-02 -3.79645736E-02 -2.61933549E-03 -8.77038412E-03
 -7.54182818E-03 -3.14952641E-02  1.74167737E-02  2.17727941E-01  2.29707386E-02
 -1.02730843E-02  5.65530488E-02 -1.28141973E+00  1.24442936E-01 -8.38410220E-01
 -2.29033123E-01 -6.39476610E-01  6.74410466E-02 -7.91473100E-02  1.03927100E-01
  1.52168759E-02 -2.34877807E-02 -7.82654491E-02 -9.08390571E-02 -3.79647195E-02
  2.86948552E-02  5.94388035E-02  3.37841000E-07 -3.21550000E-08  3.62038227E-02
 -4.97561107E-01  7.03499000E-07 -1.74843000E-07  1.59555836E-01  9.79970935E-01
  4.19684000E-07  9.40250000E-08 -2.26498761E-01  1.94069127E-01 -2.37786700E-06
  1.80242800E-06 -7.86945669E-02 -5.79935394E-03  7.76670000E-07 -2.58960000E-08
 -1.93607473E-02 -2.43918184E-02 -1.89721105E-02 -3.62810631E-02  6.31201909E-03
  1.09192970E-01 -4.91336891E-02  1.72864784E-01 -8.06881610E-02  1.97447862E-03
  1.14520339E-01  9.26265145E-01  1.56673689E-01  6.84595602E-01 -4.36777976E-01
  2.61303645E+00  3.27556010E-02  7.60639078E-01 -2.67844591E-01 -7.78533938E-02
  4.82301275E-03 -3.37242529E-01 -3.03166298E-01  3.89844812E-02  1.89720669E-02
  3.62809664E-02  6.31274430E-03  1.09193132E-01  4.91328608E-02 -1.72864738E-01
 -8.06941696E-02  1.97461790E-03 -1.14516654E-01 -9.26250924E-01  1.56675160E-01
  6.84599450E-01  4.36777624E-01 -2.61301107E+00  3.27571034E-02  7.60636571E-01
  2.67852902E-01  7.78590932E-02  4.82023062E-03 -3.37242973E-01  3.03165323E-01
 -3.89872882E-02 -1.50970148E-01  3.00861062E-01 -7.35877696E-01  2.67650448E-02
 -1.69845856E-01  9.79409570E-02 -6.60580018E-02  1.87926264E-01 -3.44336587E-01
 -1.45791552E-01 -3.93222216E-02  7.29178905E-02  6.60570944E-02 -1.87923555E-01
  3.44328623E-01 -1.45794803E-01 -3.93195191E-02 -7.29136056E-02  1.50971044E-01
 -3.00864389E-01  7.35874463E-01  2.67594794E-02 -1.69845745E-01 -9.79362102E-02
 -1.03759000E-07 -1.87165000E-07  2.00451997E-03 -1.63246804E-01  1.14713200E-06
 -6.68696000E-07 -6.33603308E-02  3.37585282E-01 -4.57752900E-06  1.96840100E-06
  2.31721405E-01 -9.20588795E-01 -3.30871790E-05 -2.05161600E-05  9.98510332E-02
 -3.22695991E-01  7.16164400E-06  1.68738900E-06 -1.08908428E-01  7.83177411E-01
 -1.60233300E-06  2.94770000E-08 -2.52889569E-02 -4.91189030E-02  2.41398180E-02
 -5.32704101E-02  6.56675789E-02  3.12198850E-01  4.40499962E-02 -1.95282246E-01
  2.18639989E-01 -4.42862268E-02  2.99824766E-02  1.39502438E-01 -4.58780988E-01
  8.94432136E-01 -4.80277237E-02 -5.55879410E-01  8.33719321E-01  2.89598462E-03
  3.02927463E-02  6.42930144E-02 -1.96499145E-03  4.38815217E-03  2.52883392E-02
  4.91175750E-02  2.41397948E-02 -5.32705461E-02 -6.56679219E-02 -3.12184865E-01
  4.40499214E-02 -1.95281495E-01 -2.18641615E-01  4.42402493E-02  2.99879932E-02
  1.39483190E-01  4.58790582E-01 -8.94442803E-01 -4.80282149E-02 -5.55878185E-01
 -8.33713859E-01 -2.89617271E-03  3.02927879E-02  6.42919388E-02  1.96331946E-03
 -4.38865635E-03  4.10348000E-07  8.55367000E-07  1.66183496E-02 -9.42772005E-02
  3.40811000E-07 -7.91615500E-06  3.30379260E-02 -1.75994725E-01  6.82935000E-07
  2.64542590E-05 -4.32765953E-02  6.23556772E-02 -7.92730000E-06  9.71659400E-06
  7.34971332E-02  3.09137078E-03 -3.39659600E-06 -1.16037000E-07  2.39690909E-02
 -1.66141675E-01 -1.88412000E-07 -1.69916000E-07 -1.22112374E-02 -2.60168204E-02
 -1.05709627E-02  1.11502971E-01 -1.21889498E-01  2.91620923E-01 -6.20745336E-02
 -4.80012357E-02 -7.88525972E-02 -1.44468863E+00 -7.10248486E-02  1.20639447E-02
 -1.18033506E+00  2.89233639E+00 -1.44200718E-02  4.03411129E-01  5.31477264E-01
 -1.04482294E-01 -2.15873602E-01 -4.06355576E-01 -1.62808709E-01  7.91904099E-02
  1.22112155E-02  2.60167519E-02 -1.05702184E-02  1.11503269E-01  1.21887241E-01
 -2.91620759E-01 -6.20782569E-02 -4.80009191E-02  7.88585738E-02  1.44469274E+00
 -7.09713390E-02  1.20573189E-02  1.18033829E+00 -2.89231733E+00 -1.44155641E-02
  4.03407720E-01 -5.31470231E-01  1.04484886E-01 -2.15880262E-01 -4.06355476E-01
  1.62810070E-01 -7.91864832E-02 -6.80821882E-02  2.18620617E-01 -3.37174303E-01
  1.15482664E-01 -2.78321107E-01  2.09303829E-01 -7.74175924E-02  3.63983460E-01
 -5.82986877E-01 -1.26772767E-01 -4.50688991E-02 -2.09990012E-02  7.74181452E-02
 -3.64000824E-01  5.82973523E-01 -1.26776295E-01 -4.50626043E-02  2.10070268E-02
  6.80819780E-02 -2.18601609E-01  3.37182716E-01  1.15478638E-01 -2.78318263E-01
 -2.09295213E-01 -1.80238000E-07 -3.69190000E-07 -7.86847417E-02  1.33475927E-01
  1.41472700E-06 -3.93514000E-07  3.03823934E-02  9.78382240E-03 -2.09623500E-06
  4.63894910E-05 -6.86099315E-01  2.18201264E+00 -5.55282700E-06 -1.58000210E-05
  3.33446877E-02  8.41526933E-01  8.28878500E-06  5.82011100E-06  3.40407280E-01
 -7.31617930E-01 -3.51094000E-06 -1.82891800E-06 -6.41900451E-03 -1.84999017E-02
 -1.60492776E-03  8.84670594E-02 -2.47501087E-02  3.48326722E-01 -4.24775259E-02
  1.36369059E-01 -1.29901546E-01 -2.09356732E+00 -5.98355188E-02  4.79265143E-01
  1.76645262E-01 -1.72643522E+00 -3.23009239E-01  4.45237540E-01 -3.69903334E-01
 -2.12098858E-02  5.86136885E-02  4.07717335E-02 -8.95674533E-02 -3.33167714E-02
  6.41832232E-03  1.84984674E-02 -1.60522301E-03  8.84665793E-02  2.47491673E-02
 -3.48312427E-01 -4.24778192E-02  1.36369687E-01  1.29899460E-01  2.09352971E+00
 -5.98271601E-02  4.79244023E-01 -1.76643877E-01  1.72641824E+00 -3.23000274E-01
  4.45230182E-01  3.69896932E-01  2.12090367E-02  5.86128686E-02  4.07699253E-02
  8.95650172E-02  3.33161463E-02  1.89524000E-07  3.92868000E-07 -3.76000953E-02
  6.34128313E-02  7.75812000E-07 -2.39869300E-06 -8.17338882E-02  1.56733068E-01
  3.07911800E-06 -7.02570500E-06  1.28167693E-01 -3.09535385E-01  2.98451300E-06
 -4.29840000E-07  7.74369762E-02 -3.15733109E-01 -1.07432900E-06  2.01900000E-07
 -4.85781735E-02  8.21261809E-02 -2.22108000E-07 -9.14570000E-08  1.16041223E-02
  2.56967679E-02 -1.06190049E-01  6.54023622E-02 -4.22270189E-03 -3.21363860E-01
  1.98798164E-01 -3.66101215E-02 -2.51969121E-01 -1.01270116E-01 -9.04004125E-01
  6.44974853E-01  3.48950351E-01  9.19999881E-02 -4.80706700E-01 -6.13850827E-02
  1.01063573E-01  1.97278980E-01  2.52860300E-02  1.86413216E-01  8.59053207E-02
 -1.46388714E-01  1.16044662E-02  2.56974883E-02  1.06192491E-01 -6.54011466E-02
 -4.22126823E-03 -3.21371427E-01 -1.98806176E-01  3.66103840E-02 -2.51971898E-01
 -1.01235047E-01  9.04010572E-01 -6.44980703E-01  3.48967894E-01  9.21039270E-02
  4.80713446E-01  6.13607816E-02  1.01090120E-01  1.97289329E-01 -2.52848700E-02
 -1.86417992E-01  8.59052737E-02 -1.46388183E-01  9.99228461E-02 -7.01565891E-02
  7.95169339E-01  6.57765461E-02 -1.90074045E-01  1.25023363E-01 -2.04187082E-01
  2.55149602E-01 -5.49002006E-01  1.54649749E-01 -3.16755110E-01  9.88527190E-02
 -2.04191154E-01  2.55155843E-01 -5.49020240E-01 -1.54651334E-01  3.16751460E-01
  9.88526226E-02  9.99319657E-02 -7.01759474E-02  7.95193559E-01 -6.57837435E-02
  1.90075025E-01  1.25030865E-01  2.07246509E-03 -7.83832102E-03  1.34332000E-07
  1.22212100E-06 -3.08288355E-01  5.12494925E-01 -4.09009000E-07  1.21599800E-06
  2.50336306E-01  4.57805460E-02  4.85729000E-07  1.13876710E-05  2.18931568E+00
 -2.84363595E-01 -4.28207500E-06 -3.68447700E-06  8.45600327E-02 -7.07235297E-01
 -7.65993000E-07 -2.18777200E-06  1.50182030E-01  3.04598088E-02  1.33972909E-02
  2.83938352E-02  1.11410128E-02 -2.03373912E-02 -2.34509138E-02 -2.91847219E-01
  8.02327745E-03 -6.61064410E-02  1.01534027E-01  1.09287216E+00  7.66990140E-02
 -1.65783619E-01 -4.39232802E-01 -8.36810152E-02 -1.93058315E-01  9.12254849E-02
 -6.52648254E-02  6.07302935E-02  4.55713473E-02 -4.65212926E-02  7.58757196E-02
  3.90957779E-02  1.33973818E-02  2.83940986E-02 -1.11409719E-02  2.03383203E-02
 -2.34513876E-02 -2.91851959E-01 -8.02149885E-03  6.61068647E-02  1.01532528E-01
  1.09289884E+00 -7.67095533E-02  1.65792446E-01 -4.39230229E-01 -8.36509335E-02
  1.93059924E-01 -9.12280881E-02 -6.52718439E-02  6.07315344E-02 -4.55735936E-02
  4.65218174E-02  7.58765120E-02  3.90970189E-02 -6.10644784E-02 -1.26660313E-01
  1.02030000E-08  1.73916000E-07 -1.06137205E-01  1.09633882E+00 -2.62000000E-08
  6.78729000E-07 -3.81809763E-01 -2.26392778E+00 -2.30706000E-07 -2.87064000E-06
  8.82449763E-01 -1.12349743E-01  2.08817600E-06 -6.84346000E-07 -1.42340959E-01
 -5.70812132E-03 -8.53720000E-08 -1.10771000E-07  3.95615647E-02  5.52967795E-03
 -6.90912535E-03 -1.24522598E-02 -1.44462394E-01 -2.79832584E-02 -1.15446928E-01
  1.24096551E-01  1.28399346E-01 -1.78889845E-02  6.65750608E-02  3.62222430E-01
 -1.03783377E-01 -6.57021270E-01 -4.01352119E-01  1.19053705E+00 -2.06256874E-01
  5.06396102E-02  3.25700831E-01  5.47555972E-02  3.30774681E-01  1.89089352E-01
 -2.87738286E-01 -3.76576084E-01 -6.90768487E-03 -1.24497773E-02  1.44468837E-01
  2.80103369E-02 -1.15451851E-01  1.24105544E-01 -1.28385913E-01  1.78910452E-02
  6.65665181E-02  3.61947241E-01  1.03787022E-01  6.57187241E-01 -4.01431011E-01
  1.19104786E+00  2.06257834E-01 -5.07591885E-02  3.25751483E-01  5.48336409E-02
 -3.30788759E-01 -1.89083560E-01 -2.87693231E-01 -3.76560933E-01 -4.67064213E-02
 -7.47444460E-02 -3.13542793E-01  3.34391482E-01  5.21652482E-01 -2.82037626E-02
 -1.42297055E-01  3.37003364E-01 -8.60155309E-01 -2.47621387E-01  1.59176398E-01
  3.45584512E-01 -1.42299291E-01  3.37026615E-01 -8.60206484E-01  2.47640225E-01
 -1.59168307E-01  3.45620701E-01 -4.67052692E-02 -7.47311929E-02 -3.13578637E-01
 -3.34414124E-01 -5.21640124E-01 -2.81629118E-02  8.16383772E-03  1.71520072E-02
 -1.47297000E-06  6.72023100E-06  4.61317146E-02 -1.06537771E-01 -2.84917000E-07
 -3.52428500E-06 -9.05926089E-02 -2.41323906E+00 -2.42649300E-06  3.53675340E-05
 -1.69812518E+00 -1.91621205E+00  2.40149600E-06 -5.43913700E-06  5.50097046E-01
 -1.82844706E-01 -1.66822100E-06 -7.27301400E-06  1.37782736E-01  3.98911911E-02
  2.87595843E-03  6.10192689E-03  2.73906863E-02 -3.76664701E-04  5.44454977E-03
 -5.36835271E-02 -9.18134622E-03  1.52644109E-02 -1.82747175E-03  4.61054313E-02
  9.62450617E-02 -1.28193381E-01  2.93481780E-01  1.23122947E-01 -8.32890857E-02
 -2.22395708E-01  1.85755179E-01  4.28158648E-02  7.82110861E-02  1.73625337E-02
 -3.46994091E-02  2.80469929E-02  2.87346922E-03  6.09706027E-03 -2.73930573E-02
  3.81228855E-04  5.43891963E-03 -5.36486483E-02  9.17840176E-03 -1.52619486E-02
 -1.84674417E-03  4.60424434E-02 -9.62434845E-02  1.28202490E-01  2.93541051E-01
  1.23200492E-01  8.32887229E-02  2.22377707E-01  1.85717888E-01  4.28172347E-02
 -7.82124762E-02 -1.73537840E-02 -3.46946650E-02  2.80514579E-02  8.80388979E-03
  1.91179657E-02  2.34338000E-07  9.19674000E-07 -1.49521784E-02 -2.45458040E-01
  1.95752000E-07  1.82735600E-06 -8.02773572E-02  1.66971692E+00 -4.48983000E-07
 -5.03942100E-06 -5.79154006E-01  1.28466468E+00 -8.63655000E-07 -8.98908300E-06
 -4.64939110E-01 -1.00066747E-02  5.10601000E-07  1.54220800E-06  1.24729768E-02
 -8.74741100E-03  1.46005663E-02  2.55509544E-02 -3.46563945E-02 -2.53097149E-01
 -3.37716672E-02  2.20699099E-02 -4.89936183E-02 -3.79977234E-02 -1.37312732E-01
 -2.08975452E+00 -6.32880881E-02 -1.26672386E+00 -5.85794988E-01  4.07584583E+00
 -2.70667890E-02  9.64951222E-01  4.01434004E-01  7.13760729E-01  7.45712026E-02
 -5.62954234E-02  4.53570406E-01  5.51957565E-02 -1.46011093E-02 -2.55517075E-02
 -3.46474158E-02 -2.53095615E-01  3.37525877E-02 -2.20644059E-02 -4.89993803E-02
 -3.79931183E-02  1.37321546E-01  2.08980651E+00 -6.32499207E-02 -1.26665099E+00
  5.85749321E-01 -4.07568872E+00 -2.70536884E-02  9.64948257E-01 -4.01393530E-01
 -7.13743917E-01  7.45379236E-02 -5.63274368E-02 -4.53612196E-01 -5.52138995E-02
  4.80635031E-02  3.46696834E-03 -1.58988711E-01  2.09949377E-01 -1.32756377E-01
  3.13596935E-01 -5.39543299E-02  2.02713025E-01 -4.48587893E-01 -1.41742296E-01
 -1.24395306E-01  2.76029538E-01  5.39395468E-02 -2.02696580E-01  4.48492153E-01
 -1.41705305E-01 -1.24425066E-01 -2.75986775E-01 -4.80783221E-02 -3.44321924E-03
  1.58937793E-01  2.09904693E-01 -1.32813831E-01 -3.13585264E-01  4.12440000E-07
  7.22826000E-07  4.16813855E-02 -1.02010499E-01 -1.16792200E-06  1.03209700E-06
 -1.61151195E-02  5.02349922E-02 -4.69534000E-06 -1.37397729E-04  8.11067366E-02
 -6.89210972E-01 -9.09085040E-05 -1.27156810E-04  4.36393063E-02  1.03169717E-01
  3.67963680E-05 -2.20126260E-05  1.01510057E-03  1.04045206E-01  5.04616400E-06
  3.51001600E-06 -2.44802008E-02 -4.77646398E-02  2.50641242E-02 -3.86412270E-02
 -6.27288415E-02  3.43442411E-01  3.15165334E-02 -2.38351022E-02 -1.97421549E-01
 -5.30778804E-01 -1.05338228E-02 -7.47184617E-02  5.74461123E-01  8.10461120E-01
  2.82129994E-02  6.10204126E-02 -3.13951371E-01  5.20921578E-03  3.04254264E-02
 -7.10523007E-02  3.39863409E-02  4.52103066E-02  2.44806453E-02  4.77655828E-02
  2.50626468E-02 -3.86409022E-02  6.27274028E-02 -3.43450498E-01  3.15182724E-02
 -2.38356032E-02  1.97422920E-01  5.30790761E-01 -1.05385579E-02 -7.47079880E-02
 -5.74442047E-01 -8.10452418E-01  2.82224043E-02  6.10476443E-02  3.13982279E-01
 -5.20436278E-03  3.04206087E-02 -7.10519836E-02 -3.39870530E-02 -4.52081949E-02
 -1.68484000E-07 -3.03137000E-07 -3.77012957E-03 -1.28328293E-02 -2.33936100E-06
 -2.39885300E-06 -5.70427020E-03 -2.60912061E-02 -1.05133140E-05  8.15730050E-05
  1.43357143E-02  1.05850309E-01 -2.57471620E-05  7.69019240E-05 -4.18798229E-02
  1.35250108E-01 -2.98139980E-05 -8.96564000E-07  4.45934875E-03 -2.10844474E-02
  4.30361000E-07 -7.33790000E-08  4.64357965E-03  1.32038816E-02  2.45738408E-01
  4.00370359E-02 -1.14984748E-01 -1.25000858E-01 -2.69702963E-01 -4.10692086E-02
  5.36443568E-02  1.62341626E-01  2.08592215E-01 -1.44907685E-01 -2.05998833E-01
 -8.30984409E-03  5.52105819E-01 -1.19790681E-01 -8.22241751E-02  2.01391190E-01
 -1.20509832E-01  1.79516390E-01 -2.74919946E-01  5.43248832E-01  4.64362043E-03
  1.32041949E-02 -2.45728713E-01 -4.00211810E-02 -1.14986324E-01 -1.24999659E-01
  2.69698651E-01  4.10561327E-02  5.36404391E-02  1.62232104E-01 -2.08581152E-01
  1.44973158E-01 -2.06037756E-01 -8.02895598E-03 -5.52096009E-01  1.19731114E-01
 -8.22177138E-02  2.01416946E-01  1.20498250E-01 -1.79528466E-01 -2.74919689E-01
  5.43257738E-01 -2.53886573E-01  5.40722033E-01 -7.38221039E-01  2.27129906E-01
 -2.12481989E-02  2.89316325E-01  1.66388815E-01 -3.92520434E-01  5.87878983E-01
 -1.38655043E-01  4.58103275E-01  5.93278667E-02  1.66364909E-01 -3.92470427E-01
  5.87810854E-01  1.38666023E-01 -4.58108035E-01  5.93455667E-02 -2.53892236E-01
  5.40738260E-01 -7.38245609E-01 -2.27147704E-01  2.12428858E-02  2.89333109E-01
 -1.18979632E-03 -5.45993308E-03 -5.86424000E-07  2.84806900E-06 -1.15490676E-01
  1.79310392E-01 -5.81587000E-07 -1.47782000E-06  6.24105585E-03 -4.10818947E-01
 -7.02184000E-07  1.76290160E-05 -1.37514931E-01  9.77568894E-02 -3.10105900E-06
 -3.08177400E-06 -1.23762508E-01 -3.80379263E-01 -2.51811300E-06 -3.69885000E-07
 -1.09064917E-01  7.50293324E-02  3.47700902E-03  7.26405123E-03 -1.47531098E-02
  2.16654155E-03 -2.80301872E-02 -6.46064756E-02  2.67879293E-02 -2.97343805E-03
  3.14190232E-02  1.58456755E-01 -1.85233904E-01 -1.65580949E-02 -2.30052305E-01
 -1.23807158E-02  2.01878110E-01 -1.05137520E-01  2.78919559E-01 -1.71111446E-02
 -9.90931788E-02 -3.81713444E-02  5.94779703E-02 -1.43123603E-02  3.47599220E-03
  7.26204611E-03  1.47521925E-02 -2.16386361E-03 -2.80335924E-02 -6.45907806E-02
 -2.67889945E-02  2.97372845E-03  3.14086453E-02  1.58426205E-01  1.85236688E-01
  1.65611894E-02 -2.30015976E-01 -1.23645998E-02 -2.01880048E-01  1.05126260E-01
  2.78912382E-01 -1.71095074E-02  9.90939354E-02  3.81784528E-02  5.94840686E-02
 -1.43108401E-02 -1.59236597E-02 -3.29870717E-02  5.16515000E-07  6.64960000E-08
 -4.37198201E-02  2.58815241E-01  5.52490000E-07  4.07226000E-07 -1.80648231E-01
 -6.46491175E-03 -5.28075000E-07 -3.04279500E-06  8.50798649E-02  1.45711595E-02
  1.21937800E-06 -2.04448200E-06  2.40607299E-03 -1.76329062E-02  1.00096900E-06
 -2.89033000E-07 -2.32358724E-02  2.57355739E-02  2.08002408E-02  3.52155562E-02
  1.36759133E-01  7.73182180E-02  5.03761163E-02 -2.63221644E-01 -2.11071006E-01
 -3.11184036E-01 -2.40657384E-02  1.72882342E+00  2.43777947E-01  8.75277105E-01
  8.68259396E-01 -6.38566136E+00  1.61354458E-01 -1.37198942E+00 -3.87092957E-01
  1.10360767E-01 -5.67512741E-02 -4.32564920E-01  5.93104113E-01 -2.34230125E-02
 -2.08002889E-02 -3.52157747E-02  1.36767065E-01  7.73192573E-02 -5.03697064E-02
  2.63225481E-01 -2.11077533E-01 -3.11185718E-01  2.40630418E-02 -1.72883790E+00
  2.43771439E-01  8.75266254E-01 -8.68252280E-01  6.38563577E+00  1.61366113E-01
 -1.37199530E+00  3.87092236E-01 -1.10372214E-01 -5.67615484E-02 -4.32556583E-01
 -5.93092014E-01  2.34135791E-02  1.05177396E-01 -2.66293646E-01  5.07765033E-01
 -3.40575516E-01 -3.16008582E-01 -1.43282258E-01  4.41736190E-01 -1.00290732E+00
  1.36070285E+00  1.74669906E-01 -2.60933271E-01 -2.95854306E-01 -4.41735808E-01
  1.00291566E+00 -1.36070235E+00  1.74659752E-01 -2.60916553E-01  2.95852620E-01
 -1.05168581E-01  2.66273811E-01 -5.07743214E-01 -3.40565121E-01 -3.16007154E-01
  1.43270358E-01 -4.63070000E-08  2.27250000E-08 -3.78437443E-02  2.08369223E-02
  1.87753800E-06 -4.04692600E-06  2.66965340E-02 -7.16590203E-02  2.38828900E-06
  2.57006010E-05  1.31459327E-01  4.33059265E-02  2.56276830E-05  2.54043650E-05
 -5.89670111E-02 -3.89994447E-01 -6.49039000E-06  1.24645390E-05 -1.07608434E-01
  1.23549060E-01  2.17711200E-06  1.89218000E-07  2.69935973E-03  7.57948372E-03
  1.36672099E-03  3.44685791E-02 -4.63420175E-03 -1.52232844E-01  1.01011623E-02
 -7.72047851E-03  1.22638991E-02  8.99778681E-01  8.24493789E-02 -1.60305514E-01
 -3.96934963E-01  3.74977668E-02  5.80894907E-04 -1.89308899E-01  4.83270363E-02
 -1.00947547E-01  4.85131871E-02  1.16762721E-01 -9.00126482E-02 -1.42712425E-02
 -2.69942867E-03 -7.57959921E-03  1.36510347E-03  3.44684695E-02  4.63551873E-03
  1.52232478E-01  1.01005202E-02 -7.72103100E-03 -1.22653665E-02 -8.99768480E-01
  8.24471279E-02 -1.60297737E-01  3.96941837E-01 -3.75010906E-02  5.82295241E-04
 -1.89316340E-01 -4.83433799E-02  1.00946753E-01  4.85085948E-02  1.16760827E-01
  9.00104555E-02  1.42734112E-02  3.27582000E-07  6.85419000E-07  2.32154565E-02
 -1.29612783E-02  1.25121500E-06 -4.40282200E-06  2.41797154E-02 -6.20685967E-03
  5.81698100E-06 -1.72677860E-05 -4.55560289E-02 -5.85056869E-02  3.89331600E-06
 -1.75276430E-05 -1.35123530E-02  1.01136305E-01  6.73877200E-06  4.84673000E-07
  4.34815219E-02 -5.75446778E-02  5.86268000E-07 -5.93820000E-08  1.14273157E-02
  2.07361284E-02 -5.30339839E-01  1.31177485E-01  1.51892980E-01 -1.23309969E-01
  6.79347579E-01 -1.19611982E-01 -1.18069591E-01  3.68061062E-01 -4.23411010E-01
  3.10859253E-01  1.73858171E-01 -2.07093559E+00 -4.46486660E-01 -5.30481121E-01
  3.07912814E-01  2.02919565E-02  8.84287028E-02 -1.75929768E-01 -9.52221014E-03
  7.48565155E-02 -1.14306026E-02 -2.07426165E-02 -5.30334369E-01  1.31202809E-01
 -1.51921282E-01  1.23348218E-01  6.79361953E-01 -1.19629761E-01  1.18090322E-01
 -3.68038622E-01 -4.23397376E-01  3.10882466E-01 -1.73900569E-01  2.07110000E+00
 -4.46485869E-01 -5.30483213E-01 -3.07887154E-01 -2.03068637E-02  8.84395920E-02
 -1.75942353E-01  9.55622379E-03 -7.48409448E-02  7.05635430E-01 -1.10869695E+00
  1.50930678E+00 -1.48349055E-01 -6.27113949E-03  7.86788433E-02 -3.38746283E-01
  6.27226947E-01 -7.96981236E-01  6.39282125E-02  4.18918082E-02  1.24355281E-02
  3.38695864E-01 -6.27199950E-01  7.96884819E-01  6.39680981E-02  4.19155917E-02
 -1.24557259E-02 -7.05692170E-01  1.10876465E+00 -1.50941602E+00 -1.48360827E-01
 -6.25082511E-03 -7.86937755E-02 -4.88685000E-07 -9.69085000E-07 -2.14199428E-02
  2.77283221E-02 -4.31313000E-06  1.06248830E-05  2.96234265E-02 -1.77453779E-02
  2.01791900E-06 -6.98772400E-06 -1.11523237E-01  3.33982103E-01  4.62459100E-06
 -1.10337033E-04  3.32483700E-01  3.84090487E-03  4.59328650E-05 -1.37550800E-06
  3.57340225E-03  3.95216139E-02 -1.37470700E-06 -1.49729800E-06 -2.19859658E-04
 -3.24807298E-04 -1.05266126E-02  2.90148518E-02  1.15839073E-02 -1.43268132E-02
  4.35784840E-03  2.01204744E-03  1.57389379E-02  8.51056520E-02 -1.45979214E-02
 -3.60681516E-02 -2.17257215E-01 -4.12405282E-01  2.91625802E-02  2.13278968E-01
  1.77198330E-02 -1.09521358E-01 -8.35561888E-02  4.54187236E-02 -1.09861005E-03
 -6.79498977E-02  2.19300236E-04  3.23682563E-04 -1.05257536E-02  2.90157259E-02
 -1.15862379E-02  1.43360826E-02  4.35722063E-03  2.01517985E-03 -1.57398549E-02
 -8.51127647E-02 -1.45954642E-02 -3.60789767E-02  2.17245131E-01  4.12455198E-01
  2.91557487E-02  2.13300075E-01 -1.77268688E-02  1.09518480E-01 -8.35532752E-02
  4.54175057E-02  1.09987865E-03  6.79471042E-02 -1.64019000E-07 -3.31593000E-07
 -1.02712849E-02 -1.59985775E-02 -5.32253000E-07  3.43423900E-06 -1.33968921E-02
 -1.02573301E-03 -4.33623000E-07 -1.13869880E-05  7.28270152E-02 -5.65306677E-02
  6.42509700E-06  1.03059770E-05 -1.65055345E-01  7.09561958E-03 -1.08947540E-05
 -3.91150000E-07 -1.11886550E-02 -7.03166476E-02  3.37375000E-07  2.13260000E-08
  3.68160889E-02  7.42630705E-02  5.22522476E-02  2.66286273E-01  2.82421369E-01
 -4.72612749E-01  2.77224459E-01 -1.92316774E-01 -2.23352587E-01 -2.74082214E-01
  3.53439138E-01  3.46242721E-01  4.54600412E-01 -2.28338765E+00 -4.02675349E-02
 -1.94720745E-01 -5.05264431E-01  2.15059790E-01  6.44672902E-02 -1.01862983E-01
 -4.06817033E-01 -1.66398664E-01  3.68148887E-02  7.42608339E-02 -5.23046435E-02
 -2.66273431E-01  2.82403674E-01 -4.72600091E-01 -2.77161754E-01  1.92307535E-01
 -2.23339540E-01 -2.74101274E-01 -3.53481963E-01 -3.46213889E-01  4.54580202E-01
 -2.28322684E+00  4.02215042E-02  1.94680247E-01 -5.05299508E-01  2.15055627E-01
 -6.44601778E-02  1.01847000E-01 -4.06815557E-01 -1.66403582E-01  6.02631431E-01
 -8.57104973E-01  1.27427845E+00 -8.70054328E-02  1.55024713E-01  1.05721787E-01
  4.46039768E-01  6.70392184E-03  1.13652329E+00  5.13681659E-01  2.89271312E-01
  2.45901158E-01  4.46071518E-01  6.64393472E-03  1.13659690E+00 -5.13681176E-01
 -2.89264254E-01  2.45891346E-01  6.02562654E-01 -8.57002259E-01  1.27412743E+00
  8.69889407E-02 -1.55023331E-01  1.05711914E-01  1.08016622E-02  1.97985558E-02
 -9.19090000E-08  1.73200700E-06  6.89462934E-02 -1.88094300E-01  4.35760000E-07
 -9.91853000E-07 -4.17327141E-02  2.96637155E-01 -3.33253300E-06  1.05624280E-05
 -2.26426152E-02  3.11282033E+00  1.26199950E-05  1.60090200E-06 -1.22595873E+00
 -5.30010058E-02  1.66210000E-07  1.12458200E-06  2.49076508E-02  2.46696192E-02
  6.52326104E-03  1.29675689E-02  1.04407967E-02  9.49904219E-03  2.06545722E-02
 -1.00462180E-01 -1.14554218E-02  2.61423728E-02  3.02076295E-02  3.46830295E-02
  4.72547056E-02 -6.83707258E-02  7.39591624E-02 -4.14984342E-01 -7.36444711E-02
  2.13604622E-01  7.04727201E-02  4.53024943E-02  3.13914726E-02 -2.18766379E-03
 -3.50676561E-02  3.85153395E-02  6.52360446E-03  1.29682542E-02 -1.04408367E-02
 -9.49676282E-03  2.06543384E-02 -1.00467023E-01  1.14562169E-02 -2.61425483E-02
  3.02083740E-02  3.46856146E-02 -4.72555318E-02  6.83695532E-02  7.39688217E-02
 -4.14968629E-01  7.36450758E-02 -2.13593472E-01  7.04779365E-02  4.53104976E-02
 -3.13948383E-02  2.19203599E-03 -3.50669085E-02  3.85205187E-02 -8.38395872E-04
 -1.90008545E-03 -4.66603000E-07 -5.71581000E-07 -1.74903930E-04  3.96098249E-03
 -5.31839000E-07  3.27100000E-09 -2.98609585E-02  1.37410124E-01  2.82348100E-06
 -1.63408300E-06 -7.00033488E-02 -3.55438574E-01 -6.27896200E-06  6.59473000E-07
  2.84265308E-01  3.10984737E-03 -2.62183000E-07 -2.57280800E-06 -4.55519144E-03
  3.05221780E-03 -1.79002944E-02 -3.51542519E-02 -1.73942364E-01 -2.38771624E-01
 -2.40262565E-01  6.94246280E-02  6.19713014E-01  6.74511636E-02  1.03178292E-01
  1.71483309E+00  2.84839200E-02  1.14627143E-01  1.60558515E-01  8.32723528E+00
 -1.81510474E-01  1.95574386E+00  2.59431563E-01 -1.37397805E-01 -3.44474949E-01
  3.98558700E-02  4.34309561E-01 -1.52146007E-01  1.79006971E-02  3.51554444E-02
 -1.73951982E-01 -2.38772785E-01  2.40266896E-01 -6.94332586E-02  6.19712019E-01
  6.74449759E-02 -1.03175220E-01 -1.71484993E+00  2.84438467E-02  1.14620201E-01
 -1.60558514E-01 -8.32725308E+00 -1.81517320E-01  1.95574762E+00 -2.59443252E-01
  1.37396898E-01 -3.44472746E-01  3.98612613E-02 -4.34310251E-01  1.52150925E-01
 -2.29977851E-01 -4.83613258E-01 -5.39711827E-01  2.25131679E-01 -4.37093274E-01
 -5.17764072E-01 -5.64071879E-01  9.09831634E-01 -1.45429856E+00  7.77757324E-02
 -9.10506460E-02 -2.13519770E-01  5.64068502E-01 -9.09800908E-01  1.45431869E+00
  7.77599737E-02 -9.10586377E-02  2.13521281E-01  2.29973631E-01  4.83614519E-01
  5.39701896E-01  2.25127908E-01 -4.37093052E-01  5.17767479E-01  6.64390000E-08
  1.63184000E-07  3.29180441E-01  5.53416599E-02 -1.24890000E-07 -2.74946600E-06
 -3.97290764E-01 -1.27708784E-01  1.55882200E-06  1.02800210E-05  6.28844263E-01
 -2.74312573E-01 -2.21945800E-06  1.40122280E-05  2.52879824E-01  2.49142472E-01
 -4.87103500E-06  1.75829100E-06 -7.34479316E-02  6.60090004E-02 -2.51842000E-07
 -3.64453000E-07  9.90215628E-03  2.11207425E-02 -1.36609332E-02  1.04496994E-02
  1.32152374E-02 -2.22723350E-01 -1.51300728E-02  2.76296326E-02  4.97277626E-02
  6.63513791E-01  7.99398268E-02 -2.51010060E-01 -2.15666176E-01  8.84944060E-01
 -1.71958821E-01 -1.18973652E-01  1.36795904E-01 -4.06855762E-02 -1.36719434E-01
 -2.69157184E-02 -2.07378004E-02  9.72239690E-02 -9.90200896E-03 -2.11204302E-02
 -1.36623683E-02  1.04491861E-02 -1.32149365E-02  2.22720167E-01 -1.51303267E-02
  2.76291269E-02 -4.97272172E-02 -6.63509313E-01  7.99381305E-02 -2.51008647E-01
  2.15663103E-01 -8.84949989E-01 -1.71956842E-01 -1.18979157E-01 -1.36797251E-01
  4.06859131E-02 -1.36724558E-01 -2.69171389E-02  2.07353419E-02 -9.72202775E-02
  6.02120000E-08  1.32253000E-07  2.24210434E-02 -1.19739078E-02  1.98552000E-07
 -9.60970000E-07  2.87021099E-02 -1.68533773E-02  9.11742000E-07 -1.00272200E-06
 -6.25775211E-02  9.82549841E-02  1.68893000E-07  3.12575000E-07 -1.48399312E-01
 -1.39855457E-01  4.79128000E-07 -1.23430000E-08  9.39763305E-02  1.03637967E-02
  2.98660000E-08 -1.37475000E-07  3.17304290E-03  4.00207523E-03  3.98351849E-03
  1.09747414E-01  8.21934870E-02 -1.12551684E-02 -1.40533129E-01 -9.68102843E-02
 -7.21695327E-02  1.61757480E-01 -6.01380252E-02  2.09275914E-01 -4.17565297E-02
  1.10488453E+00  4.12895898E-02  3.81197093E-01  1.00576229E-01  4.78355364E-02
  5.35846234E-02 -2.06103593E-02 -1.87040124E-01  6.16092231E-02 -3.17338514E-03
 -4.00255220E-03  3.97559615E-03  1.09749153E-01 -8.21981068E-02  1.12611127E-02
 -1.40564442E-01 -9.68148906E-02  7.21700573E-02 -1.61768196E-01 -6.02097949E-02
  2.09284530E-01  4.17355690E-02 -1.10487753E+00  4.12897109E-02  3.81198335E-01
 -1.00576787E-01 -4.78312410E-02  5.36049721E-02 -2.06135259E-02  1.87038238E-01
 -6.16356113E-02  9.54999399E-02 -8.50851788E-03  1.52254325E-01  3.31276302E-03
  1.05139966E-01  1.66169717E-01  2.57967056E-01 -4.74780434E-01  2.03487296E-01
 -8.30903223E-02  4.37402674E-02  3.43170348E-02 -2.57983092E-01  4.74862188E-01
 -2.03496142E-01 -8.31192360E-02  4.37315683E-02 -3.43073778E-02 -9.55002000E-02
  8.45910317E-03 -1.52269973E-01  3.29748125E-03  1.05150823E-01 -1.66192678E-01
  1.22766000E-07  2.70751000E-07  9.92853309E-01  3.12262914E-01  5.91270000E-08
 -4.64026300E-06 -1.19611279E+00 -3.50064033E-01  4.87700000E-07 -3.82245800E-06
  1.04476254E+00  5.10156131E-01 -2.72051280E-05  2.25253000E-07  1.87762166E-01
  1.18580240E-01 -3.91681200E-06  1.20208700E-06 -3.26911971E-02 -2.60979726E-02
  1.21740700E-06 -2.00282300E-06 -3.84729105E-03 -7.93260156E-03  3.07702946E-02
  5.06106903E-03  1.17150784E-03  7.51563204E-02  2.28185059E-03 -1.89815734E-02
 -2.64388848E-03 -1.77173246E-01  5.44312125E-03  9.24075066E-02 -2.07626944E-02
 -5.32414558E-02 -3.42720314E-01 -1.21387061E-01 -1.51205747E-02 -1.50960503E-02
 -6.70052887E-02  4.38541134E-03 -1.57209850E-01  2.06026123E-01  3.84712670E-03
  7.93228743E-03  3.07704546E-02  5.06151681E-03 -1.17220207E-03 -7.51537342E-02
  2.28239314E-03 -1.89818867E-02  2.64210403E-03  1.77163750E-01  5.43444246E-03
  9.24048222E-02  2.07687992E-02  5.32372404E-02 -3.42727074E-01 -1.21385993E-01
  1.51243141E-02  1.50953241E-02 -6.70052838E-02  4.38704846E-03  1.57211305E-01
 -2.06030436E-01  1.48538000E-07  3.20719000E-07  3.74865744E-02  1.03916629E-02
  6.15930000E-08 -3.52522400E-06  4.73483369E-02  1.90473264E-02  5.42388000E-07
  1.64003640E-05 -4.12804392E-02 -4.92193332E-02 -5.28783100E-06  1.08574030E-05
 -3.04856336E-01 -1.15255995E-01 -1.12319100E-06 -4.04208000E-07  2.45927700E-01
  4.96682372E-02  2.77492000E-07 -8.27839000E-07  8.01720505E-03  1.53606490E-02
 -3.91962360E-01  1.71787265E-02  1.67229018E-01 -1.51447216E-01 -6.60200135E-01
 -4.10521495E-02  4.28817934E-03 -7.39489271E-03 -2.27321410E+00  2.33988331E-01
  5.35962308E-01  7.12663406E-02 -2.33368848E-01  1.08064582E-01  8.55589958E-02
 -1.37396861E-01  5.85586566E-01 -1.11898666E-01  4.64838354E-02  7.19387440E-01
  8.01809587E-03  1.53625985E-02  3.91942073E-01 -1.71791268E-02  1.67232212E-01
 -1.51465387E-01  6.60171876E-01  4.10438750E-02  4.28599551E-03 -7.34586879E-03
  2.27316839E+00 -2.34013731E-01  5.36009591E-01  7.13938782E-02  2.33373581E-01
 -1.08094633E-01  8.55811552E-02 -1.37388718E-01 -5.85563359E-01  1.11903724E-01
  4.64905911E-02  7.19365158E-01 -1.03381247E-02  1.59382674E+00  5.62803260E-01
 -5.70166398E-01  3.38821162E-01  6.74623332E-01  2.28715045E-01 -1.86346223E+00
 -2.07437039E-01 -7.73715274E-01 -2.58790057E-01 -2.91395864E-01  2.28700861E-01
 -1.86338400E+00 -2.07434272E-01  7.73680795E-01  2.58762794E-01 -2.91375099E-01
 -1.03281408E-02  1.59376949E+00  5.62821206E-01  5.70140269E-01 -3.38806992E-01
  6.74610004E-01 -6.45858334E-03 -1.25066757E-02  1.71717410E-05  2.96817900E-06
 -2.88697484E-02  1.70875526E-01 -2.11693930E-05 -3.84503600E-06  1.69560970E-02
  5.05464218E-01  2.01447890E-05  1.26929600E-05  1.02363738E+00 -3.74522715E-01
  1.35929000E-07 -5.23260500E-06  2.99779720E-01 -1.86526588E-02 -1.26632600E-06
 -1.05107900E-06 -1.13314735E-01  9.33196738E-02  2.38196857E-03  4.55323562E-03
 -4.86882679E-03  1.36738547E-02  4.97299448E-03 -3.70106232E-02  1.63928521E-02
 -4.95276993E-04  2.43405902E-02  1.99622246E-01 -2.59362011E-01 -3.05941460E-02
 -1.72737445E-01 -3.50994255E-02 -2.50757042E-01  1.47191007E-01 -1.93172061E-01
 -1.07718506E-02 -3.16114300E-02  2.11020800E-02 -1.76238969E-02  9.93278273E-02
  2.38175617E-03  4.55284744E-03  4.86990555E-03 -1.36744118E-02  4.97216712E-03
 -3.70085152E-02 -1.63929844E-02  4.94899375E-04  2.43388753E-02  1.99643238E-01
  2.59361386E-01  3.06019421E-02 -1.72739568E-01 -3.50325193E-02  2.50746439E-01
 -1.47178918E-01 -1.93190657E-01 -1.07719909E-02  3.16079708E-02 -2.11058934E-02
 -1.76194327E-02  9.93207293E-02 -5.38912499E-03 -1.18137655E-02  1.12686500E-06
  4.42170000E-07  3.39501573E-03  1.38514007E-01  1.03394700E-06  5.83412000E-07
 -7.29830569E-03 -7.49958903E-01 -1.87948100E-06 -2.52507400E-06  2.21703728E-01
 -1.99257819E-01 -4.99172800E-06 -1.28121300E-06 -5.70164969E-02  6.84774189E-03
  4.94316600E-06  6.81000000E-07 -3.19762151E-02  3.81787886E-02 -1.11406863E-02
 -1.97203708E-02 -3.05819299E-01 -1.05533672E-01  2.13381421E-02  1.39643271E-01
 -8.01053985E-01  8.52288747E-02  2.12320213E-01 -3.53515892E-01 -9.29684160E-01
 -1.65528121E-01  9.61928971E-02  4.31088098E-01  1.51020391E-01  5.30277001E-02
 -2.08922580E-01 -3.07514484E-01  4.83923521E-01 -5.88261624E-02  2.91103885E-01
  4.75985190E-01  1.11400498E-02  1.97187266E-02 -3.05843038E-01 -1.05530936E-01
 -2.13549300E-02 -1.39625274E-01 -8.01056751E-01  8.52341646E-02 -2.12321598E-01
  3.53520404E-01 -9.29763514E-01 -1.65503506E-01 -9.62336813E-02 -4.31125135E-01
  1.50988225E-01  5.30356162E-02  2.08909563E-01  3.07524771E-01  4.83936380E-01
 -5.88391871E-02 -2.91114787E-01 -4.76018340E-01 -4.50294485E-01  1.86981865E+00
 -6.23704412E-01 -5.48626804E-01  4.10205512E-01  4.11219140E-01  1.50685966E-01
 -1.55674139E+00 -7.59632204E-02 -7.94456576E-01 -5.71036286E-01 -3.14623657E-01
 -1.50671093E-01  1.55676304E+00  7.60070419E-02 -7.94482601E-01 -5.71038223E-01
  3.14625491E-01  4.50289218E-01 -1.86986889E+00  6.23663360E-01 -5.48648161E-01
  4.10215813E-01 -4.11249467E-01  3.74630000E-08  1.03525000E-07  1.44328146E-03
 -4.58953263E-02 -6.96170000E-08 -2.27190800E-06 -5.84291154E-03  2.05130531E-02
  3.24078000E-07 -2.27100630E-05  2.98508676E-02  2.73277380E-01 -1.81892610E-05
  3.01784850E-05 -2.07189958E-01 -7.89712222E-02 -1.34515180E-05  2.20363900E-06
 -5.07137085E-02 -4.61131698E-02  4.41400400E-06 -5.14887000E-07  4.38072519E-03
  8.19389950E-03  8.90242014E-04  3.06958829E-03  1.25381225E-02 -5.07513515E-02
 -1.12905507E-03  1.24712938E-02  1.91920688E-02 -1.25295994E-02  3.92696955E-02
  3.91192114E-02  1.17429241E-03 -8.43039731E-01  6.49621524E-02  3.33159797E-01
  2.14723321E-01  5.17284429E-02  9.16935652E-03 -4.07702653E-03 -4.47986819E-02
 -4.80075783E-02 -4.38080360E-03 -8.19403437E-03  8.90012775E-04  3.07039125E-03
 -1.25376533E-02  5.07518025E-02 -1.12913672E-03  1.24708311E-02 -1.91927953E-02
  1.25377332E-02  3.92621018E-02  3.91271389E-02 -1.16343918E-03  8.43052923E-01
  6.49487130E-02  3.33168635E-01 -2.14718785E-01 -5.17248961E-02  9.17042764E-03
 -4.07660840E-03  4.48007315E-02  4.79984841E-02  2.03351000E-07  4.39049000E-07
  2.01960334E-02  1.61101450E-02 -7.38260000E-08 -4.66542600E-06  1.48471810E-02
  1.25151820E-02  1.12713900E-06  1.86308640E-05 -5.33588377E-02 -7.12273541E-02
 -6.12137400E-06  3.82241000E-07  3.72109389E-02 -3.08279230E-02  3.20494700E-06
 -3.80170000E-07  3.38556940E-02  1.26071481E-02  2.35235600E-06 -5.14738000E-07
 -1.83265131E-02 -4.57309401E-02 -1.99804437E-01 -2.48576846E-01  1.77909793E-01
  3.48907034E-01  7.41085848E-01  8.72716573E-02 -4.88180332E-01  1.05655575E+00
  9.81331005E-01 -6.14076924E-01 -7.91811175E-02  5.44995486E-01 -3.86476536E-01
  1.24500382E-01  2.84266561E-01  6.80495908E-02 -2.85923600E-01  1.20868208E-01
  4.73950052E-02  3.32127437E-01 -1.83267268E-02 -4.57318971E-02  1.99804250E-01
  2.48574289E-01  1.77903206E-01  3.48919958E-01 -7.41104067E-01 -8.72558929E-02
 -4.88188459E-01  1.05652896E+00 -9.81341047E-01  6.14097838E-01 -7.92289052E-02
  5.44947600E-01  3.86479408E-01 -1.24488213E-01  2.84283804E-01  6.80572876E-02
  2.85935005E-01 -1.20875658E-01  4.73925525E-02  3.32119064E-01  5.96699510E-01
 -1.98830695E+00  5.44186365E-01  4.53821961E-01 -3.55981361E-01 -3.02309085E-01
 -3.98290493E-01  8.43783569E-01 -5.72955854E-01 -1.11720764E-01  2.56608667E-01
  9.16443387E-02 -3.98287728E-01  8.43798966E-01 -5.72958166E-01  1.11713931E-01
 -2.56618570E-01  9.16536082E-02  5.96714984E-01 -1.98837114E+00  5.44200163E-01
 -4.53838971E-01  3.55993917E-01 -3.02324903E-01  1.01423490E-03  3.41776876E-03
  1.67067000E-07 -2.92045900E-06 -3.60305257E-02 -1.39666851E-01 -1.32461000E-07
  2.77101900E-06  4.35134091E-02  6.62254960E-01  1.69364600E-06 -8.30241700E-06
 -1.19312922E+00 -6.77872216E-01  7.82032000E-07 -3.85188100E-06 -3.26393578E-02
 -7.18758950E-03 -8.42191000E-07 -5.73250000E-08 -7.75563896E-02 -4.25638569E-02
 -7.11066540E-03 -1.45415694E-02  1.86411008E-02  9.99635659E-03 -8.51277705E-03
  1.37097964E-01  4.39479640E-03 -1.19788878E-02 -4.49658939E-02 -5.87319705E-01
  5.01182819E-02  1.88773854E-01  1.92778769E-02 -8.44793113E-01 -2.14884096E-02
 -1.46863173E-02  6.46751983E-01 -5.63707797E-02  1.47435302E-01  7.32362835E-02
 -1.21446281E-01  1.70828899E-01 -7.11092914E-03 -1.45420962E-02 -1.86412119E-02
 -9.99742323E-03 -8.51294015E-03  1.37102736E-01 -4.39570988E-03  1.19795984E-02
 -4.49651970E-02 -5.87346016E-01 -5.01133732E-02 -1.88776650E-01  1.92803114E-02
 -8.44813588E-01  2.14952537E-02  1.46812646E-02  6.46745327E-01 -5.63764018E-02
 -1.47432512E-01 -7.32404884E-02 -1.21448141E-01  1.70828048E-01  3.81087059E-03
  8.26799937E-03  1.07747000E-07  3.48412000E-07  6.21643501E-04 -9.11475181E-02
  2.05133000E-07 -1.22408000E-07  9.31680488E-03  5.01024766E-01 -2.81950000E-07
  5.97439000E-07 -9.24934732E-02  7.18861974E-02 -1.03911600E-06 -1.15275000E-07
  1.16853312E-01 -1.05879773E-02  5.27390000E-08  1.56884500E-06 -9.10923744E-02
 -2.38873267E-02 -8.96206427E-03 -4.97817580E-02  7.68761375E-02 -3.23316553E-01
 -1.66950258E-01  3.07840364E-01 -3.21925374E-01 -1.28612972E-01 -2.51554965E-01
  1.79071977E+00 -2.46474800E-01 -3.77189070E-01  2.47393427E-01 -7.47114618E-01
  3.30680045E-01 -2.69185334E-02 -6.17193903E-02 -6.03129757E-02 -4.92436276E-02
  1.51768858E-01  1.68353338E-01 -1.14430894E-01 -8.96167615E-03 -4.97803883E-02
 -7.68747384E-02  3.23318950E-01 -1.66942159E-01  3.07832623E-01  3.21954363E-01
  1.28596189E-01 -2.51546847E-01  1.79064279E+00  2.46506375E-01  3.77200590E-01
  2.47414953E-01 -7.47161533E-01 -3.30688392E-01  2.69308920E-02 -6.17385545E-02
 -6.03162158E-02  4.92314479E-02 -1.51760642E-01  1.68350634E-01 -1.14421901E-01
  4.00179998E-01 -1.27258661E+00  3.89970292E-01  4.02465174E-01 -1.78579170E-01
 -2.93289417E-01  7.85234755E-01 -2.16794048E+00  8.67524967E-01 -5.32253728E-01
 -3.12730257E-01 -1.79507396E-01  7.85236088E-01 -2.16795700E+00  8.67533974E-01
  5.32259243E-01  3.12738021E-01 -1.79505829E-01  4.00161175E-01 -1.27249591E+00
  3.89951963E-01 -4.02438469E-01  1.78563409E-01 -2.93272975E-01 -6.26961489E-03
 -1.62614388E-02  3.24829500E-06  1.54044500E-06 -7.00860529E-02  3.14023927E-01
 -4.10285400E-06 -2.89376500E-06  1.75604796E-02 -3.23205448E-01  5.86761000E-06
 -6.26495500E-06  1.60821998E+00  9.43522385E-01  3.99050600E-06  2.84335400E-06
 -2.53636298E-01 -6.65859839E-02  4.29541000E-07  1.49553900E-06  9.84585423E-02
  7.83929687E-02 -3.99004160E-03 -8.64506012E-03 -1.28465539E-02 -2.30575739E-02
  1.48027461E-02  7.70694821E-02  9.28431281E-03 -3.29297633E-02  6.04863834E-03
 -6.00754374E-02 -4.10610972E-02 -1.05752190E-01  1.58767295E-01  1.18773427E-01
  4.01139348E-02 -2.88702028E-01  4.26513267E-01  7.88910924E-02 -7.86091012E-02
 -1.47404001E-02 -1.65118791E-02 -7.08398024E-02 -3.99019602E-03 -8.64544248E-03
  1.28459859E-02  2.30579931E-02  1.48033684E-02  7.70748976E-02 -9.28580162E-03
  3.29303170E-02  6.04809157E-03 -6.00930704E-02  4.10655183E-02  1.05743669E-01
  1.58771369E-01  1.18747393E-01 -4.01188063E-02  2.88697326E-01  4.26515592E-01
  7.88960402E-02  7.86095309E-02  1.47425354E-02 -1.65112231E-02 -7.08438566E-02
 -7.43226961E-03 -1.55789564E-02  3.52140000E-08 -4.45689000E-07 -2.20572321E-02
  1.67017355E-01 -6.35320000E-08 -2.52895000E-07 -3.62332735E-02 -7.24352731E-01
  2.92728000E-07  1.86507200E-06  3.18738866E-01 -1.53150615E+00 -1.52844100E-06
 -8.11171000E-07  5.29699569E-01  5.95640818E-03  1.10953100E-06 -5.67131000E-07
  9.85765137E-02  4.45848517E-02 -8.37089559E-04 -7.92377718E-03 -1.69955575E-01
  3.88911752E-01 -5.46812364E-01  9.93491337E-02  3.15919441E-01 -3.98503467E-01
  6.36531159E-01 -2.79980390E-01  3.33736998E-01  1.61905412E-01 -4.89042025E-01
 -1.78754320E-01 -8.49266922E-02 -1.27441427E-01 -1.63051807E-03 -5.42575276E-02
 -6.83653045E-02 -1.01636610E-01  8.69843278E-03  1.43165477E-01 -8.37538876E-04
 -7.92527105E-03  1.69961402E-01 -3.88914583E-01 -5.46818228E-01  9.93617436E-02
 -3.15923748E-01  3.98519773E-01  6.36526507E-01 -2.79957215E-01 -3.33729165E-01
 -1.61898856E-01 -4.89064202E-01 -1.78886474E-01  8.49235256E-02  1.27475596E-01
 -1.62633942E-03 -5.42571095E-02  6.83684225E-02  1.01626811E-01  8.70154080E-03
  1.43166030E-01  2.20236532E-01 -4.55833896E-01  3.60871564E-02 -3.20770639E-02
 -9.48819252E-02 -1.04396085E-01 -1.22825110E-01  3.70013946E-01 -1.26881988E-01
  3.42777495E-02  8.94635264E-02 -5.95519727E-02 -1.22811939E-01  3.69972852E-01
 -1.26868568E-01 -3.42630168E-02 -8.94609106E-02 -5.95532917E-02  2.20243276E-01
 -4.55866002E-01  3.60973487E-02  3.20645063E-02  9.48830819E-02 -1.04401054E-01
 -4.76291040E-03 -7.25153256E-03  2.91636400E-06 -1.98366400E-06 -6.90920632E-02
  3.58920556E-03 -3.77618900E-06  2.80406800E-06  1.11699936E-01 -4.52416003E-01
  4.73347700E-06 -1.15622250E-05 -7.97070440E-01  3.24308160E-02  3.23877700E-06
 -9.54423000E-07 -9.16126277E-02  1.53429383E-01  6.96268000E-07  2.94182000E-07
  2.11869610E-02  7.80458065E-02  5.96948340E-03  9.66949699E-03 -5.77777238E-03
  2.43448216E-03  5.35539509E-02 -2.83154657E-02 -1.36434678E-02  3.95441843E-03
  6.51190963E-02 -1.65253587E-01  3.00803463E-02  5.44342005E-02  1.10084541E-01
  3.53779219E-01  3.95208103E-02 -5.13533730E-02 -2.11968214E-01  2.44309341E-01
 -1.05067445E-01  6.66152022E-02 -1.57687481E-01  8.89396461E-02  5.96925519E-03
  9.66907610E-03  5.77783564E-03 -2.43442428E-03  5.35535523E-02 -2.83121394E-02
  1.36433399E-02 -3.95343799E-03  6.51194519E-02 -1.65263661E-01 -3.00783963E-02
 -5.44373526E-02  1.10083679E-01  3.53744881E-01 -3.95227520E-02  5.13406052E-02
 -2.11975918E-01  2.44302273E-01  1.05071089E-01 -6.66171379E-02 -1.57687648E-01
  8.89367514E-02  9.34797512E-03  2.04180661E-02 -1.30841000E-07  1.35798000E-07
  3.73132805E-03 -2.00566430E-01  1.06310000E-07 -2.91504000E-07  9.71547491E-02
  5.23484927E-01 -3.05080000E-08  1.48871400E-06 -1.97008778E-01  5.56955893E-01
 -1.31453700E-06 -5.23797000E-07 -1.29868815E-01 -1.55707504E-02 -7.14000000E-10
  1.69797200E-06  5.31289236E-02  3.64944462E-01  2.43383698E-02  7.65858219E-02
  7.95437991E-02 -9.21018813E-02  3.54968049E-01 -3.68707127E-01  4.59529019E-02
  7.26278942E-01  1.15005341E-01 -4.29616355E+00  4.59348376E-02 -6.37488457E-01
  2.81636229E-02  4.36011398E+00 -3.26590717E-02  1.12346102E+00 -2.80238982E-01
  1.40805829E-01  4.76276811E-02 -4.30958376E-01 -2.55911161E-01 -3.78497415E-02
 -2.43381465E-02 -7.65857947E-02  7.95418576E-02 -9.20941727E-02 -3.54963981E-01
  3.68704717E-01  4.59877418E-02  7.26277608E-01 -1.15009912E-01  4.29618492E+00
  4.60060374E-02 -6.37489987E-01 -2.81412873E-02 -4.36012713E+00 -3.26701530E-02
  1.12346087E+00  2.80234257E-01 -1.40808046E-01  4.76199268E-02 -4.30958826E-01
  2.55913423E-01  3.78511603E-02 -4.32918390E-01  1.99578765E+00 -6.28861374E-01
 -6.02716630E-01  1.55467682E-01  4.63745731E-01 -4.81714655E-01  2.10883406E+00
 -6.14540490E-01  7.65310177E-01  2.00718230E-01  1.59716659E-01  4.81737686E-01
 -2.10891615E+00  6.14556730E-01  7.65329819E-01  2.00726196E-01 -1.59716486E-01
  4.32913924E-01 -1.99575180E+00  6.28867887E-01 -6.02708752E-01  1.55464470E-01
 -4.63742414E-01  8.22240000E-08  3.58540000E-08  1.19898922E-01 -5.43169972E-02
  2.81428300E-06  3.62034400E-06 -1.60967043E-01  1.22993577E-01 -5.64057800E-06
 -1.37060780E-05  1.17998842E-01 -4.41281104E-01  2.32160150E-05  5.90204200E-06
  5.65686484E-02 -4.87987688E-02  1.10726000E-06 -5.39732200E-06  5.47887302E-02
 -1.46846000E-02  7.15284000E-07 -3.77621000E-07 -1.81892540E-05 -2.75391625E-03
  2.74506106E-03  1.57579671E-02  2.14275145E-02  8.99545409E-02 -5.39203333E-03
  1.19040199E-02 -2.37683865E-02 -6.72168586E-01 -4.64663266E-02  6.32658405E-02
  3.83856562E-01  1.51715814E-01 -3.65746694E-02 -1.81862510E-01  3.34438395E-01
  1.74250170E-01 -1.03352953E-01 -3.77786459E-02 -3.03933414E-02 -1.47052346E-02
  1.81363410E-05  2.75381284E-03  2.74691790E-03  1.57582905E-02 -2.14283134E-02
 -8.99538922E-02 -5.39094238E-03  1.19042325E-02  2.37673297E-02  6.72172264E-01
 -4.64658295E-02  6.32673091E-02 -3.83854872E-01 -1.51702232E-01 -3.65728754E-02
 -1.81857636E-01 -3.34438476E-01 -1.74250823E-01 -1.03349828E-01 -3.77760919E-02
  3.03991089E-02  1.46944261E-02 -2.52822000E-07 -5.43674000E-07 -1.99214619E-02
  7.55643341E-03 -3.77613000E-07  4.77418400E-06 -2.75177290E-03 -4.60123842E-03
 -3.29290200E-06 -6.49831400E-06  2.46896209E-02  4.53538314E-02  2.24651300E-06
 -1.25510390E-05  1.68883498E-02 -3.84799639E-02  2.64701100E-06 -6.71600000E-09
 -6.69765795E-02  6.20751179E-02  2.96539400E-06 -8.72500200E-06 -2.10208681E-03
 -1.42292447E-03  1.56561218E-01 -1.25020818E-01  1.57902752E-01 -8.26750120E-03
 -2.15807436E-01  1.39700492E-01 -1.94815783E-01  5.32100142E-02 -3.72625311E-02
 -1.64079661E-02  1.46132866E-01 -6.38879644E-02  1.64827905E-02  1.28703424E-03
 -4.70768651E-02  2.56115601E-02  2.45358986E-02  6.04394670E-02  4.39164362E-02
 -2.06273706E-01 -2.10233031E-03 -1.42378141E-03 -1.56561259E-01  1.25019322E-01
  1.57893208E-01 -8.26560674E-03  2.15808789E-01 -1.39692641E-01 -1.94810497E-01
  5.32857839E-02  3.72597124E-02  1.63898188E-02  1.46137434E-01 -6.39732633E-02
 -1.64821431E-02 -1.26711714E-03 -4.70769683E-02  2.56068093E-02 -2.45364115E-02
 -6.04431578E-02  4.39181913E-02 -2.06274154E-01 -1.27545211E-01  1.74629218E-01
 -6.14476000E-02  3.19135868E-02  3.66157716E-02 -9.59142662E-03  4.95944022E-02
 -1.13940630E-01  1.25279029E-01  3.28659567E-02 -1.02432163E-01  4.41796533E-02
  4.95989686E-02 -1.13965517E-01  1.25289067E-01 -3.28576648E-02  1.02434913E-01
  4.41757027E-02 -1.27536344E-01  1.74599154E-01 -6.14356982E-02 -3.19187035E-02
 -3.66133237E-02 -9.60013643E-03  2.23653589E-03  3.05160851E-03 -3.61132000E-07
  2.02503300E-06  3.17940281E-02  1.11234370E-02  3.25096000E-07 -2.16591700E-06
 -5.83471288E-02  1.69430668E-01 -1.02911700E-06  3.49699400E-06  4.99085801E-01
  1.89258214E-01 -1.06397600E-06  2.16399100E-06 -7.02778271E-03 -5.77724618E-02
  1.40301000E-07 -2.14169000E-07 -3.79394268E-04  9.40754658E-03 -2.03529349E-03
 -3.16218348E-03  1.99746349E-02 -2.91763687E-03 -1.72380054E-02  5.22920242E-03
 -3.54679752E-03 -4.73036699E-03 -1.96918329E-02  1.15271722E-01  1.42745710E-02
 -2.97306736E-02 -3.63485439E-02 -2.04425778E-02 -7.01067515E-02 -2.15918825E-02
  3.39414205E-02 -1.04096913E-01 -1.06321053E-01 -8.09593993E-02 -8.13231584E-02
  2.17541805E-01 -2.03519782E-03 -3.16193964E-03 -1.99746622E-02  2.91823931E-03
 -1.72386129E-02  5.22574169E-03  3.54677393E-03  4.73000576E-03 -1.96922546E-02
  1.15290650E-01 -1.42759204E-02  2.97323876E-02 -3.63554661E-02 -2.04341325E-02
  7.01064071E-02  2.15950157E-02  3.39424295E-02 -1.04099352E-01  1.06315722E-01
  8.09607801E-02 -8.13210204E-02  2.17544276E-01 -4.49493243E-03 -9.68665042E-03
 -1.62389000E-07  8.91710000E-08 -3.48258290E-03  9.67858640E-02 -7.98840000E-08
  1.33618000E-07 -4.11148141E-02 -2.93530907E-01  3.09575000E-07 -4.25323000E-07
  1.08330878E-01 -3.43380958E-01  6.79414000E-07 -7.45309000E-07  8.77173003E-02
  1.18540235E-02 -4.23096000E-07 -7.66790000E-08 -5.16911087E-01  6.70201197E-01
 -1.89036633E-02 -3.57180759E-02  2.85328067E-02 -8.97828245E-02  3.23709841E-01
  2.34654632E-01  3.40961131E-03 -1.02121651E-01 -5.29983558E-01  6.58598356E-01
  3.16907813E-02 -3.37647941E-01  2.63325521E-01  2.65160120E-01  1.22075219E-02
 -1.75172323E-01  2.80591463E-01  1.13319884E-01 -8.24363405E-02  2.16690183E-01
  1.81991553E-01  1.69434374E-02  1.89039213E-02  3.57187286E-02  2.85375477E-02
 -8.97761765E-02 -3.23703804E-01 -2.34658307E-01  3.40180849E-03 -1.02132372E-01
  5.29979011E-01 -6.58602019E-01  3.17044110E-02 -3.37641002E-01 -2.63323329E-01
 -2.65129501E-01  1.22065512E-02 -1.75178959E-01 -2.80581855E-01 -1.13319546E-01
 -8.24323462E-02  2.16691976E-01 -1.81993277E-01 -1.69363040E-02 -1.05379297E-01
 -3.74241136E-01  6.87159368E-02  2.78332630E-01 -1.44395790E-01 -6.57216707E-02
 -2.52054282E-02 -2.97379786E-01 -2.66909585E-02 -2.05717619E-01 -5.33614115E-02
  3.70188055E-02  2.52055770E-02  2.97381105E-01  2.66829513E-02 -2.05718379E-01
 -5.33648394E-02 -3.70225548E-02  1.05373922E-01  3.74259043E-01 -6.87179977E-02
  2.78333500E-01 -1.44398054E-01  6.57312467E-02 -1.25640000E-08  1.14030000E-08
 -3.22014732E-01  8.99026402E-01 -2.64074500E-06 -1.78837000E-06  4.02783172E-01
 -1.09600943E+00  6.53888100E-06  6.41201600E-06 -6.20942450E-01  2.00047182E+00
 -1.27660850E-05 -2.81204940E-05 -1.13630595E-01  5.66468211E-01  9.09419500E-06
  3.03336500E-06 -5.17447787E-02  8.64351536E-02 -5.03996800E-06 -1.45535800E-06
 -1.01213920E-02 -2.02093641E-02 -1.58057474E-03 -2.29436598E-02  8.28252785E-02
  1.50139273E-01  2.39925302E-02 -1.09722840E-01  1.54438331E-01 -3.23303720E-01
 -1.13814553E-02  7.30076305E-02 -3.35625012E-01 -1.01458360E+00 -2.80991045E-02
  5.11924253E-01 -8.65999704E-01  8.14946325E-03 -1.34194126E-01  3.16437370E-01
 -1.69621498E-02 -5.76946904E-03  1.01214554E-02  2.02094906E-02 -1.58115157E-03
 -2.29448476E-02 -8.28277652E-02 -1.50140613E-01  2.39914004E-02 -1.09723321E-01
 -1.54438727E-01  3.23301971E-01 -1.13756873E-02  7.30082062E-02  3.35621253E-01
  1.01457444E+00 -2.80942196E-02  5.11920808E-01  8.66009311E-01 -8.14656680E-03
 -1.34203263E-01  3.16437139E-01  1.69580242E-02  5.77676614E-03  1.73104000E-07
  3.69422000E-07 -3.71283427E-03  1.11324115E-02  1.63035000E-07 -3.17831100E-06
 -1.18452750E-02  3.66026178E-02  2.39013600E-06  2.81908300E-06  7.18253750E-02
 -2.09517413E-01 -2.48340000E-07  7.29164400E-06  1.06829864E-02 -1.35021256E-01
 -2.72455000E-06 -3.14931000E-07 -2.86086940E-02  7.94399174E-02  2.07238960E-05
  8.79886000E-06  4.11722920E-03  1.25223425E-02  3.67336161E-02 -1.61254916E-01
  1.76381167E-01 -7.07493234E-02 -1.42388161E-02  2.55007395E-01 -1.61746709E-01
 -8.36526757E-02  7.56161721E-02 -1.74040399E-01  4.08594560E-02  5.98244972E-01
 -1.97544209E-02  1.10234552E-01  1.68358150E-01  3.51203951E-02 -4.30903920E-02
 -4.01559052E-03 -3.01461799E-02 -4.56583555E-03  4.11717854E-03  1.25223151E-02
 -3.67307855E-02  1.61256956E-01  1.76381265E-01 -7.07468740E-02  1.42320805E-02
 -2.55006953E-01 -1.61748407E-01 -8.36849048E-02 -7.56134037E-02  1.74058493E-01
  4.08525404E-02  5.98238896E-01  1.97549119E-02 -1.10218911E-01  1.68370114E-01
  3.51251193E-02  4.30938640E-02  4.00641923E-03 -3.01409737E-02 -4.56579829E-03
 -1.02142537E-01  2.19238458E-01 -1.19104138E-01 -2.36839091E-02  3.39494852E-02
  8.12477879E-02 -5.59539846E-02  2.66847978E-01 -1.30851075E-01  8.09511223E-02
  5.80368011E-02  4.02566491E-02 -5.59557962E-02  2.66855439E-01 -1.30859183E-01
 -8.09521729E-02 -5.80369450E-02  4.02566471E-02 -1.02151605E-01  2.19244837E-01
 -1.19107975E-01  2.36796563E-02 -3.39470812E-02  8.12488292E-02  6.11239056E-03
  1.09176974E-02  9.49669800E-06 -2.91833470E-05 -3.78396574E-02 -1.48513337E-01
 -1.16972380E-05  3.53076670E-05  1.69507726E-01  1.04516198E-01  1.80829830E-05
 -6.10890050E-05 -5.64332953E-01 -1.03350476E+00  4.71303300E-06 -1.71059600E-05
  3.07194424E-01  5.97758334E-02  1.22336600E-06 -2.52329200E-06 -1.83303149E-01
 -1.09457510E-01  1.81452300E-03  3.82858813E-03  1.65897695E-03  2.54833070E-02
 -6.23607810E-02 -4.09362598E-02  2.58081230E-05  1.65780264E-02 -2.04100807E-02
 -3.46741422E-02 -2.76657724E-03 -2.62987572E-02 -4.04359731E-02 -1.26680763E-01
 -1.50995531E-02  2.94868824E-02  2.47232547E-01 -2.96089059E-03  9.23794584E-02
 -8.05845585E-02 -2.89585123E-02  5.03636626E-02  1.81331348E-03  3.82623271E-03
 -1.65963620E-03 -2.54801141E-02 -6.23577754E-02 -4.09182878E-02 -2.80941970E-05
 -1.65698389E-02 -2.04042278E-02 -3.47108780E-02  2.76957740E-03  2.62886139E-02
 -4.04432373E-02 -1.26784793E-01  1.51069909E-02 -2.95230688E-02  2.47195854E-01
 -2.96789810E-03 -9.23747427E-02  8.05698513E-02 -2.89524620E-02  5.03689252E-02
  4.83256764E-03  1.01418213E-02  5.16510000E-08 -1.87036000E-07  2.78425354E-03
 -9.49435464E-02  4.27126000E-07 -1.19263400E-06  4.86857586E-02  2.28491999E-01
 -1.83825400E-06  5.93141800E-06 -3.92167253E-02  1.96259413E-01 -1.76497600E-06
  5.67225300E-06 -5.43267212E-02 -1.37042146E-02 -7.12040000E-08 -2.43330600E-06
  7.95925562E-01  4.85867322E-01 -3.40465321E-02 -7.05142936E-02  1.26513793E-01
 -9.67650619E-02  4.31689652E-01  3.23697195E-01 -1.08039565E-01 -2.38822052E-01
 -8.13923397E-01  3.33504820E+00  3.16544369E-01  3.01558142E-01  6.71827469E-01
  5.57752644E-01 -1.82029550E-02  2.16144445E-01  1.34424262E-01  3.28048188E-03
 -6.03400944E-02  1.29562306E-01  2.03856856E-01  1.23952990E-03  3.40469307E-02
  7.05150782E-02  1.26516184E-01 -9.67660393E-02 -4.31696399E-01 -3.23705006E-01
 -1.08044115E-01 -2.38821877E-01  8.13933750E-01 -3.33505472E+00  3.16556140E-01
  3.01546327E-01 -6.71824708E-01 -5.57760338E-01 -1.82084755E-02  2.16145047E-01
 -1.34427109E-01 -3.28174689E-03 -6.03404997E-02  1.29565309E-01 -2.03856936E-01
 -1.23920761E-03  2.19787471E-01 -1.40756216E+00  3.23380447E-01  4.40420694E-01
 -2.72023233E-01 -2.99715745E-01  2.38155059E-02 -8.50665861E-01  2.50965537E-01
 -4.15299823E-01 -1.31299762E-01 -1.66850305E-02 -2.38080657E-02  8.50651929E-01
 -2.50958857E-01 -4.15302769E-01 -1.31294732E-01  1.66746860E-02 -2.19792743E-01
  1.40758040E+00 -3.23384201E-01  4.40421849E-01 -2.72026984E-01  2.99723428E-01
 -3.81801000E-07 -6.63414000E-07  1.21833736E-01 -5.47852031E-01 -4.09523900E-06
  7.39606000E-06 -1.39911322E-01  6.13746991E-01  3.91717200E-06  4.00507400E-06
  3.36875615E-01 -1.08568861E+00  2.41190520E-05  7.59184200E-06  1.21575645E-01
 -2.51718829E-01  1.07261800E-06  7.62227000E-07 -2.10944522E-02 -1.84895218E-02
  2.33816300E-06  3.57676700E-06  2.69949071E-02  5.26202192E-02 -2.88578477E-02
  7.70946158E-02  2.66196491E-02 -4.41678896E-01 -4.19967499E-02  1.11601356E-01
  4.82827576E-02  1.04342065E+00  1.32043082E-01 -3.48462272E-01 -3.65084452E-01
  2.21836262E+00  1.56565269E-01 -4.72085974E-01 -1.86682284E-01  2.20838738E-01
 -7.35382930E-02  4.88689245E-02 -2.76881320E-01 -1.78470676E-01 -2.69950074E-02
 -5.26204140E-02 -2.88590432E-02  7.70955914E-02 -2.66172681E-02  4.41680259E-01
 -4.19985462E-02  1.11602752E-01 -4.82800014E-02 -1.04341274E+00  1.32051826E-01
 -3.48460632E-01  3.65079371E-01 -2.21835301E+00  1.56565452E-01 -4.72084804E-01
  1.86669311E-01 -2.20836724E-01 -7.35448485E-02  4.88604161E-02  2.76877898E-01
  1.78477100E-01 -6.73050000E-08 -1.30162000E-07  4.46703870E-03 -1.85418522E-03
 -6.43050000E-08  2.07418400E-06  8.77079272E-03 -2.49911620E-02  9.84844000E-07
 -1.75277920E-05 -3.39931768E-02  9.73531334E-02  5.82778100E-06 -8.20304900E-06
 -9.53122838E-02  1.78116743E-01  3.99320000E-07  2.51561000E-07  7.53720937E-03
 -3.50397864E-02 -1.08789900E-05 -1.00607000E-05 -1.03811750E-02 -1.97692077E-02
  5.83738511E-02 -1.23685954E-01  7.63990159E-02 -1.97162241E-02 -2.08843279E-01
  1.28578295E-01 -1.04864792E-01  2.09804281E+00  1.94480528E-01  3.61182738E-01
  4.12083880E-01 -1.30603694E-01 -8.27195794E-02  5.33793211E-03  4.32763992E-02
 -2.32207030E-01  2.85687720E-01 -2.43063870E-01  9.82328452E-02  4.49665627E-02
  1.03833203E-02  1.97738917E-02  5.83689445E-02 -1.23658132E-01 -7.64070938E-02
  1.96832646E-02 -2.08833449E-01  1.28530548E-01  1.04889684E-01 -2.09809947E+00
  1.94489762E-01  3.61183062E-01 -4.12094002E-01  1.30662571E-01 -8.27252165E-02
  5.33165244E-03 -4.32640270E-02  2.32209647E-01  2.85683080E-01 -2.43054540E-01
 -9.82403195E-02 -4.49703039E-02  3.66586207E-01 -6.09144504E-01  2.66517427E-01
 -1.19262121E-01 -5.84850837E-02 -1.27064472E-01 -1.40306281E-01 -3.22304238E-01
 -1.21441945E-03 -1.92537821E-01 -1.56861262E-01 -6.29318795E-02  1.40308948E-01
  3.22334259E-01  1.20104658E-03 -1.92562461E-01 -1.56860408E-01  6.29265577E-02
 -3.66599754E-01  6.09213883E-01 -2.66549833E-01 -1.19239176E-01 -5.84936940E-02
  1.27079941E-01 -4.17477000E-07 -7.59449000E-07  8.40930561E-02  1.18150191E-01
 -5.30301900E-06  9.43423100E-06 -1.46524827E-01  2.81096819E-02  7.28453200E-06
 -9.69980500E-06  1.19358640E-02  4.07786850E-01  2.11381530E-05 -5.07385890E-05
  8.84192212E-02  1.06776094E-02  2.46795150E-05 -2.62407000E-06  3.28561683E-02
  8.18269057E-02 -2.70826000E-07  1.73692000E-07  1.77847672E-03  3.69609206E-03
  8.91271390E-03 -2.53896338E-02  2.86704806E-03 -4.39527498E-02  1.23346056E-02
 -2.83429865E-02  8.32896589E-02  2.75689449E-01 -6.59393417E-02  1.44767291E-01
 -5.23852222E-01  3.94505263E-01  3.44203862E-02 -1.60149612E-01 -1.04518091E-01
  3.34783891E-01  3.84509371E-01  1.60899675E-02  2.12359976E-01  1.94620906E-01
 -1.77830514E-03 -3.69569348E-03  8.91169342E-03 -2.53893717E-02 -2.86682564E-03
  4.39478667E-02  1.23340051E-02 -2.83421062E-02 -8.32844092E-02 -2.75666164E-01
 -6.59358051E-02  1.44772658E-01  5.23830390E-01 -3.94459228E-01  3.44169244E-02
 -1.60137388E-01  1.04512721E-01 -3.34785532E-01  3.84505121E-01  1.60831142E-02
 -2.12361646E-01 -1.94618444E-01 -1.36905000E-07 -2.77834000E-07 -2.83239951E-03
  3.18495580E-02 -5.18463000E-07  3.39937700E-06 -8.86778513E-04 -2.91255514E-03
  1.34467000E-07 -1.67795340E-05  2.19017210E-02 -1.37713464E-01  7.72853800E-06
 -5.05553500E-06 -6.50164952E-02 -2.02742300E-02 -4.13976500E-06 -8.33644000E-07
  2.46058021E-03  3.66022881E-01 -2.93869600E-06 -1.26920800E-06  5.46230773E-02
  1.12689126E-01 -4.24808249E-02 -6.10751621E-01 -2.33195525E-01 -7.15944783E-01
  1.32765687E-01  1.13417714E+00  6.39227876E-01 -1.52797553E+00 -4.38068563E-01
 -1.82957665E-01 -4.11677837E-01  1.52120239E+00 -4.59091931E-03  1.78432009E-01
  4.00510234E-01  5.15426801E-02 -5.87077654E-02 -2.68645338E-01 -2.59562970E-01
 -6.08694290E-02  5.46201393E-02  1.12682719E-01  4.24976144E-02  6.10783111E-01
 -2.33163102E-01 -7.15951003E-01 -1.32806041E-01 -1.13420715E+00  6.39153720E-01
 -1.52727163E+00  4.38074323E-01  1.82842431E-01 -4.11520947E-01  1.52077659E+00
  4.59073971E-03 -1.78333136E-01  4.00509002E-01  5.15307358E-02  5.87436639E-02
  2.68709199E-01 -2.59584073E-01 -6.08792093E-02 -1.42467234E-01  1.32544835E+00
 -5.07572503E-01 -4.70298626E-01  2.08278522E-01  3.50034872E-01  4.64821726E-02
  9.59563976E-01 -5.83508531E-01  6.06448484E-01  2.27022324E-01  2.58918464E-02
  4.65629960E-02  9.59358284E-01 -5.83438620E-01 -6.06426809E-01 -2.27001523E-01
  2.58477636E-02 -1.42432317E-01  1.32526507E+00 -5.07485763E-01  4.70264670E-01
 -2.08238355E-01  3.50002687E-01 -1.50192883E-02 -2.73377487E-02 -1.11871670E-05
 -4.95055000E-06 -1.74014170E-01  3.33765485E-01  2.37184130E-05 -6.52303700E-06
  2.86615955E-01 -8.42390022E-01  1.19435300E-06 -7.06866180E-05  3.13555989E-01
 -2.75745854E+00 -3.49495000E-07  4.89092200E-06  1.18568907E+00 -1.34056033E-01
  2.04191400E-06 -4.51154800E-06 -5.85176944E-03 -4.97274509E-03  5.72815507E-03
  1.28046956E-02  1.41993700E-02 -5.87280251E-03  6.14903905E-03 -1.54657555E-01
  7.98531001E-04 -2.87407087E-03  1.12008746E-01  6.21622261E-01 -1.29469607E-02
 -1.77530781E-01 -5.36212370E-01  1.08989651E+00  7.97557973E-02 -2.97195854E-01
 -4.69730398E-02  1.40589112E-01  9.20191630E-02  2.56487196E-01 -1.61949605E-01
  1.48643355E-02  5.72880058E-03  1.28061168E-02 -1.41985772E-02  5.87954345E-03
  6.14787844E-03 -1.54674957E-01 -7.93349688E-04  2.88057112E-03  1.12024842E-01
  6.21732627E-01  1.29114131E-02  1.77484360E-01 -5.36351262E-01  1.08993701E+00
 -7.97551110E-02  2.97204765E-01 -4.70329563E-02  1.40623649E-01 -9.19594937E-02
 -2.56443710E-01 -1.61875852E-01  1.48547882E-02 -3.66313168E-03 -7.20045753E-03
  2.00537000E-07 -2.63340700E-06 -2.68897613E-02  8.40447134E-02 -4.93117000E-07
 -3.74629000E-07 -4.05715621E-03 -2.89271268E-01 -4.37907900E-06  1.88824590E-05
  1.94203443E-01  1.39644680E-01  7.79280800E-06 -4.75975200E-06 -2.76429734E-01
 -7.21698133E-02  1.42540500E-05 -2.43651040E-05 -8.51921444E-02 -3.17969577E-02
  1.00490861E-02  2.31919715E-02  7.92914474E-02  1.25123466E-01 -1.25767317E-01
  2.95156020E-02 -1.78199338E-01 -1.51391158E-01  2.92546113E-01 -2.63083321E+00
  1.47498983E-01 -4.03872419E-01 -6.22841556E-01  2.51088451E+00 -3.65644089E-02
  5.93485707E-01  5.30421459E-02  1.02562016E-02  2.57042831E-01  3.15161935E-01
  1.63077104E-01  5.54797167E-02 -1.00530087E-02 -2.32006176E-02  7.94102051E-02
  1.25116897E-01  1.25809276E-01 -2.94400817E-02 -1.78385829E-01 -1.51364280E-01
 -2.92636567E-01  2.63081172E+00  1.47278640E-01 -4.03830205E-01  6.22763079E-01
 -2.51101741E+00 -3.64615210E-02  5.93544098E-01 -5.30915632E-02 -1.02966955E-02
  2.56950373E-01  3.15123639E-01 -1.63035628E-01 -5.53404641E-02 -8.99534885E-02
  6.39285280E-01 -3.73668727E-01 -1.40052765E-01  1.66557256E-01  1.18893696E-01
 -4.64701558E-01  9.49866347E-01 -3.67868130E-01  4.10865358E-02  4.88574806E-02
  1.77331833E-01  4.64577985E-01 -9.49704741E-01  3.67755391E-01  4.11600473E-02
  4.88317560E-02 -1.77286209E-01  9.00902711E-02 -6.39628026E-01  3.73769128E-01
 -1.40055890E-01  1.66615812E-01 -1.18945578E-01  1.24719260E-05  1.89670660E-05
 -8.65203080E-02 -4.71742237E-02  2.62835436E-04 -1.16172970E-04  2.02376247E-01
 -4.59583492E-02 -3.92880011E-04 -4.69912557E-04  4.88150764E-02 -7.12582137E-01
  2.89146700E-04  9.11947690E-05 -2.12761837E-03  4.68817320E-02 -1.26353840E-05
 -1.29157261E-04  3.27995245E-02 -1.80279233E-02  6.92910120E-05 -7.02267960E-05
 -7.14229427E-04 -1.99606187E-03 -1.73776664E-03  3.55883551E-02  9.32129771E-03
  3.28636107E-02  2.46005835E-02  3.49899300E-02 -5.93586573E-02 -3.45642742E-01
 -1.70117947E-01 -2.69966458E-01  5.41234266E-01  1.14534388E-01  2.06228731E-02
 -3.14256987E-02  2.60986752E-01 -9.31423998E-02  3.82470212E-01  2.57457817E-01
 -3.69321742E-01  6.92097020E-02  7.21471033E-04  2.01039382E-03 -1.72883139E-03
  3.55701495E-02 -9.33754788E-03 -3.29909703E-02  2.46395161E-02  3.49403085E-02
  5.93086675E-02  3.45923344E-01 -1.70355187E-01 -2.69803631E-01 -5.41109108E-01
 -1.13977760E-01  2.06162171E-02 -3.12254769E-02 -2.60972722E-01  9.31487498E-02
  3.82515403E-01  2.57606254E-01  3.69349905E-01 -6.95497533E-02 -6.13994600E-06
 -1.36019520E-05  3.53763614E-03 -2.26283408E-02 -1.30090310E-05  1.04234695E-04
 -4.62823063E-03 -5.86033714E-03 -1.24520307E-04  1.60242403E-04 -5.41195313E-02
  1.71782847E-01 -7.23376550E-05 -2.59843289E-04  7.03448454E-02 -4.60352533E-02
  1.03851898E-04 -4.42327700E-06  1.57761065E-01 -1.74685072E-01 -3.19322020E-05
  8.74153350E-05  8.98346576E-03  1.75389174E-02 -1.74320812E-01 -1.51484369E-01
 -3.12405778E-03 -7.72461157E-02  3.01183881E-01  2.64516430E-01  4.21527796E-02
 -4.48972391E-01  2.76123161E-01 -1.15207029E-01 -2.42064580E-01  1.77437739E-01
 -1.37791148E-01 -4.21774858E-02  2.63398770E-02 -4.55793030E-02  1.15785423E-01
 -1.83180130E-02 -1.19351716E-02  1.76704798E-01  8.99149942E-03  1.75571663E-02
  1.74264940E-01  1.51391900E-01 -3.21684365E-03 -7.72281772E-02 -3.01057130E-01
 -2.64413980E-01  4.23728211E-02 -4.50978446E-01 -2.76220597E-01  1.15518866E-01
 -2.42534258E-01  1.79229479E-01  1.37815854E-01  4.17510284E-02  2.63727160E-02
 -4.55683596E-02 -1.15968987E-01  1.81034402E-02 -1.18290971E-02  1.76745174E-01
  1.63860670E-01 -1.68075490E-01 -1.76121455E-03 -1.14716052E-01 -2.53483191E-02
  1.79491561E-02 -1.64124028E-01  5.17348432E-01 -2.84459812E-01  6.28428671E-02
  1.01801907E-01  7.71170386E-02 -1.64450210E-01  5.18046689E-01 -2.84724488E-01
 -6.28847498E-02 -1.01842688E-01  7.72452652E-02  1.63793002E-01 -1.67580391E-01
 -2.03630055E-03  1.14825532E-01  2.52204184E-02  1.80478329E-02  3.16996275E-02
  4.71446290E-02  2.76320320E-05  1.55121990E-05  7.00177802E-01 -2.51275262E-01
 -6.67131710E-05  1.66502270E-05 -1.03393322E+00 -1.55812166E+00 -1.69774100E-05
  2.51180742E-04  8.65912125E-01 -4.14489512E-01  1.87131600E-06 -1.62114190E-05
  2.50969955E-01 -3.98702913E-01 -1.34342810E-05  7.33014300E-06  2.01250566E-01
 -2.06806950E-01  1.18154750E-02  2.38126990E-02 -8.05651756E-03  2.38661978E-02
 -2.17653569E-02 -2.24118127E-01 -5.51546742E-02  7.05215139E-02 -4.18066024E-02
  5.71197555E-01  3.40164630E-01 -2.83936234E-01  3.50635691E-02  1.06997620E+00
  3.47202923E-02 -3.61667066E-01  1.32311906E-02  5.46039925E-02 -3.80275901E-02
 -1.37693349E-01 -5.07638385E-03 -4.91632638E-01  1.18145641E-02  2.38104542E-02
  8.05718347E-03 -2.38906986E-02 -2.17598250E-02 -2.24085848E-01  5.51375055E-02
 -7.05451624E-02 -4.18507323E-02  5.70916965E-01 -3.40043912E-01  2.84116198E-01
  3.54643989E-02  1.07001879E+00 -3.47301253E-02  3.61684021E-01  1.34278152E-02
  5.45338946E-02  3.77607071E-02  1.37518771E-01 -5.32869164E-03 -4.91583473E-01
 -1.81572509E-02 -3.99720247E-02 -9.58156000E-07  8.02873300E-06 -4.39091769E-02
  3.12651702E-01  1.41590200E-06  2.04174400E-06 -3.52327606E-01  3.99700441E-01
  1.81005990E-05 -6.08107070E-05 -1.59970172E-01 -6.92558228E-01 -2.53163870E-05
  1.68549130E-05  2.24403257E-01 -3.24022383E-02 -5.34257290E-05  6.18972690E-05
 -1.16318039E-01  2.45103089E-01  6.45594303E-03  9.57020095E-03 -6.77440971E-02
 -4.57101460E-03  2.25873036E-02 -6.40752728E-02  1.40798511E-01 -1.74130562E-02
 -5.03007676E-02  2.42277774E-01  5.34674497E-01 -7.25870028E-02  1.15591626E-02
  1.80998847E-01 -9.48538901E-02  4.80313401E-02  1.18055358E-01 -1.71707669E-02
  1.01188261E-01 -1.91842097E-02 -7.44559381E-02  5.93926208E-02  6.45595612E-03
  9.57013616E-03  6.77451707E-02  4.56968608E-03  2.25858594E-02 -6.40705839E-02
 -1.40797550E-01  1.74154868E-02 -5.02985165E-02  2.42239144E-01 -5.34671569E-01
  7.26004123E-02  1.15445714E-02  1.80922110E-01  9.48516575E-02 -4.80139807E-02
  1.18049566E-01 -1.71701273E-02 -1.01188314E-01  1.91869477E-02 -7.44575447E-02
  5.93934516E-02  1.62601419E-01 -3.46408761E-01  1.03300414E-01 -1.01105935E-02
  2.79047551E-02 -3.05303236E-02 -6.64373998E-02  3.14326853E-01  8.23212825E-02
 -5.24343565E-03  7.45369986E-02  7.42822733E-02 -6.64298809E-02  3.14318617E-01
  8.23315438E-02  5.24286419E-03 -7.45369595E-02  7.42809085E-02  1.62601221E-01
 -3.46404038E-01  1.03298192E-01  1.01113283E-02 -2.79066691E-02 -3.05281517E-02
 -3.01286384E-02 -4.20774396E-02 -7.22257000E-07  1.38133000E-07 -7.04662848E-01
  1.10398273E-01  1.43078700E-06 -1.32177200E-06  1.10382791E+00  1.28529644E+00
 -7.21654000E-07 -2.73983100E-06 -2.30101582E+00 -3.90204528E-01  1.61262200E-06
  2.28629200E-06 -1.32385522E-01  3.98309562E-01  4.25744000E-07  2.62726000E-07
  4.15264730E-02 -3.95573528E-01 -9.77088198E-03 -1.99071037E-02 -1.17016596E-03
 -5.98489997E-03  2.21003390E-02  1.97479611E-01 -1.64103498E-02 -7.76072454E-02
  4.69663271E-02 -7.80573620E-01  1.51891322E-01  4.54873736E-01 -9.31639268E-02
 -1.21974499E+00 -1.62857376E-01  3.19438742E-01  2.01695402E-01 -2.20901144E-02
  7.12597872E-02  1.98328242E-01  4.36462532E-01 -2.44059740E-01 -9.77097723E-03
 -1.99073037E-02  1.16996272E-03  5.98507494E-03  2.20999639E-02  1.97481971E-01
  1.64104230E-02  7.76077032E-02  4.69665749E-02 -7.80586576E-01 -1.51890058E-01
 -4.54878932E-01 -9.31623580E-02 -1.21976523E+00  1.62858315E-01 -3.19442080E-01
  2.01697888E-01 -2.20898515E-02 -7.12596045E-02 -1.98325622E-01  4.36465472E-01
 -2.44058190E-01  2.44420796E-02  5.30645489E-02  1.89390000E-08 -1.61396000E-07
  5.43919603E-02 -4.63885444E-01  2.32487000E-07 -1.16061000E-07  3.67714613E-01
  3.91511381E-01 -2.30944000E-07  1.10834200E-06 -9.25509157E-02  1.47413815E+00
 -8.39041000E-07 -6.38519000E-07 -4.31704267E-01 -1.99935338E-03  8.28298000E-07
 -1.30734000E-06 -1.16457251E-01  3.03665041E-01  1.10911429E-03  1.99959047E-03
  8.93444451E-02 -1.84798040E-02 -3.13564310E-02 -4.14921597E-02 -1.74296345E-01
 -8.12883201E-03  5.58759269E-02  3.11224763E-01  5.95594100E-03  1.61622532E-01
  3.62130414E-02  2.26571550E+00 -5.28601643E-03  5.64427849E-01  9.23978212E-02
  1.91175145E-02 -3.36706046E-02  1.07628756E-01  9.29009241E-02  3.97146460E-02
 -1.10935084E-03 -2.00007523E-03  8.93478516E-02 -1.84829821E-02  3.13571669E-02
  4.14951388E-02 -1.74300023E-01 -8.12261069E-03 -5.58789725E-02 -3.11222986E-01
  5.98246920E-03  1.61618730E-01 -3.62085954E-02 -2.26572653E+00 -5.28686932E-03
  5.64428701E-01 -9.24019573E-02 -1.91164684E-02 -3.36643717E-02  1.07627534E-01
 -9.29018024E-02 -3.97109487E-02 -4.70816001E-02  9.94274727E-02 -1.13052976E-01
 -1.06654166E-03 -1.36295234E-02  2.21754166E-02 -9.72530155E-02  2.10651314E-02
 -1.83473241E-01 -2.68748175E-02 -5.30205894E-02 -2.04134306E-02  9.72607595E-02
 -2.10862847E-02  1.83475061E-01 -2.68723875E-02 -5.30209863E-02  2.04076282E-02
  4.70760831E-02 -9.94200060E-02  1.13057865E-01 -1.06954988E-03 -1.36274802E-02
 -2.21743370E-02  1.36262000E-07  1.71845000E-07  6.76967222E-01  2.15747930E-01
  3.20286300E-06  5.20859000E-07 -1.02714917E+00 -3.93292159E-01 -5.28458800E-06
 -3.82630300E-06  5.82820763E-01 -1.55316861E-01  2.32748820E-05  8.52940100E-06
  1.89137043E-01  1.01685739E-01 -6.34365000E-07 -2.69342800E-06  2.01391355E-01
  5.67649489E-02  2.45979900E-06 -1.14138500E-06  2.02651803E-03  4.25826858E-03
 -1.55421359E-02  3.97828782E-03  1.05416693E-02 -5.17224940E-02 -3.74897938E-02
  3.62446549E-03 -8.94094094E-03  1.82906759E-01  2.76819022E-01 -9.97572393E-02
  9.88965201E-02  4.01188533E-01 -2.26826959E-01 -1.35247795E-01  3.47992993E-02
 -5.82556167E-02  2.13849331E-01  1.05229130E-01  2.32156106E-01 -5.33356899E-01
 -2.02642406E-03 -4.25807109E-03 -1.55423149E-02  3.97821974E-03 -1.05418740E-02
  5.17201456E-02 -3.74899424E-02  3.62374789E-03  8.94047650E-03 -1.82893095E-01
  2.76820975E-01 -9.97502801E-02 -9.88969957E-02 -4.01173892E-01 -2.26825432E-01
 -1.35245672E-01 -3.48038856E-02  5.82565121E-02  2.13839535E-01  1.05226174E-01
 -2.32158624E-01  5.33354350E-01 -1.86510000E-07 -3.99456000E-07 -1.98666165E-02
 -1.67747579E-02 -4.00405000E-07  3.82287200E-06  2.63956656E-03 -1.29922675E-03
 -2.12037500E-06 -8.77739300E-06  5.79693157E-02  1.06926840E-01  2.62199400E-06
 -1.35380680E-05 -1.87093880E-01 -8.67657526E-02  3.95439000E-06  2.66026000E-07
 -1.44072172E-01 -1.32117431E-01 -1.77557200E-06  1.47949100E-06 -1.84944726E-02
 -3.59225585E-02 -4.09882320E-02  2.52814215E-01  4.73947063E-02  1.92978023E-01
  5.22548892E-02 -4.73748429E-01 -2.01708917E-01  3.67816910E-01 -1.17932344E+00
  2.31320872E-01  3.15168386E-01 -5.39154851E-01  4.13546297E-02 -5.17133069E-02
 -1.70456776E-01  3.32551205E-02 -3.77537498E-01  4.99326328E-02  2.15995118E-02
 -2.22489440E-02 -1.84949235E-02 -3.59234575E-02  4.09921681E-02 -2.52807914E-01
  4.73974707E-02  1.92967087E-01 -5.22656427E-02  4.73745199E-01 -2.01719825E-01
  3.68024872E-01  1.17932654E+00 -2.31377032E-01  3.15222494E-01 -5.39084587E-01
 -4.13537352E-02  5.16990209E-02 -1.70445879E-01  3.32557422E-02  3.77546621E-01
 -4.99417217E-02  2.16036332E-02 -2.22531337E-02 -3.20454488E-01  2.20569225E-01
  2.10167267E-01  2.46229870E-01 -1.21831153E-01 -3.95919521E-02  3.43989268E-01
 -1.06655246E+00  9.58119482E-02 -1.40852992E-01 -4.71183116E-02 -2.36964418E-01
  3.43992395E-01 -1.06658108E+00  9.58073587E-02  1.40858340E-01  4.71229276E-02
 -2.36967773E-01 -3.20457258E-01  2.20533950E-01  2.10180483E-01 -2.46238977E-01
  1.21843151E-01 -3.96074795E-02  6.71443315E-03  7.91945872E-03 -3.86988100E-06
 -1.97382000E-06  1.83451541E-01  7.79252441E-02  5.68124500E-06  5.34696500E-06
 -3.40202073E-01 -2.83026533E-01 -5.68845800E-06 -1.65901200E-06  1.77700813E+00
  9.17292026E-01 -3.60346700E-06 -2.93047900E-06 -1.32031167E-01 -9.00802868E-02
 -2.07206500E-06 -1.65974900E-06  2.20100513E-01 -1.22344023E-01 -1.22317891E-04
  7.42570300E-05  3.98263713E-03 -8.26152081E-03 -4.16320392E-03 -1.82606637E-02
  2.39812152E-02  1.59420104E-02 -2.77483263E-02  3.57944713E-01 -1.68655385E-01
 -2.14993643E-01  1.10418188E-01  4.11435439E-01 -3.51245226E-02 -3.96383300E-02
 -2.42260327E-01  8.05242314E-02  5.91790625E-01  1.13747277E-01 -8.08532115E-02
 -6.99616086E-02 -1.22039816E-04  7.48893570E-05 -3.98223218E-03  8.26202590E-03
 -4.16294308E-03 -1.82697377E-02 -2.39807642E-02 -1.59426493E-02 -2.77472340E-02
  3.57999353E-01  1.68645225E-01  2.15006026E-01  1.10397655E-01  4.11478498E-01
  3.51254465E-02  3.96434630E-02 -2.42270615E-01  8.05286536E-02 -5.91790765E-01
 -1.13751739E-01 -8.08526387E-02 -6.99777582E-02 -1.00999648E-02 -2.14715627E-02
 -1.42731000E-07  1.79550000E-08 -2.14958485E-02  2.12438118E-01 -8.62910000E-08
  7.88950000E-08 -9.60575933E-02 -6.71518735E-01  1.20115000E-06 -3.71713000E-07
  1.71683368E-01 -9.42658275E-01  3.02030100E-06  1.12372400E-06  2.65809172E-01
  4.32138110E-02 -1.55473800E-06  1.62384000E-07 -1.39869117E-01  1.37782851E-01
  5.86343592E-04  2.78984296E-03 -9.59547732E-03 -3.17675690E-02  1.69906131E-02
  2.79712300E-02  9.69985659E-02  1.15181031E-01  7.33081819E-04 -7.33141338E-01
  5.64414925E-02 -1.61361071E-01 -1.58857152E-01 -2.75838356E-01  3.31478073E-02
 -4.96019855E-02 -8.40906219E-02  3.34789385E-02 -6.35265913E-02 -2.24706067E-02
 -7.26320422E-02 -5.13350742E-02 -5.86428532E-04 -2.79003617E-03 -9.59522119E-03
 -3.17694217E-02 -1.69895554E-02 -2.79705367E-02  9.69992454E-02  1.15184483E-01
 -7.35509514E-04  7.33141533E-01  5.64642942E-02 -1.61364705E-01  1.58863008E-01
  2.75836934E-01  3.31485984E-02 -4.96028473E-02  8.40907191E-02 -3.34796719E-02
 -6.35220113E-02 -2.24700393E-02  7.26330205E-02  5.13338016E-02 -3.12244422E-02
  7.54829139E-02 -8.16171746E-02  3.60795875E-03 -1.42833756E-02  1.49783297E-02
  1.36116558E-03  2.84875411E-01  2.72914725E-03  1.17651060E-01  5.83955542E-02
  5.00265394E-02 -1.35694000E-03 -2.84890154E-01 -2.73078687E-03  1.17652882E-01
  5.83956107E-02 -5.00278445E-02  3.12208503E-02 -7.54763069E-02  8.16219211E-02
  3.60583198E-03 -1.42826055E-02 -1.49783310E-02 -2.67750000E-08 -6.69050000E-08
 -2.58606959E-01 -6.17060064E-02 -1.26384000E-07  1.68883300E-06  5.45711295E-01
  1.25460972E-01  2.32909000E-07 -1.85381200E-06 -2.20151167E-01 -1.30848297E-01
  1.28569250E-05  5.25847000E-07 -1.35785442E-01 -7.47029579E-02  1.40533700E-06
 -1.59342600E-06  6.37798059E-01  1.47368731E-01  8.05100000E-07 -8.09460000E-08
 -7.49477872E-04 -1.68872488E-03  1.90117009E-02  6.33629665E-03 -2.37956447E-03
  2.43123155E-02 -1.57302784E-02 -3.60453091E-03 -8.73642885E-03 -1.35059983E-01
  4.75443033E-02  3.08173269E-02  1.17201489E-01 -1.48011852E-01  1.02874022E-02
  1.74002207E-02  5.20328624E-02 -1.03473108E-02 -1.56517534E-02 -8.85324399E-03
  1.00178164E-01 -1.94363186E-01  7.49476540E-04  1.68873268E-03  1.90119627E-02
  6.33659011E-03  2.37939236E-03 -2.43129213E-02 -1.57306905E-02 -3.60471479E-03
  8.73658996E-03  1.35066183E-01  4.75463152E-02  3.08209011E-02 -1.17203230E-01
  1.48019744E-01  1.02875899E-02  1.74009354E-02 -5.20360099E-02  1.03480780E-02
 -1.56551131E-02 -8.85599748E-03 -1.00180195E-01  1.94363235E-01 -6.77300000E-08
 -1.38824000E-07 -3.60871189E-02 -7.93264351E-03 -1.27863000E-07  1.56291200E-06
  1.81495554E-02  4.00738773E-03 -3.12019000E-07 -6.79679200E-06 -4.21688573E-01
 -8.71986676E-02  2.67481100E-06 -5.80758600E-06  2.73004721E-01  7.70374943E-02
  9.11244000E-07 -1.14334800E-06  1.00674574E+00  2.29900993E-01  4.61819000E-07
  1.78955000E-07 -1.03745208E-02 -1.97628869E-02  1.09411485E-01  2.23276159E-01
  1.39154375E-01  1.01996261E-01 -3.13528505E-01 -3.90044993E-01 -4.44699668E-01
 -7.63629523E-02 -1.85887654E-01  1.46292916E-01  1.00606598E-01 -6.91754875E-02
 -2.71001012E-02 -4.38957540E-03  8.01174299E-03 -2.17042290E-01  4.77591973E-02
 -5.56065652E-03  6.66257397E-02 -6.14224917E-02 -1.03744063E-02 -1.97627103E-02
 -1.09394076E-01 -2.23278759E-01  1.39158660E-01  1.01997292E-01  3.13480249E-01
  3.90048930E-01 -4.44709440E-01 -7.63842477E-02  1.85894076E-01 -1.46289516E-01
  1.00609090E-01 -6.91743539E-02  2.71028635E-02  4.38835747E-03  8.01179987E-03
 -2.17036368E-01 -4.77460087E-02  5.55884797E-03  6.66229378E-02 -6.14392723E-02
  1.32979081E-02 -1.51671376E-01  2.20000169E-01  8.06221574E-02  2.50079253E-02
 -1.25234833E-01 -2.05611715E-02 -4.72346437E-01  1.96462560E-01 -2.30581612E-01
 -1.08398136E-01 -7.98350983E-02 -2.05518036E-02 -4.72323367E-01  1.96453326E-01
  2.30566750E-01  1.08387857E-01 -7.98254892E-02  1.32871598E-02 -1.51686719E-01
  2.20009732E-01 -8.06332819E-02 -2.50009721E-02 -1.25245979E-01 -1.65963967E-02
 -3.26003761E-02 -5.50865000E-07  1.49006600E-06 -1.59868523E-01  3.77029522E-01
  1.31194800E-06 -3.67318800E-06  6.35546935E-01  5.26816632E-01  3.34175800E-06
 -5.16455200E-06  2.00825952E+00 -2.65199059E-01  2.47847000E-07  5.62614000E-07
  3.40016021E-01 -3.96781920E-01 -6.48956000E-07 -4.83030000E-07 -2.39818787E-01
 -1.37364859E-01  3.90538902E-03  9.21104718E-03  3.66718112E-03  1.06962784E-04
 -5.84402256E-02 -1.47238427E-01 -1.37616621E-02  6.08818334E-02  5.96256130E-02
  6.41150601E-01  1.57976524E-01 -5.72989357E-01 -5.04371410E-01  7.30432373E-01
 -1.96687920E-02 -6.19877122E-02  1.32081087E-01 -3.14842923E-01 -1.56115043E-01
  4.62704723E-01 -3.02896098E-01 -2.02686452E-01  3.90526502E-03  9.21079133E-03
 -3.66752812E-03 -1.06762480E-04 -5.84404898E-02 -1.47235463E-01  1.37609740E-02
 -6.08815085E-02  5.96258675E-02  6.41141724E-01 -1.57973730E-01  5.72984109E-01
 -5.04375022E-01  7.30420608E-01  1.96666203E-02  6.19845593E-02  1.32084113E-01
 -3.14842756E-01  1.56111939E-01 -4.62703692E-01 -3.02895038E-01 -2.02689562E-01
 -2.11189175E-02 -4.40118203E-02  1.13195000E-07 -6.29240000E-08 -2.79487102E-02
  5.17765484E-01 -1.32405000E-07 -2.06110000E-08 -1.22173178E-01 -1.83734907E+00
  1.00640000E-07  1.97980800E-06  9.74252147E-01 -1.27067240E+00  2.74923000E-07
 -2.28526000E-07  1.82417462E-01 -2.97960109E-01 -2.61366000E-07 -2.47137900E-06
  9.68964669E-02  5.84036384E-02 -4.77585765E-03 -7.37323468E-03  1.90385358E-01
 -1.59205256E-01  1.25228902E-01 -3.86537394E-02 -5.49966294E-01  3.59957815E-01
 -2.46395800E-01  3.89841834E-01  6.10514948E-02  1.02663077E-01  8.21289080E-02
  6.59849175E-01  5.41522668E-02  2.58273248E-02  2.71374750E-01 -2.23215736E-01
  1.06726074E-01 -1.09607182E-01 -6.09301031E-02  1.76153968E-01  4.77587052E-03
  7.37333317E-03  1.90379722E-01 -1.59204348E-01 -1.25231385E-01  3.86530017E-02
 -5.49952152E-01  3.59957277E-01  2.46402374E-01 -3.89837087E-01  6.10460638E-02
  1.02664140E-01 -8.21286575E-02 -6.59854054E-01  5.41471602E-02  2.58270595E-02
 -2.71376471E-01  2.23220010E-01  1.06719362E-01 -1.09607228E-01  6.09273544E-02
 -1.76149690E-01  1.47175401E-01  1.15671739E-01  7.22236479E-03 -1.29301902E-01
  2.51075754E-02  9.46300374E-02 -7.55827806E-02 -3.03694509E-01  1.67271926E-01
 -1.80756044E-01 -1.32149769E-01 -7.96648810E-02  7.55814344E-02  3.03692006E-01
 -1.67268531E-01 -1.80755712E-01 -1.32146732E-01  7.96621383E-02 -1.47171922E-01
 -1.15665151E-01 -7.22721049E-03 -1.29296392E-01  2.51055928E-02 -9.46268720E-02
  1.39287000E-07  2.40178000E-07 -1.10752673E-01  3.52125432E-01  1.71193700E-06
 -2.41781900E-06  2.32977064E-01 -7.75394104E-01 -5.39490400E-06 -9.17024000E-07
  1.07224765E-01 -4.06155913E-01 -8.73875000E-06  7.98753000E-06 -8.31961006E-02
  5.19921248E-01 -4.42625400E-06  1.04385900E-06  1.29934260E-01 -5.78043502E-01
  1.14603700E-06  5.47619000E-07  1.06495374E-02  1.93713624E-02 -1.27469376E-02
  5.97946080E-02  3.77592206E-02 -1.38776237E-01 -6.23271607E-03 -4.74392692E-03
 -7.93331740E-02  2.17855341E-01 -7.51897275E-03 -1.04712461E-02  5.70021701E-01
  4.02572118E-01  4.78344284E-02 -1.44577668E-01 -3.94623941E-01  9.27712297E-02
  4.18931379E-02 -1.75573333E-01  1.32652869E-01  1.21203013E-01 -1.06495999E-02
 -1.93715096E-02 -1.27473167E-02  5.97942733E-02 -3.77588109E-02  1.38778757E-01
 -6.23275167E-03 -4.74331145E-03  7.93324130E-02 -2.17865051E-01 -7.51756417E-03
 -1.04778759E-02 -5.70013423E-01 -4.02583367E-01  4.78343350E-02 -1.44578585E-01
  3.94622520E-01 -9.27706173E-02  4.18922115E-02 -1.75566539E-01 -1.32649633E-01
 -1.21201682E-01  6.93150000E-08  1.44164000E-07 -1.37307666E-02  5.11266287E-02
  1.59990000E-08 -1.95886500E-06  1.20153947E-02 -4.51646326E-02  1.59919000E-07
  9.30265700E-06 -1.49592839E-01  6.02709824E-01 -4.92272900E-06  4.00593600E-06
  4.48665146E-02 -2.74638296E-01  4.96943000E-07  1.30657200E-06  2.32837469E-01
 -9.23459256E-01 -3.72502000E-07 -9.57595000E-07 -5.29045103E-04 -2.46427452E-04
  7.14376438E-01  6.56428710E-03 -2.56863280E-01 -3.03066585E-02 -2.14272489E+00
 -4.02468584E-03  6.72875305E-01  4.91447143E-01  1.85681544E-01  9.76955966E-02
  6.49796673E-02 -2.69464202E-01  1.33742209E-01 -6.40765554E-02 -1.03927732E-01
 -1.99995559E-01  5.51203797E-01 -1.42397873E-01  1.70754539E-01  7.83050068E-01
  5.29432177E-04  2.47394886E-04  7.14375657E-01  6.56818479E-03  2.56858580E-01
  3.03004534E-02 -2.14272259E+00 -4.02953402E-03 -6.72862558E-01 -4.91440924E-01
  1.85662044E-01  9.77022807E-02 -6.49815807E-02  2.69481467E-01  1.33739107E-01
 -6.40810726E-02  1.03933869E-01  2.00013851E-01  5.51187464E-01 -1.42402149E-01
 -1.70772142E-01 -7.83043787E-01  4.31406272E-01  9.59915323E-01 -4.17670679E-01
 -5.68888118E-01  3.51426991E-01  5.24759887E-01 -4.14866368E-01 -1.02558987E+00
  4.09082560E-01 -7.26761639E-01 -3.24400059E-01 -3.20428222E-01  4.14866044E-01
  1.02561082E+00 -4.09088953E-01 -7.26773833E-01 -3.24399578E-01  3.20423620E-01
 -4.31399004E-01 -9.59905407E-01  4.17657370E-01 -5.68871799E-01  3.51425406E-01
 -5.24756847E-01  2.66178000E-07  4.88497000E-07 -2.59484420E-02  3.69874731E-02
  3.78945700E-06 -6.25531900E-06  3.71528884E-02 -1.17509619E-01 -1.27567440E-05
  1.91995100E-06  2.61561164E-02 -7.68703185E-02 -3.69474140E-05 -2.91255400E-06
  4.14213118E-02 -1.26000384E-01 -4.03843000E-06  2.69473600E-06 -3.73198984E-02
  2.36075719E-01  1.39021100E-06  1.77422100E-06 -9.89777693E-04 -4.08694239E-04
  4.46480825E-02 -3.79125605E-02  1.22195968E-02 -6.01833313E-02 -5.97526475E-02
  1.08710753E-02  1.14690859E-02  3.92718270E-01  2.76660201E-01 -2.02742875E-01
 -7.55367382E-02  8.64448370E-02 -1.74510167E-01  3.89705645E-02 -1.56768332E-02
 -7.41488330E-02 -2.49456471E-01 -3.00095484E-02 -3.90575434E-02 -5.11070582E-02
  9.89555426E-04  4.08207818E-04  4.46470503E-02 -3.79145268E-02 -1.22204220E-02
  6.01915736E-02 -5.97522002E-02  1.08732124E-02 -1.14698407E-02 -3.92753140E-01
  2.76666989E-01 -2.02764175E-01  7.55559527E-02 -8.64848996E-02 -1.74511926E-01
  3.89651732E-02  1.56764240E-02  7.41501408E-02 -2.49458115E-01 -2.99972337E-02
  3.90650699E-02  5.11120783E-02  1.74055000E-07  3.55957000E-07  5.88373104E-03
 -2.81804540E-02 -1.63793000E-07 -5.04775600E-06 -1.67215357E-03  1.66521580E-02
  2.15600000E-07  2.81499050E-05  5.05073658E-03 -9.29951959E-02 -1.39019340E-05
  2.18700940E-05  3.17973494E-03  1.00916405E-01 -3.56468100E-06  4.13444400E-06
 -2.05701398E-02  1.89429765E-01 -4.28583000E-07 -4.93773000E-07  9.44716272E-04
  3.20313817E-03 -2.58048004E-02  1.88209053E-02  8.46295815E-02  5.46083590E-02
  4.35142779E-02 -7.41431365E-03 -2.15184102E-01 -7.31751504E-01  8.65039457E-02
 -7.78716232E-02 -3.17529296E-01 -1.00722593E-01 -6.22642843E-02  3.32204511E-02
 -5.38705365E-02 -8.46790484E-02  1.97144956E-03 -2.97731716E-02 -1.84628498E-02
  1.10112252E-03  9.44664634E-04  3.20303181E-03  2.58060792E-02 -1.88201261E-02
  8.46298497E-02  5.46100142E-02 -4.35186863E-02  7.41275060E-03 -2.15185483E-01
 -7.31758208E-01 -8.65091017E-02  7.78761066E-02 -3.17535677E-01 -1.00706917E-01
  6.22640535E-02 -3.32250591E-02 -5.38699293E-02 -8.46788850E-02 -1.97111252E-03
  2.97734732E-02 -1.84643173E-02  1.10008024E-03 -4.47213616E-02  5.81851778E-02
 -1.35053275E-01  5.85071688E-03  1.60281850E-02  1.97376130E-02 -4.30175460E-02
  1.82111098E-01 -1.15791803E-01 -6.01762641E-04  4.80036622E-02  2.46951201E-02
 -4.30154971E-02  1.82114132E-01 -1.15792573E-01  6.00257455E-04 -4.80050680E-02
  2.46947547E-02 -4.47202098E-02  5.81783524E-02 -1.35054353E-01 -5.85205472E-03
 -1.60268937E-02  1.97367098E-02  6.79257775E-02  1.08968493E-01 -7.51041000E-07
  4.50219000E-07 -6.93857644E-01 -8.32110325E-01  1.30034100E-06 -8.67842000E-07
  9.58893369E-01 -4.20026139E+00 -5.51547000E-07  5.25227000E-07 -1.12168145E+00
 -3.41178009E-01 -2.94050000E-08 -2.24029000E-07 -2.34501097E-01 -3.41608954E-01
 -1.03271800E-06  3.39602000E-07  2.99408781E-01  1.57561531E-01  3.66299872E-03
  1.13166040E-02  3.03099414E-02 -1.03637808E-01  2.58342746E-02 -2.88094859E-01
 -2.76904320E-02  7.68256172E-02  6.65496211E-03  1.38547474E+00  3.03764295E-01
 -8.67607869E-01  2.22336098E-01  6.11214848E-01  5.80890984E-03  2.10770043E-02
 -2.62190692E-01 -3.83743908E-02  3.38433058E-03 -2.35874669E-01 -3.84799575E-01
 -2.51871932E-01  3.66298744E-03  1.13165734E-02 -3.03098638E-02  1.03637458E-01
  2.58340840E-02 -2.88094195E-01  2.76904636E-02 -7.68254129E-02  6.65494763E-03
  1.38547067E+00 -3.03764044E-01  8.67606145E-01  2.22337926E-01  6.11216148E-01
 -5.80962911E-03 -2.10765166E-02 -2.62191086E-01 -3.83745353E-02 -3.38306608E-03
  2.35875383E-01 -3.84798699E-01 -2.51871530E-01  1.20872539E-02  2.85591118E-02
 -3.64570000E-08  1.66610000E-08 -1.12194476E-01 -3.99717918E-01  1.33437000E-07
 -2.41550000E-08  2.18792372E-01  1.72207042E+00 -7.20696000E-07  6.31920000E-08
 -1.16008596E+00  2.04046630E+00 -4.08220000E-07  1.17956000E-07 -4.81410110E-01
  7.27512937E-01  6.54424000E-07 -2.16160000E-08 -4.34711362E-02 -2.66133476E-02
  1.65041740E-03 -2.29638702E-03  8.15961846E-01 -8.78905555E-03  9.75266668E-03
  3.06242656E-02 -2.40726464E+00  5.52312817E-03  8.58917664E-02 -1.58899594E-01
 -8.74748504E-02  4.60846730E-02 -3.07831097E-02 -3.71613722E-01  3.40451520E-01
 -9.40302674E-02 -1.21021127E-01 -3.37321565E-01  6.27940253E-01 -6.23332746E-02
  1.89981181E-01  5.84269779E-01  1.65020184E-03 -2.29691266E-03 -8.15966035E-01
  8.79467847E-03  9.75780393E-03  3.06233847E-02  2.40727876E+00 -5.53401775E-03
  8.58820449E-02 -1.58850870E-01  8.74735728E-02 -4.60911645E-02 -3.07658292E-02
 -3.71627655E-01 -3.40452952E-01  9.40307122E-02 -1.21031164E-01 -3.37344227E-01
 -6.27932679E-01  6.23424389E-02  1.90000702E-01  5.84272021E-01  3.75518458E-01
  1.02164724E+00 -2.51689368E-01 -4.72586229E-01  3.81866321E-01  5.21310072E-01
 -4.03279704E-01 -1.25886185E+00  5.58593375E-01 -8.11444764E-01 -4.34625154E-01
 -2.48900825E-01 -4.03283843E-01 -1.25888625E+00  5.58601605E-01  8.11461918E-01
  4.34627496E-01 -2.48897058E-01  3.75516283E-01  1.02164147E+00 -2.51688592E-01
  4.72578138E-01 -3.81866194E-01  5.21311718E-01  6.69499760E-03  1.70676125E-02
 -8.43604000E-07  6.93041700E-06  1.99200060E-01 -1.21300125E-01  3.04885200E-06
 -1.79498540E-05 -6.91246901E-01 -3.44833088E-01  1.16211100E-06 -1.79709700E-06
  4.06456215E-01  6.16807890E-01 -4.36946000E-07 -3.27384000E-07 -3.42109424E-01
 -1.55868176E-01 -1.36347000E-06  8.41864000E-06 -1.42367791E-02 -2.18549237E-02
  1.33215014E-03  3.38848826E-03 -1.65823829E-02  8.51634382E-03 -7.11139658E-02
 -6.02345792E-02  3.99173243E-02  3.29509431E-03  4.62273449E-02  2.85779735E-01
 -1.57075367E-01  1.52631990E-02 -3.74838048E-01  2.42365710E-01  1.48802484E-01
 -1.44402053E-01  2.25722204E-01  2.38640653E-01  1.00203543E-01  1.41104758E-01
  1.43478515E-02 -1.84210824E-03  1.33228566E-03  3.38860547E-03  1.65832497E-02
 -8.52270371E-03 -7.11153701E-02 -6.02284224E-02 -3.99173417E-02 -3.29161438E-03
  4.62275679E-02  2.85752110E-01  1.57079437E-01 -1.52890798E-02 -3.74842965E-01
  2.42389151E-01 -1.48807767E-01  1.44419480E-01  2.25717606E-01  2.38633498E-01
 -1.00199897E-01 -1.41107683E-01  1.43594736E-02 -1.83536803E-03 -3.09799136E-03
 -6.45178286E-03  1.02370000E-07 -6.17823000E-07 -6.47991780E-02  5.18370836E-03
 -2.17943000E-07  2.62061000E-07 -6.26273024E-02  4.73315080E-01 -5.97692000E-07
  3.39353000E-07 -4.24802622E-01 -6.04811098E-01  7.04084000E-07  4.84202000E-07
  4.19747980E-01  2.60696496E-01  2.52274000E-07  1.27724800E-06 -1.24698194E-02
  5.51404031E-04  3.73464658E-04  1.45142056E-02  2.05508757E-01 -1.78881345E-02
 -4.76472687E-01 -1.73960944E-01 -6.97266854E-01  1.05188246E-01  1.25414837E+00
  4.25316935E-01  3.03141424E-02 -5.40036057E-02  8.25387780E-02  1.80668595E-01
  9.37475351E-02  1.04996553E-01 -2.79102825E-02  2.47324718E-01  4.70424640E-01
 -3.55958711E-01 -8.23560536E-02  2.21968355E-01  3.73317901E-04  1.45139858E-02
 -2.05516103E-01  1.78929617E-02 -4.76474184E-01 -1.73963090E-01  6.97289606E-01
 -1.05199456E-01  1.25415339E+00  4.25351372E-01 -3.03113359E-02  5.39999023E-02
  8.25506713E-02  1.80650798E-01 -9.37479519E-02 -1.04993166E-01 -2.79145484E-02
  2.47313599E-01 -4.70425963E-01  3.55965809E-01 -8.23505878E-02  2.21977196E-01
  2.87670696E-01  7.38516313E-01 -4.77942392E-01 -4.66289379E-01  2.67713568E-01
  3.39121615E-01 -4.62134029E-02 -2.03388443E-01 -6.60854469E-02 -6.75298536E-02
 -7.34271069E-02 -9.44078814E-02 -4.62170562E-02 -2.03409657E-01 -6.60797146E-02
  6.75408157E-02  7.34326106E-02 -9.44126009E-02  2.87675684E-01  7.38523736E-01
 -4.77941344E-01  4.66290541E-01 -2.67719114E-01  3.39130112E-01 -5.99394492E-03
 -2.47939888E-02 -8.10747000E-07  2.74276400E-06 -2.65412310E-01  2.43317410E-01
  2.37379100E-06 -7.32436400E-06  9.99086614E-01  5.04927823E-01 -7.49836000E-07
 -2.48919500E-06 -2.70828917E-01 -1.50337460E-02  8.47156000E-07  2.94220000E-07
  3.24887123E-01  2.97201581E-01 -3.47223000E-07  3.75193900E-06  1.25740429E-01
  5.31417112E-02 -1.91367721E-04 -3.61929739E-03 -3.85446359E-02 -1.88429749E-02
  2.17871269E-01  1.46541159E-01  3.80756260E-02  2.11273461E-03 -1.38869575E-01
 -7.01615236E-01 -1.72559422E-01  1.38532049E-02  9.65254594E-01 -3.23459993E-01
  4.28886485E-02  2.06688820E-01 -5.79334008E-01 -4.62044156E-01  2.81558113E-01
 -3.38177029E-01 -8.14633630E-02 -3.17261212E-02 -1.91260975E-04 -3.61913619E-03
  3.85469983E-02  1.88406476E-02  2.17869831E-01  1.46542139E-01 -3.80768090E-02
 -2.11172687E-03 -1.38868649E-01 -7.01621537E-01  1.72565186E-01 -1.38613241E-02
  9.65247917E-01 -3.23449650E-01 -4.28910913E-02 -2.06682920E-01 -5.79338975E-01
 -4.62043949E-01 -2.81561511E-01  3.38172784E-01 -8.14604510E-02 -3.17212127E-02
  4.27243478E-03  8.82649500E-03 -8.58300000E-08 -4.73569000E-07  1.08619306E-01
  1.01825399E-02  1.18817000E-07  1.83795000E-07  8.78965651E-02 -8.68936110E-01
  8.12881000E-07  6.43100000E-08  7.34258141E-01  6.50066406E-01 -4.94134000E-07
 -1.73378000E-07 -5.81037702E-01 -4.28396241E-01 -6.77383000E-07  1.09273600E-06
 -4.31450129E-03  7.69931695E-03 -2.40984245E-03  6.28777864E-03 -1.54340866E-01
 -1.59437536E-01 -4.28737438E-01 -1.91405127E-01  4.90350315E-01  5.54300543E-01
  1.09608522E+00  1.61571389E+00  7.33099714E-02  4.61912558E-01  1.34131832E-01
 -8.30689350E-01 -4.39260458E-02 -4.10565623E-01  1.20367050E-01  2.73377769E-01
  8.16005458E-02 -1.48017197E-01 -3.08168215E-01 -1.39290203E-01  2.40963523E-03
 -6.28826101E-03 -1.54322465E-01 -1.59438338E-01  4.28743443E-01  1.91408363E-01
  4.90293654E-01  5.54303469E-01 -1.09610403E+00 -1.61570486E+00  7.32849092E-02
  4.61913826E-01 -1.34131578E-01  8.30695074E-01 -4.39240853E-02 -4.10567196E-01
 -1.20364759E-01 -2.73376651E-01  8.16227016E-02 -1.48022768E-01  3.08169601E-01
  1.39271513E-01  1.68060596E-01 -7.19528097E-02 -4.87973611E-02 -1.77974816E-01
  1.79344573E-02 -4.59727707E-04  1.51616510E-01  4.40001941E-01 -2.47826976E-01
  3.86894924E-01  1.43316115E-01  5.62049933E-02 -1.51606343E-01 -4.39973866E-01
  2.47826580E-01  3.86880063E-01  1.43305814E-01 -5.61956199E-02 -1.68072292E-01
  7.19071197E-02  4.88020220E-02 -1.77991879E-01  1.79485983E-02  4.38492775E-04
 -1.47759000E-07 -3.35662000E-07 -1.48159607E-01  6.03200938E-01 -3.70527800E-06
  3.05467200E-06  3.91712848E-01 -1.62266537E+00  1.37802370E-05  1.29954700E-06
  7.28345228E-02 -1.00724739E-01  4.15272400E-06 -7.60262300E-06  1.05155760E-01
 -6.29314345E-02  4.92690300E-06  4.29678200E-06 -1.89064917E-01  6.07667616E-01
  1.21046800E-06  1.12307800E-06 -3.33601143E-03  2.05957948E-03  7.93175602E-02
 -2.63251525E-01 -4.42945503E-02 -3.79002871E-01 -4.34847805E-02  1.64439206E-01
  8.20732128E-02  2.09183582E+00  3.62522687E-01 -1.15910725E+00 -2.20960549E-01
 -4.94728304E-01 -1.78564427E-01  6.06525671E-01  2.98443463E-02  3.94504444E-01
 -4.84755947E-03 -2.48672927E-01 -3.94587848E-01 -2.66930207E-01  3.33594060E-03
 -2.05965883E-03  7.93190544E-02 -2.63249260E-01  4.42943869E-02  3.79001345E-01
 -4.34854100E-02  1.64437865E-01 -8.20730326E-02 -2.09182760E+00  3.62517591E-01
 -1.15909760E+00  2.20961178E-01  4.94727409E-01 -1.78563505E-01  6.06523909E-01
 -2.98430487E-02 -3.94502459E-01 -4.84945198E-03 -2.48673362E-01  3.94584527E-01
  2.66930214E-01  7.95000000E-08  1.60967000E-07  1.58630729E-02 -2.36865437E-02
  1.50563500E-06 -3.47153000E-07 -4.40855929E-03 -1.27369987E-02  1.40537500E-06
 -1.32554080E-05 -9.00433258E-03  1.17461874E-01  9.39576900E-06  8.36616000E-07
 -5.78605877E-02  3.71711371E-03 -3.98319900E-06 -4.89828800E-06 -1.83987635E-02
 -2.54723595E-02 -1.45179000E-07 -1.28400000E-07  2.62826844E-03 -4.86898756E-03
  1.04537994E-01  1.28991089E-02  3.33747387E-01  9.85764606E-02 -3.03257150E-01
 -7.78621575E-02 -8.45694249E-01 -5.69198225E-01 -2.63401895E-01  8.99346642E-02
 -1.70505352E-02  4.28780842E-01 -9.30537215E-02  1.49438328E-01  1.53658754E-01
 -2.71244012E-01 -7.99137779E-02  1.83938101E-01  1.05810614E-01  7.78656822E-02
  2.62815868E-03 -4.86902441E-03 -1.04530470E-01 -1.28910868E-02  3.33745958E-01
  9.85731392E-02  3.03233468E-01  7.78399233E-02 -8.45690000E-01 -5.69170218E-01
  2.63398563E-01 -8.99441207E-02 -1.70431944E-02  4.28798958E-01  9.30555401E-02
 -1.49441007E-01  1.53663258E-01 -2.71243980E-01  7.99173506E-02 -1.83937722E-01
  1.05801792E-01  7.78564584E-02 -1.01563964E-01  2.34231300E-02  6.88849502E-02
  1.20603589E-01 -3.97446709E-02 -6.10576027E-04 -9.33441524E-02 -3.04901828E-01
  4.15587352E-02 -2.22136063E-01 -7.67862477E-02 -1.40680843E-02 -9.33371362E-02
 -3.04886630E-01  4.15550058E-02  2.22124889E-01  7.67803839E-02 -1.40620233E-02
 -1.01565436E-01  2.34140348E-02  6.88886805E-02 -1.20604891E-01  3.97488659E-02
 -6.16013815E-04 -1.58189735E-02 -4.47763481E-02  1.85911000E-07 -1.74376800E-06
 -5.71365247E-01  4.91924164E-01  1.97418000E-07  5.36247700E-06  2.35780350E+00
  3.52318122E-01  1.03431200E-06  2.79995000E-06  1.89416592E+00 -9.94446846E-01
  5.56644000E-07 -5.48780000E-07  8.60355798E-01  8.07064013E-01  1.74556700E-06
 -3.02877300E-06  3.39492963E-01  1.99935784E-01 -2.67442730E-03  1.31465931E-03
  7.16346108E-02 -1.48526458E-01 -8.38002353E-03 -2.91881756E-01 -4.08672341E-02
  7.64119590E-02  4.13527195E-02  1.81486416E+00  2.99241266E-01 -9.27717153E-01
 -2.74649855E-01  3.92699979E-01 -8.93823765E-02  1.23765678E-01 -2.68290541E-01
  3.98758857E-01 -1.86943066E-02 -2.23246805E-01 -2.06336883E-01 -1.37878234E-01
 -2.67447568E-03  1.31462382E-03 -7.16357827E-02  1.48528587E-01 -8.37995906E-03
 -2.91883802E-01  4.08678641E-02 -7.64134958E-02  4.13529248E-02  1.81488153E+00
 -2.99245733E-01  9.27726604E-01 -2.74647978E-01  3.92710018E-01  8.93814918E-02
 -1.23767039E-01 -2.68293323E-01  3.98759434E-01  1.86972940E-02  2.23250101E-01
 -2.06339543E-01 -1.37880864E-01  1.53547855E-02  3.07416813E-02  8.67470000E-08
  2.18373000E-07  3.12923423E-01 -6.59089982E-02  2.15675000E-07 -1.01990000E-07
  2.27895667E-01 -2.74061811E+00  8.90574000E-07 -9.32099000E-07  1.69668936E+00
 -4.34405088E-01 -4.65550000E-08 -6.25560000E-08 -4.98318537E-01 -8.26145213E-01
 -5.39561000E-07  1.33904000E-07 -8.02462152E-02 -4.75280986E-02 -3.30297555E-03
 -1.29595246E-02  6.42565983E-02 -2.39190647E-01  3.83405822E-01  5.09861935E-02
 -1.51981227E-01  5.81389108E-01 -9.36930690E-01 -2.50675431E-01  1.45495848E-03
  5.75616491E-02 -8.72401198E-02 -4.90904534E-01  2.82150991E-02 -3.03445700E-01
  3.36715758E-01 -4.01838734E-01 -1.33419693E-01  9.50685691E-02 -1.13282140E-01
  3.22851235E-02  3.30288409E-03  1.29592972E-02  6.42563049E-02 -2.39192148E-01
 -3.83403122E-01 -5.09848587E-02 -1.51981583E-01  5.81393298E-01  9.36922276E-01
  2.50675112E-01  1.47323167E-03  5.75590508E-02  8.72438954E-02  4.90896275E-01
  2.82160609E-02 -3.03445431E-01 -3.36717430E-01  4.01837211E-01 -1.33414854E-01
  9.50678123E-02  1.13282899E-01 -3.22842025E-02 -2.52514716E-04 -1.88240684E-01
  2.71337017E-01  9.31708194E-02 -1.10708244E-01 -4.98918461E-02 -3.15814949E-02
 -8.32950230E-02  1.92447170E-01 -7.89032285E-02 -9.48996797E-02  1.97730066E-02
  3.15829183E-02  8.32851660E-02 -1.92448415E-01 -7.89023210E-02 -9.48986596E-02
 -1.97759538E-02  2.50288342E-04  1.88240230E-01 -2.71328034E-01  9.31662294E-02
 -1.10706982E-01  4.98909943E-02 -6.44350000E-08 -1.17752000E-07 -8.82292685E-02
  2.80154629E-01 -2.06190000E-08  1.73228700E-06  2.68433548E-01 -8.54175794E-01
  1.32867900E-06  2.14226900E-06  1.78845701E-01 -7.12911709E-01  1.34198520E-05
  6.11294000E-06 -3.92457725E-02  2.28103176E-01 -1.09764800E-06  1.21754300E-06
 -1.50276796E-01  5.38207779E-01  3.03470000E-07  9.40706000E-07 -2.75438740E-03
 -6.78749725E-03 -6.08103629E-03 -1.01931857E-01  3.21439229E-01  8.65968156E-02
  2.18886590E-02  3.69970650E-02 -2.35321290E-01 -3.05883866E-02 -4.71998651E-02
 -4.09616680E-01  1.32341392E+00  4.99553147E-01  6.24470946E-02  7.31417830E-02
 -6.18075224E-01 -4.36670360E-01  2.57433521E-01 -4.97281724E-01 -1.94343252E-01
 -5.49041935E-02  2.75439928E-03  6.78754158E-03 -6.08357191E-03 -1.01931810E-01
 -3.21439526E-01 -8.65985234E-02  2.18904963E-02  3.69970411E-02  2.35321353E-01
  3.05995705E-02 -4.72055133E-02 -4.09612958E-01 -1.32341809E+00 -4.99546450E-01
  6.24504889E-02  7.31431019E-02  6.18074497E-01  4.36670947E-01  2.57438222E-01
 -4.97281234E-01  1.94343997E-01  5.49022213E-02 -2.37250000E-08 -4.81320000E-08
  1.71036373E-02 -8.93682253E-02  3.26916000E-07  9.21291000E-07 -1.33999784E-02
  6.96911619E-02  7.54380000E-08 -8.54673000E-06  2.67132870E-03 -1.75308414E-02
  3.69874400E-06 -9.18149700E-06 -6.51677310E-02  1.76952686E-01  2.77513700E-06
 -9.04548000E-07 -4.82685748E-02  2.01146372E-01 -1.04751000E-07  3.50060000E-08
  9.64292004E-03 -1.34347573E-03  1.74478564E-02  9.25178072E-01  1.41501423E-01
  2.89369397E-01 -7.62831668E-02 -2.54997571E+00 -4.78482365E-01 -7.24860662E-01
 -4.27366726E-02  7.21909739E-02 -1.63900063E-02 -2.95008653E+00 -1.08952477E-02
 -6.43089278E-01 -1.78977074E-01  2.98323866E-01 -1.00739974E-01  1.07726688E-01
  1.05298244E+00  3.13956850E-02 -9.64305431E-03  1.34327575E-03  1.74543836E-02
  9.25177379E-01 -1.41500821E-01 -2.89368184E-01 -7.63043645E-02 -2.54997394E+00
  4.78479322E-01  7.24864497E-01 -4.27420934E-02  7.21909002E-02  1.63903649E-02
  2.95006874E+00 -1.08928026E-02 -6.43085597E-01  1.78972461E-01 -2.98324146E-01
 -1.00742518E-01  1.07723529E-01 -1.05298193E+00 -3.14001242E-02 -2.36601710E-01
 -5.95554567E-01  3.95846822E-01  3.83709735E-01 -1.01463422E-01 -3.21619688E-01
 -2.46187876E-01 -5.85721614E-01  3.49553807E-01 -4.83751772E-01 -7.90943852E-02
 -1.22157377E-01  2.46190404E-01  5.85726724E-01 -3.49550302E-01 -4.83757399E-01
 -7.90912758E-02  1.22153887E-01  2.36599619E-01  5.95544426E-01 -3.95842351E-01
  3.83702473E-01 -1.01465114E-01  3.21617789E-01 -2.11520000E-08  6.59080000E-08
 -5.41951695E-02  2.52954141E-01  2.81199800E-06 -1.43047600E-06  1.35292266E-01
 -6.05953180E-01 -9.20779000E-06  4.90591600E-06 -8.98161093E-02  2.16972273E-01
 -1.34665300E-06  1.60778380E-05  2.37308395E-02 -9.67790247E-02 -7.93191600E-06
 -2.59759500E-06 -2.21609330E-02  2.46420334E-01 -1.81553500E-06 -5.68682000E-07
 -1.01959240E-03 -3.32214659E-04  4.62985358E-02 -4.17444618E-03  5.05990584E-02
 -9.38476707E-02 -3.59436378E-02 -6.28314118E-02 -9.69106367E-03  4.95235999E-01
  1.24788446E-01 -3.59523141E-02 -1.33538451E-02 -9.60626799E-01 -1.14914926E-01
  1.71887201E-01  1.38881545E-01  1.68775167E-01  1.16078074E-02 -3.10549540E-01
  1.75584653E-02 -3.54717780E-02  1.01961358E-03  3.32229471E-04  4.62942299E-02
 -4.17623664E-03 -5.05999713E-02  9.38489838E-02 -3.59391717E-02 -6.28302125E-02
  9.69143966E-03 -4.95245423E-01  1.24785017E-01 -3.59581345E-02  1.33509232E-02
  9.60625085E-01 -1.14914605E-01  1.71888368E-01 -1.38877622E-01 -1.68777402E-01
  1.16125734E-02 -3.10552651E-01 -1.75558098E-02  3.54698660E-02 -7.55360000E-08
 -1.51004000E-07 -2.26174016E-02  2.83502502E-03 -1.14646700E-06  9.49659000E-07
  2.11394508E-02 -1.17484739E-02 -8.60462000E-07  5.82948800E-06 -7.36831147E-03
 -5.52397224E-03 -4.39693400E-06 -5.24396400E-06  1.52725047E-02 -1.83624332E-03
  4.86605100E-06  2.24909000E-06  1.77033223E-02  8.60102368E-03  3.78432000E-07
 -1.12720000E-08  2.23993897E-03  2.33227527E-03 -3.23036499E-02 -9.11959504E-03
  3.05101947E-02 -1.03145360E-02  7.44849451E-02  2.37365761E-02 -6.95887224E-02
 -5.28437058E-02 -3.32923176E-01 -1.91949089E-02  3.77199178E-02  1.48090220E-01
  2.01690179E-01  1.24175268E-01  5.26799506E-02 -1.17311884E-02  1.69550595E-02
  1.12550866E-02 -2.26249056E-03 -1.72902174E-02  2.24025801E-03  2.33267116E-03
  3.23011983E-02  9.11595010E-03  3.05104807E-02 -1.03117169E-02 -7.44801849E-02
 -2.37325746E-02 -6.95855325E-02 -5.29047930E-02  3.32910487E-01  1.91938403E-02
  3.77047819E-02  1.48008715E-01 -2.01688355E-01 -1.24152028E-01  5.26864188E-02
 -1.17278236E-02 -1.69573762E-02 -1.12502151E-02 -2.26393943E-03 -1.72879002E-02
 -1.85459406E-02  9.06098395E-02  1.91404446E-02  2.43305892E-02  7.71791941E-03
 -1.61723988E-02 -4.52916735E-03 -3.19580899E-02 -9.66903649E-02  3.55185180E-02
  1.65387046E-02  4.75999328E-02 -4.53073750E-03 -3.19419740E-02 -9.66741948E-02
 -3.55187246E-02 -1.65435271E-02  4.76010756E-02 -1.85463618E-02  9.06219772E-02
  1.91357076E-02 -2.43260670E-02 -7.71837148E-03 -1.61634629E-02 -1.08071770E-04
  4.83006539E-04 -7.46271000E-07 -1.17653100E-06  1.18080448E-03 -2.49352038E-03
 -2.93513600E-06  1.23395000E-06  1.54153657E-02  2.38020435E-01 -4.79211300E-06
 -4.81099500E-06  3.65632135E-01 -8.64713490E-02  1.78848910E-05  4.11973200E-06
  2.81160081E-02  1.93927161E-02 -3.99288200E-06 -1.09076200E-06  1.21262502E-02
 -1.20559083E-02  1.19948869E-03  2.43576373E-03 -8.45926337E-01 -3.04543848E-01
 -9.00945333E-02 -3.82188699E-02  1.05060274E+00  3.78320699E-01  1.14907483E-01
  1.88514404E-01 -6.80090563E-01 -2.94120024E-01 -1.45939287E-01 -8.40707385E-02
  3.41791771E-01  1.51120186E-01  3.99621576E-02  1.53142706E-02  4.77817479E-03
  1.11728143E-02 -8.71915996E-03  1.13665345E-02  1.19936679E-03  2.43554627E-03
  8.46036209E-01  3.04582783E-01 -9.01130395E-02 -3.82167337E-02 -1.05073909E+00
 -3.78368950E-01  1.14930102E-01  1.88502271E-01  6.80182411E-01  2.94152380E-01
 -1.45949577E-01 -8.40926903E-02 -3.41834112E-01 -1.51140794E-01  3.99771769E-02
  1.53150204E-02 -4.77750247E-03 -1.11726236E-02 -8.72100751E-03  1.13670624E-02
 -9.41896024E-04 -1.83347742E-03 -4.67508200E-06 -2.13406900E-06  3.25217452E-02
  2.88204633E-02  5.35375300E-06  2.68928400E-06 -3.39731318E-02 -2.47501706E-01
  2.95264400E-06 -6.62448000E-07  1.06508170E-01 -2.25613945E-01 -4.30338600E-06
  2.23863300E-06  6.40047728E-02 -6.87822514E-03 -3.08190800E-06 -7.01410000E-08
 -1.06540373E-02  9.75700374E-03 -1.03840042E-03 -4.19501921E-04 -3.60271874E-02
 -6.27964269E-02 -1.09389748E-02 -4.87222531E-02  1.05633687E-01  1.53862337E-01
  1.54006796E-02  4.15006950E-01 -8.89626619E-02 -4.28324490E-03  1.15016521E-01
  1.20955318E+00  5.18221476E-03  3.13055053E-01 -3.50965757E-03 -1.55749106E-02
 -1.58691697E-02  3.01773619E-02 -6.02011907E-02 -4.15610988E-02  1.03789859E-03
  4.18854802E-04 -3.60321293E-02 -6.27982009E-02  1.09360902E-02  4.87269754E-02
  1.05645964E-01  1.53867618E-01 -1.53955942E-02 -4.14995988E-01 -8.90172024E-02
 -4.28467252E-03 -1.15022040E-01 -1.20959465E+00  5.20635080E-03  3.13074211E-01
  3.49554519E-03  1.55739630E-02 -1.58653815E-02  3.01779391E-02  6.02035830E-02
  4.15644459E-02  2.42239134E-03 -4.62177132E-02 -2.06056022E-03  2.09221724E-02
  2.86747281E-03 -4.56030964E-02  2.59235988E-02  1.18862166E-02 -2.00923039E-01
  6.48729588E-02 -8.57329464E-03  2.56697587E-02 -2.59235455E-02 -1.18852134E-02
  2.00947074E-01  6.48812469E-02 -8.57119503E-03 -2.56771211E-02 -2.41917413E-03
  4.61969850E-02  2.06163913E-03  2.09237128E-02  2.86956904E-03  4.56028577E-02
  4.06060000E-08  2.16130000E-08 -9.40086755E-03 -2.18371192E-02 -1.01462000E-07
 -7.00884000E-07 -4.91288299E-02  3.02002259E-02 -7.32238000E-07 -1.12592450E-05
 -7.27089351E-02 -6.99139361E-02 -2.12410320E-05  2.30871370E-05  2.69807877E-01
  7.57106578E-02 -9.55114700E-06 -1.12763600E-06 -6.04069139E-02 -2.97118472E-02
 -8.34065000E-07  5.79631000E-07  9.98540753E-04  1.77750140E-03  8.51526712E-01
  2.67950997E-01  9.58335405E-02 -1.68205115E-02 -1.05762857E+00 -3.28408863E-01
 -1.18686189E-01  8.02501991E-02  7.08490558E-01  2.10842964E-01  3.30179541E-02
  2.06209570E-01 -3.32769143E-01 -1.39494930E-01 -7.88272901E-02 -3.86517091E-03
  4.60813318E-03  1.63222728E-02  6.86658707E-03 -5.42038910E-03 -9.98671815E-04
 -1.77777378E-03  8.51415579E-01  2.67912583E-01 -9.58249159E-02  1.68245191E-02
 -1.05749034E+00 -3.28361172E-01  1.18674979E-01 -8.02712244E-02  7.08399490E-01
  2.10807444E-01 -3.30039128E-02 -2.06200680E-01 -3.32723663E-01 -1.39476090E-01
  7.88275253E-02  3.86408596E-03  4.60926310E-03  1.63229399E-02 -6.86567097E-03
  5.41866546E-03  6.27360000E-08  1.19672000E-07 -1.18842147E-01 -4.70859837E-02
 -1.61164300E-06 -1.83642000E-06  1.39722042E-01  5.83596938E-02  1.66219600E-06
  1.49243560E-05  8.05002123E-03 -1.43448931E-02 -6.23252100E-06  8.42374700E-06
 -4.30734033E-02  2.27635070E-02 -5.39602000E-07  5.25557000E-07 -4.63151376E-02
 -6.74037773E-03  6.59079000E-07 -6.00503000E-07 -2.62012208E-04  7.57903300E-06
  1.44187365E-03  7.80587766E-03  6.76339879E-03  4.90428209E-02  2.38853772E-02
 -8.90068698E-03 -1.18749663E-02 -5.79028552E-01  1.80473551E-02 -2.05942726E-01
 -9.65189853E-02  2.41115111E-01 -9.94405395E-02 -5.38018927E-03  1.40004846E-01
  1.35745134E-02 -1.73669860E-02 -2.92980632E-03 -7.29226641E-03 -1.61318839E-02
  2.61992468E-04 -7.62726600E-06  1.44151110E-03  7.80579082E-03 -6.76356196E-03
 -4.90426548E-02  2.38868035E-02 -8.90028158E-03  1.18755425E-02  5.79031754E-01
  1.80550677E-02 -2.05941876E-01  9.65199817E-02 -2.41106004E-01 -9.94383260E-02
 -5.38038511E-03 -1.40002177E-01 -1.35750236E-02 -1.73664246E-02 -2.92954792E-03
  7.29295362E-03  1.61321346E-02  1.53031346E-03  1.86173566E-03  6.93756575E-02
  8.99248625E-03  5.33219223E-03 -4.54317333E-04 -2.91287364E-02  1.69454307E-01
 -1.09951051E-01  2.80583312E-02  2.57588733E-02  2.70033128E-02  2.91291763E-02
 -1.69459637E-01  1.09947105E-01  2.80597866E-02  2.57590838E-02 -2.70039558E-02
 -1.53040522E-03 -1.86002412E-03 -6.93749363E-02  8.99235653E-03  5.33219747E-03
  4.54598645E-04 -4.76000000E-08 -5.81310000E-08 -3.67224961E-02  6.25456903E-03
  2.96000000E-08  7.55548000E-07  7.23815088E-02 -2.07816784E-02 -5.82730000E-08
 -2.48163100E-06 -2.77735791E-01  6.06608430E-02  6.82976000E-07 -9.56566900E-06
  3.91410674E-01  2.13227368E-01  4.16122200E-06 -2.01508000E-07  1.17720700E-01
  3.37407697E-02 -5.50260000E-08  4.67160000E-08 -1.43731270E-03 -2.68860964E-03
  7.80223360E-02  5.66470714E-02  5.29043088E-03  3.26866887E-02 -1.02552616E-01
 -7.67316990E-02 -9.73595802E-03 -1.54163317E-01  1.19697309E-01  9.18178676E-02
  7.07007549E-02 -1.62085619E-01 -6.90565902E-02  6.48897030E-02 -9.80742593E-02
 -1.41761283E-03  8.57288926E-03 -9.30593211E-03  1.39878977E-02 -2.90714676E-02
  1.43729219E-03  2.68856993E-03  7.80179543E-02  5.66457512E-02 -5.28937266E-03
 -3.26861721E-02 -1.02547131E-01 -7.67299664E-02  9.73459468E-03  1.54161642E-01
  1.19694434E-01  9.18164063E-02 -7.06997290E-02  1.62089540E-01 -6.90539257E-02
  6.48915772E-02  9.80741233E-02  1.41770322E-03  8.57259624E-03 -9.30609650E-03
 -1.39878564E-02  2.90714500E-02 -4.12800000E-09 -6.91900000E-09  1.24483938E+00
  2.65224539E-01 -1.13537400E-06  1.11537000E-07 -1.54848818E+00 -3.29505792E-01
  1.34966500E-06 -2.80083000E-07  9.87890285E-01  2.01570391E-01 -6.24282000E-07
  1.29884000E-06 -5.29976288E-01 -1.23266988E-01 -9.50746000E-07 -1.05938000E-07
  3.15810452E-02  1.00380370E-02  7.58820000E-08  2.56900000E-09  1.85201106E-03
 -5.84391021E-04  1.38128895E-02  2.94198777E-03  5.00436344E-02 -2.96632349E-03
 -2.73396837E-02 -1.26849059E-02 -1.24717609E-01  3.51986426E-01  5.61268270E-02
  1.35338176E-01 -7.26245483E-03  3.00693534E+00  1.75615748E-02  6.20650364E-01
  4.31796764E-01 -5.67650173E-02 -2.57702649E-02  1.77758698E-02  2.86406518E-02
  6.20932512E-03 -1.85202576E-03  5.84354472E-04  1.38123708E-02  2.94165824E-03
 -5.00434991E-02  2.96619351E-03 -2.73381093E-02 -1.26838469E-02  1.24717054E-01
 -3.51983495E-01  5.61263821E-02  1.35337844E-01  7.26371518E-03 -3.00693468E+00
  1.75575060E-02  6.20649530E-01 -4.31797149E-01  5.67646281E-02 -2.57700164E-02
  1.77759018E-02 -2.86402896E-02 -6.20855997E-03 -5.14460388E-03 -7.67363141E-02
 -1.44077238E-01  2.67604857E-02 -2.93459407E-02 -2.77214073E-02 -3.49178950E-02
  1.16573938E-02 -1.06380549E-01 -2.72673408E-02 -2.09225834E-02  7.79343229E-03
  3.49182792E-02 -1.16611368E-02  1.06383391E-01 -2.72665810E-02 -2.09220048E-02
 -7.79474526E-03  5.14444871E-03  7.67362232E-02  1.44075387E-01  2.67597533E-02
 -2.93461591E-02  2.77217633E-02 -3.72170000E-08 -3.79250000E-08  2.63977324E-02
 -9.00594282E-02  1.48853000E-07  3.72599000E-07 -6.78174301E-02  2.26566000E-01
 -2.34811000E-07  1.16159000E-07  3.36234197E-01 -1.19638480E+00  2.07725300E-06
 -8.05435000E-07  2.23789442E-02  4.59022971E-01  4.10346000E-07  4.61220000E-08
 -1.77044564E-02  8.23829509E-02 -4.71320000E-08  1.64500000E-08  1.45321925E-03
  2.67189696E-03  9.07668199E-02 -2.36775079E-01 -3.98508408E-03 -1.32455825E-02
 -1.19495429E-01  3.15076802E-01  2.00914462E-02  1.83187656E-01  8.41017388E-02
 -2.97081001E-01  1.31370825E-01  1.37880708E+00  5.87069583E-02 -2.72695912E-01
  2.07008718E-01 -7.47686326E-02  9.31937995E-03  1.44241356E-02 -7.79089582E-03
 -3.01635052E-03 -1.45322424E-03 -2.67190783E-03  9.07673822E-02 -2.36774449E-01
  3.98543511E-03  1.32457191E-02 -1.19496203E-01  3.15075973E-01 -2.00919809E-02
 -1.83187965E-01  8.41016550E-02 -2.97080356E-01 -1.31370248E-01 -1.37880674E+00
  5.87074368E-02 -2.72695616E-01 -2.07009297E-01  7.47686037E-02  9.31988974E-03
  1.44240444E-02  7.79110935E-03  3.01627815E-03 -1.23000000E-08 -2.26780000E-08
 -2.46382838E-01  1.20304805E+00  7.99980000E-08  2.95493000E-07  3.14814386E-01
 -1.53688466E+00 -1.78223000E-07 -1.34509400E-06 -2.41495851E-01  1.16431043E+00
  5.89727000E-07 -1.02211100E-06  8.34549559E-02 -6.19174438E-01  2.13333000E-07
 -4.89780000E-08 -2.01553687E-03  1.12014759E-02  1.43240000E-08  5.24850000E-08
 -5.83167396E-03 -1.59087477E-03 -1.80926298E-02  9.17866560E-05 -7.58441346E-02
  3.94479823E-03  4.56299419E-02  3.12545445E-02  2.41852642E-01 -1.51892104E-01
  1.47519903E-01 -4.02211624E-02 -8.83190126E-02 -3.98752237E-01 -1.06681100E-01
  5.77382403E-02 -1.67023123E-01  1.16704568E-01  6.08114865E-02 -8.52044907E-02
 -2.48919134E-02  2.81325956E-02 -5.83168938E-03 -1.59090692E-03  1.80923332E-02
 -9.26582270E-05 -7.58442724E-02  3.94602198E-03 -4.56297140E-02 -3.12516421E-02
  2.41852357E-01 -1.51900541E-01 -1.47521102E-01  4.02243149E-02 -8.83232841E-02
 -3.98765780E-01  1.06679790E-01 -5.77353283E-02 -1.67025266E-01  1.16705324E-01
 -6.08104102E-02  8.52049142E-02 -2.48909503E-02  2.81329890E-02  3.86709980E-02
  3.64366441E-02 -5.85176281E-02 -6.56013267E-02  2.37585322E-02  3.95527819E-02
 -2.09668880E-03  1.45730645E-01 -2.32652582E-02  4.37095124E-02  4.02724370E-02
  8.21556168E-03 -2.09665331E-03  1.45730552E-01 -2.32638162E-02 -4.37094691E-02
 -4.02724094E-02  8.21435293E-03  3.86712454E-02  3.64351492E-02 -5.85183962E-02
  6.55999537E-02 -2.37584593E-02  3.95532108E-02 -4.64159938E-02 -3.82843793E-02
  3.16680000E-07 -4.31145000E-07  2.35983268E-01  6.29274895E-02 -7.93845000E-07
  1.06398100E-06 -5.34870240E-01  1.52959939E-01  6.60157000E-07  2.29364000E-07
  4.62104311E-01  3.19035967E-01 -9.50520000E-08 -8.29690000E-08 -2.29792621E-01
  7.69224544E-02  4.43426000E-07 -5.86488000E-07 -2.15984527E-01 -1.26787594E-01
  1.42869880E-03  1.92794639E-03  2.95700377E-01 -8.25259112E-01 -5.09298174E-02
  8.97335466E-02 -3.97206531E-01  1.09975485E+00  5.69810966E-02 -5.24492499E-01
  2.06576530E-01 -4.97017039E-01 -2.97859792E-03  8.17270170E-01 -4.07136986E-02
  1.01825809E-01 -8.66764754E-02 -7.04768885E-02  1.26748541E-03  5.61479815E-02
  1.03860669E-01  5.76137948E-02  1.42867277E-03  1.92790755E-03 -2.95701243E-01
  8.25257459E-01 -5.09286068E-02  8.97337018E-02  3.97207615E-01 -1.09975241E+00
  5.69795856E-02 -5.24493062E-01 -2.06576410E-01  4.97016128E-01 -2.97618224E-03
  8.17265950E-01  4.07134092E-02 -1.01826053E-01 -8.66767000E-02 -7.04766322E-02
 -1.26871808E-03 -5.61476504E-02  1.03860297E-01  5.76137688E-02 -3.11693120E-03
 -5.99541068E-03 -1.18554000E-07 -5.78712000E-07 -2.84518496E-01  7.00211294E-02
  1.25641000E-07  7.71693000E-07  3.09708160E-01 -1.37705687E-01 -1.63641000E-07
 -4.85957000E-07 -2.20112105E-01 -3.36461146E-01  1.40595000E-07  4.00420000E-08
  3.27552315E-01 -1.13945140E-02  1.33410000E-08 -1.46049000E-07  4.31463017E-02
  2.33592227E-02  1.03992717E-02 -3.12837119E-03  4.24717727E-02 -3.93785140E-03
  2.22163285E-01  1.34969168E-01 -8.13428541E-02 -7.89846046E-02 -5.70991940E-01
  5.62001164E-02  9.03901497E-02 -4.26030663E-02 -1.36237341E-03 -4.71900226E-01
  1.93777907E-02  2.50055408E-02 -1.42183735E-01 -2.68252989E-01 -1.55108488E-01
  1.97125372E-01  7.28223419E-02 -1.44523701E-03  1.03992836E-02 -3.12848712E-03
 -4.24684348E-02  3.93821798E-03  2.22166722E-01  1.34971564E-01  8.13301435E-02
  7.89842088E-02 -5.71001130E-01  5.61951333E-02 -9.03905769E-02  4.26050479E-02
 -1.36561497E-03 -4.71891362E-01 -1.93766831E-02 -2.50079270E-02 -1.42182363E-01
 -2.68255248E-01  1.55110585E-01 -1.97128417E-01  7.28224737E-02 -1.45150476E-03
 -8.99374764E-02 -2.37500716E-01 -1.70062692E-04  1.50848259E-01 -6.08570113E-02
 -5.59576740E-02 -5.93397938E-02 -1.40011224E-01  7.48432592E-02 -1.12713238E-01
 -4.21631004E-02  2.26480428E-02 -5.93392027E-02 -1.40001748E-01  7.48386454E-02
  1.12709255E-01  4.21616651E-02  2.26537894E-02 -8.99398515E-02 -2.37512040E-01
 -1.66446529E-04 -1.50851312E-01  6.08604853E-02 -5.59654022E-02 -3.58230205E-02
 -3.73786342E-02  3.94960000E-08  3.75139000E-07  4.87667139E-02  7.13434837E-02
  2.04078000E-07 -1.49613200E-06  1.91299239E-01 -2.59347284E-01  1.40625000E-07
  2.75152000E-07 -6.91147146E-01  9.34843920E-01 -1.85349900E-06  9.06867000E-07
 -5.91908789E-01  9.43783336E-02 -1.79948000E-07  1.16272400E-06 -1.33670337E-01
 -8.25259136E-02 -2.83726894E-03 -3.55679724E-03 -9.05196334E-02  6.88462379E-04
  7.97704779E-01 -4.45043492E-02  1.28152717E-01  1.89408715E-03 -1.12097009E+00
  3.07914711E-01 -2.56958702E-02 -4.45006030E-02  4.44141961E-01 -6.12078704E-01
 -7.66850592E-03  2.01710791E-01 -3.15174119E-01  1.55944856E-01 -6.83997717E-02
  8.54645124E-02  1.10366515E-02 -3.53454132E-03 -2.83721834E-03 -3.55673644E-03
  9.05205495E-02 -6.83536986E-04  7.97699377E-01 -4.45033533E-02 -1.28154195E-01
 -1.90124949E-03 -1.12096256E+00  3.07905262E-01  2.56973599E-02  4.45027938E-02
  4.44139820E-01 -6.12071314E-01  7.66645214E-03 -2.01710599E-01 -3.15171997E-01
  1.55942787E-01  6.84003184E-02 -8.54641022E-02  1.10372490E-02 -3.53482658E-03
  1.60481231E-03  3.55472155E-03 -1.25625100E-06  5.28198000E-07 -5.67297834E-01
 -5.66546670E-03  1.70874300E-06 -7.42598000E-07  7.87265150E-01  2.07198711E-02
 -1.23692500E-06  2.89601000E-07 -4.38275085E-01  1.12958707E+00  6.28986000E-07
  2.33670000E-07 -1.35917139E-01 -1.20909977E-01 -2.87716000E-07  3.37048000E-07
  3.96341920E-02  2.34424366E-02  6.71110297E-03 -7.78002392E-03  4.42278456E-02
  3.19467073E-02  3.01786417E-01  1.50793092E-01 -1.27663173E-01 -1.49580526E-01
 -7.58736194E-01  4.12324676E-01  7.60188525E-03  7.32996577E-02  1.01600986E-01
 -1.69002820E-01 -1.35225580E-02 -8.17098654E-02  1.63940441E-01 -3.46134333E-01
 -1.15192893E-01  6.45310701E-02  1.47536526E-01  4.57676065E-02 -6.71105813E-03
  7.77994337E-03  4.42259309E-02  3.19460575E-02 -3.01784190E-01 -1.50791975E-01
 -1.27657336E-01 -1.49578097E-01  7.58729801E-01 -4.12323992E-01  7.61200879E-03
  7.32980973E-02 -1.01599176E-01  1.68993829E-01 -1.35265058E-02 -8.17098090E-02
 -1.63943362E-01  3.46131254E-01 -1.15190959E-01  6.45297417E-02 -1.47535451E-01
 -4.57637982E-02 -5.62769623E-02 -3.17878974E-01  1.52347886E-01  1.35589727E-01
 -1.01707711E-01 -8.96817495E-02 -8.74130387E-02 -2.97007733E-01  7.87944183E-02
 -1.87080405E-01 -8.97941101E-02 -1.48162071E-02  8.74128830E-02  2.96995639E-01
 -7.87909192E-02 -1.87077674E-01 -8.97913911E-02  1.48102345E-02  5.62748121E-02
  3.17884823E-01 -1.52347812E-01  1.35586798E-01 -1.01708259E-01  8.96856155E-02
 -1.33748000E-07 -1.51000000E-07  3.24694016E-02 -1.41240365E-01  2.06077000E-07
  9.79547000E-07 -1.17825161E-01  4.86207999E-01  1.19711200E-06  8.55985000E-07
 -1.41922993E-01  4.73720348E-01  6.44996100E-06  8.98472100E-06  1.39216145E-01
 -3.09916180E-01 -3.58039000E-06  2.67900000E-07  1.12046115E-01 -4.41434882E-01
 -1.04673000E-07 -4.26119000E-07  1.01085943E-02  1.50317763E-02  2.58336122E-01
 -6.41110229E-01 -4.89603144E-01  4.30382238E-02 -3.76926766E-01  9.47109163E-01
  6.84230515E-01 -9.35285441E-01  1.06860492E-01 -2.75086935E-01 -4.28302535E-01
  5.08413416E-01 -5.15985075E-02  2.34248396E-01  4.23744657E-02 -1.74553516E-01
  3.93542833E-02  4.95868066E-02  8.11354015E-02  6.72941881E-02 -1.01086107E-02
 -1.50317857E-02  2.58343043E-01 -6.41110032E-01  4.89608290E-01 -4.30394070E-02
 -3.76936793E-01  9.47108916E-01 -6.84237732E-01  9.35294904E-01  1.06866503E-01
 -2.75084329E-01  4.28303503E-01 -5.08416157E-01 -5.16000862E-02  2.34246851E-01
 -4.23779296E-02  1.74554983E-01  3.93569493E-02  4.95868541E-02 -8.11349479E-02
 -6.72948377E-02 -1.35310000E-08 -2.11030000E-08  9.40841854E-02 -3.04073344E-01
 -2.26055000E-06  6.46225000E-07 -1.32702404E-01  4.29319157E-01  3.20229500E-06
 -4.85965200E-06  1.06957146E-01 -3.19575371E-01 -8.24620000E-08 -1.30688500E-06
 -6.59398068E-02  1.24812090E-01  1.28296400E-06 -6.77485000E-07  2.57631710E-02
 -9.89124708E-02  3.65650000E-08  1.56240000E-08 -4.04296792E-03  1.31245992E-03
 -1.53243333E-02  1.77237826E-02 -3.95795512E-02 -3.42760210E-02  1.95839651E-02
  3.95286586E-04  1.00312504E-01 -1.61918403E-01 -1.15426375E-01  7.95985628E-02
 -6.35144481E-03 -1.41016583E-01 -1.89698150E-02  1.91753620E-03 -9.82895379E-03
  6.05064349E-02  6.47996987E-02 -7.69842306E-02 -1.85736459E-02  4.73338387E-03
 -4.04296830E-03  1.31253639E-03  1.53233115E-02 -1.77246779E-02 -3.95808767E-02
 -3.42763113E-02 -1.95797420E-02 -3.93452885E-04  1.00316109E-01 -1.61927680E-01
  1.15424332E-01 -7.95988351E-02 -6.35226396E-03 -1.41018192E-01  1.89683098E-02
 -1.91764584E-03 -9.82881275E-03  6.05080320E-02 -6.48007771E-02  7.69861969E-02
 -1.85732130E-02  4.73538942E-03  1.90935132E-02  1.39147297E-01  4.37507372E-02
 -4.90973102E-02  2.32761853E-02  2.15197796E-02  1.07630314E-02  4.59325252E-02
  2.72613461E-03  2.63267025E-02  9.43407069E-03 -2.75022934E-03  1.07628410E-02
  4.59317110E-02  2.73029442E-03 -2.63254342E-02 -9.43429591E-03 -2.75199312E-03
  1.90943779E-02  1.39152102E-01  4.37491456E-02  4.90986605E-02 -2.32773347E-02
  2.15228120E-02 -3.48657709E-02 -6.73314069E-02 -6.28916000E-07  1.54962800E-06
 -2.93110000E-01  5.03511743E-01  2.47900500E-06 -4.65719200E-06  1.89477319E+00
  4.03211509E-01 -8.15606000E-07  2.91898000E-06 -3.91812943E-01 -5.99503866E-03
 -3.07587000E-07  9.78593000E-07 -5.73646306E-01  9.31710205E-01 -1.62300000E-07
  2.82732600E-06  2.66661031E-01  1.53105887E-01 -4.93887500E-03 -7.19406913E-03
 -4.47485078E-02  1.83074995E-01 -3.93346412E-01  3.80780211E-03  7.86851370E-02
 -3.25063190E-01  6.48729291E-01  3.18557995E-01 -8.16687453E-03  4.54797702E-03
 -2.22466089E-01 -5.38298543E-01 -5.83861172E-02  1.91955664E-01 -3.39457551E-02
  9.86833443E-03  5.82168663E-02 -1.91900273E-01 -4.61534439E-02 -2.64472377E-02
 -4.93880311E-03 -7.19395606E-03  4.47472682E-02 -1.83070893E-01 -3.93341149E-01
  3.80746250E-03 -7.86828903E-02  3.25056305E-01  6.48720612E-01  3.18554852E-01
  8.16644493E-03 -4.54648899E-03 -2.22462231E-01 -5.38294802E-01  5.83859926E-02
 -1.91955445E-01 -3.39451086E-02  9.86973020E-03 -5.82158934E-02  1.91897884E-01
 -4.61521158E-02 -2.64461089E-02  2.81782773E-02  5.08121638E-02 -1.03412900E-06
  9.06130000E-07 -1.12291933E+00 -3.38660922E-01  1.88707900E-06 -1.53156700E-06
  2.13092036E+00 -1.47650913E+00 -2.82905000E-07  1.68412000E-07 -2.59786611E-01
  1.50443660E+00 -4.80320000E-08 -5.80735000E-07 -5.79119421E-02 -5.52775461E-01
 -8.11138000E-07  7.74263000E-07 -5.49420433E-02 -3.08988453E-02 -3.50859162E-03
  7.30837083E-03 -4.37613379E-02  9.20471560E-02 -1.45943657E-01 -9.02239299E-03
  1.20691477E-01 -2.07593305E-01  3.31003874E-01 -1.50196423E+00 -7.68950212E-02
 -2.05022237E-01 -3.31310276E-01  6.35711915E-01 -1.79675940E-04  1.47466444E-01
  1.12893325E-01  2.61393169E-01  6.01463971E-02 -1.06124818E-01  2.75706023E-02
 -5.04781343E-02  3.50856950E-03 -7.30832764E-03 -4.37589497E-02  9.20472796E-02
  1.45943249E-01  9.02148922E-03  1.20682590E-01 -2.07594160E-01 -3.31002972E-01
  1.50196266E+00 -7.68798826E-02 -2.05022875E-01  3.31312804E-01 -6.35709817E-01
 -1.74909988E-04  1.47466007E-01 -1.12892247E-01 -2.61391565E-01  6.01465038E-02
 -1.06124767E-01 -2.75709155E-02  5.04723772E-02 -2.17648511E-03  2.71485691E-01
 -4.10151273E-03 -5.00019638E-02  5.84306606E-02  3.05222117E-02  3.27745207E-02
  3.07072972E-01 -5.67338873E-02  1.04377411E-01  4.98335201E-02  2.11499735E-02
 -3.27731227E-02 -3.07069267E-01  5.67255722E-02  1.04373436E-01  4.98322515E-02
 -2.11452745E-02  2.17555368E-03 -2.71485869E-01  4.10868293E-03 -5.00028425E-02
  5.84308361E-02 -3.05265763E-02 -8.26970000E-08 -2.15106000E-07  9.98534994E-02
 -3.93078425E-01 -1.48055700E-06  2.02495200E-06 -2.90398248E-01  1.16325194E+00
  8.01109200E-06  3.32571100E-06  1.58754448E-01 -7.66095646E-01 -6.65712000E-07
 -2.76350000E-06  4.62217614E-02 -1.13840335E-01 -9.79428000E-07  2.71214400E-06
  2.52648854E-01 -8.71179936E-01  1.22343600E-06 -1.18003000E-07  7.79804780E-03
  1.18340542E-02  6.73694258E-02 -4.78297670E-01  7.22004515E-01 -3.58693949E-03
 -1.23566098E-01  8.21277655E-01 -1.20896848E+00 -6.18843619E-01 -3.01381515E-02
 -1.10327505E-01  6.13534107E-01  4.42117953E-01  7.98553235E-03 -2.86374153E-02
  9.44291721E-02  1.39437997E-01 -1.11087131E-01  3.21066842E-01  1.68962678E-01
  8.88871883E-02 -7.79808114E-03 -1.18341097E-02  6.73673955E-02 -4.78300039E-01
 -7.22008957E-01  3.58727171E-03 -1.23562696E-01  8.21281749E-01  1.20897593E+00
  6.18845192E-01 -3.01395889E-02 -1.10329101E-01 -6.13536873E-01 -4.42121726E-01
  7.98735724E-03 -2.86388830E-02 -9.44297117E-02 -1.39437819E-01 -1.11088528E-01
  3.21068303E-01 -1.68963423E-01 -8.88863587E-02  9.19370000E-08  1.64629000E-07
  6.87238877E-02 -1.66614703E-01 -3.92504900E-06 -1.08790600E-06 -1.12001460E-01
  2.80945112E-01  7.64130700E-06 -6.67969200E-06  2.69235272E-02 -2.26558812E-03
 -1.98672000E-07  5.15080400E-06 -2.56594770E-02  1.16950485E-01 -3.64854000E-07
 -2.15635100E-06  4.82577663E-02 -1.52936282E-01 -2.71161000E-07 -2.15694000E-07
 -1.43940999E+00  1.57635599E+00 -1.78161764E-03  2.06485738E-02 -1.08239256E-02
 -5.01617023E-01  1.53114684E-02  8.32027078E-03  7.27191342E-02  4.67118134E-01
  2.54765539E-02  7.28308320E-02  8.13224339E-02  1.44014689E+00  4.43765538E-03
  2.97805273E-01  8.72090701E-02  5.11538403E-02  1.66905999E-02 -3.16821803E-02
 -1.46956133E-03 -8.68503257E-03  1.43940219E+00 -1.57634745E+00 -1.78198471E-03
  2.06488848E-02  1.08236653E-02  5.01614097E-01  1.53133675E-02  8.31923331E-03
 -7.27177729E-02 -4.67116628E-01  2.54715625E-02  7.28310586E-02 -8.13227666E-02
 -1.44013805E+00  4.43615752E-03  2.97805321E-01 -8.72070545E-02 -5.11534160E-02
  1.66912267E-02 -3.16820980E-02  1.46906980E-03  8.68441237E-03 -6.22049963E-03
  1.48756273E-01 -1.47480573E-01 -8.32802739E-02  3.75488988E-02  5.82743031E-02
 -7.48342888E-03  1.59096180E-01 -1.46129389E-01  1.03047860E-01  3.81254647E-02
  1.94547842E-02  7.48326813E-03 -1.59093423E-01  1.46129115E-01  1.03047450E-01
  3.81249279E-02 -1.94535176E-02  6.22069751E-03 -1.48756370E-01  1.47477519E-01
 -8.32789043E-02  3.75489026E-02 -5.82747486E-02  1.56715320E-05 -1.72126800E-05
  2.98745407E-03 -3.47433668E-03 -2.67329000E-07  5.74260600E-06 -1.01599153E-02
  1.35126515E-02  1.96324900E-06 -4.01807500E-06  3.66953673E-02 -3.83004971E-02
 -1.77915000E-07 -9.40867000E-06 -2.23244020E-03  1.24904130E-01  3.60189400E-06
  1.24698600E-06 -5.45674781E-04 -1.23471295E-02 -2.06514000E-07 -2.45221000E-07
 -3.81565206E-03  1.98238640E-04  1.42102168E-03 -2.76315101E-03 -5.69437939E-03
  3.41573885E-02  1.08779909E-03  8.86481167E-04 -8.31289968E-03 -3.34543469E-02
 -8.09199603E-03  9.42127337E-03  1.84493657E-02  3.85647656E-01  3.23192734E-02
 -9.95286505E-02 -1.16627102E-01 -1.12067817E-02  4.25397185E-03 -4.64986959E-03
  5.25402644E-03  3.44565026E-03  3.81560534E-03 -1.98237963E-04  1.42077845E-03
 -2.76282549E-03  5.69466199E-03 -3.41566126E-02  1.08852301E-03  8.86050744E-04
  8.31252216E-03  3.34516997E-02 -8.09292891E-03  9.42020638E-03 -1.84496306E-02
 -3.85644318E-01  3.23199443E-02 -9.95263415E-02  1.16628741E-01  1.12069449E-02
  4.25417669E-03 -4.65040751E-03 -5.25349336E-03 -3.44533167E-03  1.16045000E-07
 -1.01530000E-08 -1.12303954E-03  7.90435361E-04 -5.29542000E-07 -1.03436000E-07
  3.22295416E-03 -2.61941511E-03  1.80050300E-06 -3.09779500E-06 -8.10783512E-03
  1.67961360E-02  1.47922000E-06  2.94593500E-06 -9.02008264E-03 -2.75478958E-02
 -1.98111600E-06 -1.10393200E-06  1.08639936E-04 -2.38865879E-03  1.83410000E-08
  2.16450000E-08 -9.54419675E-01  1.04703349E+00  2.40766786E-04 -3.00036549E-02
 -1.12840191E-02 -3.72176755E-01 -2.51507152E-03  1.00829604E-01  7.08975728E-02
  1.68584697E-01 -1.45254954E-01  2.01764638E-02  7.39265781E-02  3.90173512E-01
 -1.92691678E-02 -1.48927841E-02  9.33473669E-02  1.76834280E-02  2.36246593E-02
 -2.24043661E-02 -5.29873089E-02  3.08331902E-03 -9.54441443E-01  1.04705736E+00
 -2.40490935E-04  3.00033545E-02 -1.12841773E-02 -3.72185654E-01  2.51366305E-03
 -1.00829709E-01  7.08985750E-02  1.68604819E-01  1.45256218E-01 -2.01822728E-02
  7.39335756E-02  3.90195852E-01  1.92702000E-02  1.48884498E-02  9.33505022E-02
  1.76838285E-02 -2.36256333E-02  2.24049290E-02 -5.29868932E-02  3.08343611E-03
 -4.31845320E-05  2.05478782E-01 -7.95254917E-02 -7.87262562E-02  3.86482504E-02
  6.23683365E-02  1.00332109E-02  7.47474046E-02 -1.71818394E-01  8.13967564E-02
  2.12813581E-02  6.41968419E-03  1.00334171E-02  7.47469578E-02 -1.71820721E-01
 -8.13983058E-02 -2.12810963E-02  6.41886022E-03 -4.35596560E-05  2.05481309E-01
 -7.95253740E-02  7.87268221E-02 -3.86494500E-02  6.23697767E-02  1.52655252E+00
 -1.67929032E+00 -6.41450000E-08 -4.72370000E-08 -2.29868083E-02  5.94512564E-01
  2.66729000E-07  1.85976000E-07  1.84956591E-01 -1.67250747E-01 -6.11270000E-08
 -4.79593000E-07  4.35524331E-01 -6.67309599E-01  2.60599000E-07 -1.07245100E-06
  2.74959254E-01  1.21195840E-01  1.92013000E-07 -4.97040000E-08 -2.09534951E-02
 -8.13084919E-03  1.70113870E-04 -4.76943780E-05  2.02065238E-03 -1.54903140E-02
  1.34924417E-02  1.36078065E-02 -1.79035351E-03  2.27541362E-02 -5.30732818E-03
 -4.39319027E-03 -2.22906408E-02  1.68055700E-02 -7.86017180E-02  1.43757971E-01
  4.41310894E-03 -9.78246094E-02  9.45581051E-02  1.36681254E-02 -8.63472843E-03
  2.98210624E-02  2.45323751E-02  1.33722740E-02  1.70115600E-04 -4.76905750E-05
 -2.02080245E-03  1.54903390E-02  1.34923647E-02  1.36076215E-02  1.79081460E-03
 -2.27541052E-02 -5.30739774E-03 -4.38930357E-03  2.22893305E-02 -1.68050236E-02
 -7.86034809E-02  1.43764790E-01 -4.41243920E-03  9.78256504E-02  9.45556393E-02
  1.36680479E-02  8.63465292E-03 -2.98209744E-02  2.45324707E-02  1.33722722E-02
  7.33135939E-03 -8.57580796E-04 -8.51600000E-09  1.01000000E-08 -5.07926732E-02
  2.95897482E-02  4.16660000E-08 -2.90410000E-08  1.69234025E-01 -5.65723069E-01
  2.77672000E-07 -4.14920000E-08  2.42604217E-01 -5.61897366E-02 -3.89240000E-08
  1.67028000E-07 -7.26644654E-02 -1.10266321E-01 -1.16124000E-07  4.07470000E-08
  1.11037009E-03  8.29383368E-04 -1.07955546E+00  1.18484355E+00 -2.64428901E-03
 -2.70995389E-02 -2.16806558E-03 -4.04232413E-01  1.56938356E-02  1.00864193E-01
  4.80967310E-02  1.90360759E-01  3.90810525E-02  8.74494221E-03  5.48714984E-02
 -1.14285979E-01 -1.11733377E-02 -1.19655524E-02 -5.52901341E-02  3.77011736E-03
  2.12956834E-02 -4.04297786E-02 -6.34310213E-02 -4.99188839E-03 -1.07954662E+00
  1.18483386E+00  2.64453167E-03  2.70996519E-02 -2.16791611E-03 -4.04229110E-01
 -1.56952461E-02 -1.00864058E-01  4.80958810E-02  1.90356970E-01 -3.90812491E-02
 -8.74396499E-03  5.48703626E-02 -1.14299171E-01  1.11730743E-02  1.19684039E-02
 -5.52910194E-02  3.76957158E-03 -2.12964566E-02  4.04295172E-02 -6.34308963E-02
 -4.99175146E-03  4.99567267E-03  1.55787377E-01 -5.39561496E-02 -8.41532702E-02
  4.28210309E-02  6.01650102E-02 -9.72813276E-04  1.80402964E-01 -5.53359357E-02
  9.97059552E-02  4.05031939E-02  2.59044538E-02 -9.72562417E-04  1.80401999E-01
 -5.53342427E-02 -9.97057541E-02 -4.05023818E-02  2.59034798E-02  4.99561146E-03
  1.55786371E-01 -5.39557911E-02  8.41520353E-02 -4.28213384E-02  6.01652267E-02
 -1.34947073E+00  1.48505101E+00 -1.57860000E-08 -7.75890000E-08  1.40896993E-03
 -5.02908618E-01 -6.98430000E-08  3.09666000E-07 -1.07155096E-01  3.66274042E-01
  1.33114000E-07  2.18830000E-07 -1.06844764E-01  5.29849956E-01 -3.86813000E-07
  5.45134000E-07 -2.59908789E-01 -1.29483039E-01 -2.57602000E-07 -1.48457000E-07
  1.95769619E-02  8.43506390E-03  3.59416406E-03 -1.40682646E-04 -7.50991260E-03
  1.91509032E-02  6.36320827E-04 -5.81494210E-02  1.12853434E-02 -3.08600938E-02
  4.67459119E-03  1.34785286E-01  1.55305980E-02 -2.51336699E-02 -1.45354054E-02
 -3.76226353E-01 -3.26681027E-02  1.05200929E-01  6.77648219E-02  1.14578840E-02
 -1.88829541E-03 -1.79555191E-02 -2.23146708E-02 -1.64471623E-02  3.59420719E-03
 -1.40682783E-04  7.50981208E-03 -1.91508966E-02  6.36313821E-04 -5.81498515E-02
 -1.12849913E-02  3.08600434E-02  4.67475608E-03  1.34785927E-01 -1.55310022E-02
  2.51341827E-02 -1.45353163E-02 -3.76228849E-01  3.26686224E-02 -1.05201604E-01
  6.77656538E-02  1.14580072E-02  1.88826284E-03  1.79556344E-02 -2.23147558E-02
 -1.64471141E-02 -1.05088622E-02  7.94855082E-04  9.04200000E-09 -1.32530000E-08
  4.58538204E-02  1.29646637E-02 -4.25170000E-08  4.55650000E-08 -1.55750605E-01
  2.76420802E-01 -1.72099000E-07  5.29300000E-09 -1.19324742E-01 -1.66953592E-01
  8.43280000E-08 -1.40363000E-07  1.42850112E-01  9.35422649E-02  9.19920000E-08
 -4.14460000E-08 -1.39134324E-03 -5.21279761E-04  3.04651242E-03 -5.07954760E-03
  8.85287706E-04 -7.23245570E-05  2.16740527E-03 -8.41376891E-04  3.38452068E-03
 -1.67901192E-02  1.24712900E-02  1.69610533E-01  3.11070895E-02 -1.86175585E-02
  6.07741711E-02  3.53082665E-02 -1.45795142E-02  1.64642473E-02  5.00389373E-03
  6.30295775E-03 -4.44415230E-03  5.83833267E-03  3.56783517E-03  4.92396811E-04
  3.04653820E-03 -5.07959257E-03 -8.85227109E-04  7.23342830E-05  2.16742842E-03
 -8.41478201E-04 -3.38458034E-03  1.67902316E-02  1.24711899E-02  1.69612548E-01
 -3.11053444E-02  1.86171755E-02  6.07749640E-02  3.53071371E-02  1.45798166E-02
 -1.64638969E-02  5.00395122E-03  6.30293160E-03  4.44428895E-03 -5.83846214E-03
  3.56792261E-03  4.92345131E-04  2.31059563E-03 -4.31257351E-02  2.96086653E-03
  6.75496107E-03 -2.98020728E-03 -9.48143536E-03  2.70643913E-03 -2.65594303E-02
 -2.15702591E-03 -6.87359989E-03 -3.77651944E-03 -5.40027961E-03  2.70649472E-03
 -2.65604130E-02 -2.15777873E-03  6.87359570E-03  3.77686535E-03 -5.40015204E-03
  2.31055580E-03 -4.31256899E-02  2.96171306E-03 -6.75498126E-03  2.98016240E-03
 -9.48183481E-03  1.17801238E-03 -2.23180203E-03 -9.82200000E-09  1.76870000E-08
  1.58137474E-03  2.30893107E-02 -2.14300000E-09  3.80900000E-09 -3.70111030E-02
  3.11525959E-01 -3.13442000E-07 -1.18534000E-07 -1.30589095E-01 -1.42672091E-01
 -4.57630000E-08 -2.64530000E-08  2.42388980E-02  1.27787960E-03  3.59660000E-08
  4.43580000E-08 -5.04518203E-03 -1.73949151E-03  1.52123494E+00 -1.58464756E+00
  1.35364441E-04  1.16462795E-03  2.35637216E-03  2.28200407E-01  1.39911663E-03
 -7.71124078E-03 -9.62069261E-03 -3.98577770E-01 -3.02226278E-02  9.53359865E-02
  3.29888242E-02 -1.53752467E-02 -8.89559275E-03  2.42821074E-02  4.25165751E-02
 -3.73213021E-03  8.42778687E-04  3.50563552E-03  5.99931309E-03  4.07825979E-03
  1.52123126E+00 -1.58464372E+00 -1.35366141E-04 -1.16462585E-03  2.35637153E-03
  2.28199855E-01 -1.39912858E-03  7.71121882E-03 -9.62067559E-03 -3.98576856E-01
  3.02227267E-02 -9.53358954E-02  3.29885391E-02 -1.53760913E-02  8.89589444E-03
 -2.42824060E-02  4.25164918E-02 -3.73212052E-03 -8.42819950E-04 -3.50566798E-03
  5.99931175E-03  4.07825011E-03  6.48575567E-01 -6.74438314E-01  9.90300000E-09
  5.72400000E-09  1.64179889E-03  8.43010141E-02 -3.16910000E-08 -1.73140000E-08
 -7.47317120E-03 -9.23669591E-02  8.22800000E-08  1.84920000E-08  2.71147502E-02
  5.07730619E-02  5.54380000E-08 -3.25450000E-08  3.34064860E-03 -7.04142788E-04
  8.75000000E-10  1.01820000E-08 -8.26044744E-04 -4.88499953E-04  5.04828397E-03
 -8.44139223E-03  2.15957374E-03 -1.40176585E-03  5.81258940E-03 -1.62147052E-03
 -3.47252942E-03 -5.99524140E-03  4.61831996E-03  3.23005678E-01  8.83195900E-03
  1.14199989E-01  6.69291784E-02 -7.58429478E-01 -2.56049055E-03 -1.65617184E-01
 -1.02920736E-01 -9.34795923E-03 -1.64186873E-03  6.55173502E-03  5.94722245E-03
  3.98783031E-03 -5.04822682E-03  8.44129611E-03  2.15959105E-03 -1.40178274E-03
 -5.81256633E-03  1.62164070E-03 -3.47280300E-03 -5.99511955E-03 -4.61851588E-03
 -3.23004281E-01  8.82598120E-03  1.14200501E-01 -6.69298840E-02  7.58428382E-01
 -2.56122603E-03 -1.65616865E-01  1.02920480E-01  9.34789962E-03 -1.64174823E-03
  6.55159758E-03 -5.94711908E-03 -3.98770156E-03  4.89563894E-03 -5.52147809E-02
  2.11716710E-02  3.26234448E-03 -8.88119750E-03 -1.40298500E-02  6.88767871E-04
 -5.91866124E-02  3.98275488E-02 -1.11590664E-02 -6.85261768E-03 -9.45354960E-03
 -6.88758725E-04  5.91879546E-02 -3.98255336E-02 -1.11590297E-02 -6.85258041E-03
  9.45327096E-03 -4.89551969E-03  5.52122242E-02 -2.11733548E-02  3.26211173E-03
 -8.88099186E-03  1.40296499E-02 -5.88910000E-08  9.81500000E-08  5.94352510E-03
 -1.77102757E-02  7.66350000E-08 -1.77364000E-07 -6.24358265E-03  3.63903300E-03
 -2.74165000E-07  1.48455000E-07  6.10074434E-02 -1.67605535E-01 -5.54356000E-07
  1.07935200E-06 -8.49603525E-04 -6.71396509E-02 -7.34178000E-07 -1.82942000E-07
  3.45769506E-03 -2.49575732E-02 -1.36020000E-08 -7.30470000E-08 -1.58909798E+00
  1.65853936E+00  3.07494265E-03 -8.04081786E-03  5.77633817E-04 -2.49823183E-01
 -1.12884734E-02  3.01994982E-02 -1.01281611E-03  4.00435291E-01  2.91395756E-02
 -7.32466495E-02 -2.31457849E-02 -1.22048016E-01 -1.04488883E-02  6.18443451E-03
  6.97628682E-02  5.99902388E-03 -1.63722699E-03  2.48587543E-03  6.63961453E-04
 -9.31857367E-04  1.58909945E+00 -1.65854089E+00  3.07495607E-03 -8.04078117E-03
 -5.77594803E-04  2.49823429E-01 -1.12884961E-02  3.01993682E-02  1.01267831E-03
 -4.00436282E-01  2.91392932E-02 -7.32465354E-02  2.31460850E-02  1.22047369E-01
 -1.04498216E-02  6.18453781E-03 -6.97621027E-02 -5.99906205E-03 -1.63713203E-03
  2.48582219E-03 -6.63957128E-04  9.31835116E-04  5.57900100E-06 -5.81230100E-06
 -8.34824038E-04 -1.48980469E-03  5.37070000E-08  7.52413000E-07  2.94442748E-03
  2.79261043E-03 -2.23093000E-07 -3.56105000E-07 -1.66154680E-02  3.76096016E-02
  4.24540000E-08  1.86626000E-07 -2.21504943E-03  1.97513090E-02  1.98247000E-07
  5.01380000E-08  2.32525454E-03 -1.13081077E-02  6.88100000E-09 -5.61000000E-09
 -3.55470388E-03  6.05734648E-03  1.40893993E-03  3.33619458E-04  6.51030727E-04
 -2.24602911E-02 -1.06674803E-02 -1.36982042E-03 -1.73424606E-02 -3.07640327E-02
 -1.18414882E-01  4.83805653E-02  3.47478479E-02 -7.41950789E-02 -1.72685957E-02
 -7.50815298E-03 -2.22144322E-02 -3.65223097E-03  1.21566564E-03  6.37196949E-03
  1.32351982E-03  2.33219612E-03 -3.55473698E-03  6.05740579E-03 -1.40894593E-03
 -3.33571028E-04  6.51010138E-04 -2.24610846E-02  1.06675311E-02  1.36961807E-03
 -1.73422123E-02 -3.07560990E-02  1.18415073E-01 -4.83839398E-02  3.47514413E-02
 -7.41965232E-02  1.72685037E-02  7.50835406E-03 -2.22142840E-02 -3.65233535E-03
 -1.21580875E-03 -6.37193721E-03  1.32357027E-03  2.33228782E-03 -3.13521896E-03
  4.07753163E-02  4.46038374E-02 -2.19908488E-03 -4.85958374E-04  3.68643531E-03
  4.71809033E-03 -4.72645970E-02 -1.02164551E-02 -2.98453590E-03 -7.26945026E-03
 -5.92517281E-03  4.71814984E-03 -4.72657884E-02 -1.02159265E-02  2.98475286E-03
  7.26943634E-03 -5.92525573E-03 -3.13531860E-03  4.07755975E-02  4.46047141E-02
  2.19914360E-03  4.85913897E-04  3.68650519E-03 -1.44641838E-02  2.35174382E-02
  1.74860000E-08  2.05280000E-08  3.54414071E-02  6.48980327E-03 -7.20760000E-08
  8.85260000E-08 -1.11146381E-01  2.01919441E-01  3.11307000E-07  8.78230000E-08
  5.80644230E-01  1.11786353E-01 -1.71832000E-07  8.51620000E-08 -4.84734245E-02
 -8.10940021E-02 -4.46110000E-08  4.21130000E-08 -1.46691574E-02 -5.31057033E-03
 -4.58922034E-01  4.80497784E-01  4.12460369E-04 -4.75695472E-03  4.46567079E-03
 -8.21474063E-02 -1.97447890E-03  1.89333369E-02 -9.96935770E-03  1.77950965E-01
  4.42543326E-03 -7.12004261E-02 -5.74043269E-02  8.35442255E-02 -6.88152074E-03
 -5.63223329E-03 -3.75223004E-02 -5.53137506E-03 -2.60699654E-03  1.28173420E-02
 -3.16784787E-03 -1.09096481E-03 -4.58929169E-01  4.80505253E-01 -4.12463094E-04
  4.75696829E-03  4.46567307E-03 -8.21488304E-02  1.97451991E-03 -1.89334091E-02
 -9.96933979E-03  1.77955119E-01 -4.42606559E-03  7.12010624E-02 -5.74054817E-02
  8.35446297E-02  6.88137308E-03  5.63218065E-03 -3.75220217E-02 -5.53132457E-03
  2.60706783E-03 -1.28173361E-02 -3.16783987E-03 -1.09101490E-03  2.15206929E+00
 -2.24932885E+00  1.89910000E-08 -1.66700000E-09  2.33154858E-02  3.58532338E-01
 -7.78160000E-08  1.52330000E-08 -1.02490252E-01 -5.67714822E-01  9.85050000E-08
 -8.55280000E-08  1.55721580E-01 -1.88168271E-01  1.45328000E-07  8.09300000E-09
  8.07456630E-02  2.08649806E-02  2.92370000E-08  1.26220000E-08  1.10557872E-03
  6.91561668E-04
Total SCF Density                          R   N=       12246
  6.58086725E-01  5.59241186E-01  4.87830967E-01  1.23352175E-03  1.72952670E-03
  9.18243083E-02 -1.29143210E-04 -2.92205377E-04  1.23867942E-03  8.47204646E-02
  5.64747777E-03  7.80973097E-03 -6.52296732E-03  8.13215991E-03  6.35588927E-02
 -8.03496227E-02 -1.41161246E-01 -3.68700384E-03  3.12170472E-03 -1.76233256E-02
  4.32304908E-01  4.00511505E-04  8.44345016E-04  1.33073492E-01  1.64991148E-03
 -7.96961114E-03 -2.35949847E-03  1.93071039E-01 -3.34334057E-03 -4.33151061E-03
  2.43506011E-03  1.26473608E-01  1.19461189E-02  1.21349111E-02  3.33728005E-03
  1.89250974E-01  8.13903591E-04  2.38996686E-03 -8.00733025E-03  1.04421566E-02
  9.92260973E-02 -9.11535298E-03 -9.17312302E-03  1.57952448E-02  1.56036906E-01
 -7.94256279E-02 -1.11209986E-01 -6.38724731E-03  1.70230942E-03 -2.38844338E-02
  2.61580151E-01 -8.56729697E-03  6.50068493E-03 -2.58596696E-02  2.04337469E-01
  2.30181825E-03  3.25217409E-03  9.29396995E-02  2.53386367E-03 -1.08994818E-02
 -6.99183792E-03  1.34958342E-01  4.33701435E-03 -1.50763401E-02 -9.37438391E-03
  9.68606883E-02 -2.48988035E-03 -2.79111801E-03  6.97000009E-04  7.42791031E-02
  9.08860375E-03  5.83412112E-03  5.38691789E-04  1.11023821E-01  1.26682494E-02
  1.11949578E-02  5.74804922E-04  6.93984475E-02  2.38976339E-03  5.60643323E-03
 -8.55323451E-03  1.11990711E-02  5.27383807E-02 -2.17200807E-02 -1.13911479E-02
  1.57218722E-02  8.15813392E-02 -4.29632927E-03 -1.28998162E-02  1.28868194E-02
  5.64723370E-02 -4.77878285E-02 -5.61298426E-02  7.04294917E-03 -3.21354686E-02
  5.41845522E-03  9.69059134E-02  1.21428193E-02 -4.85297160E-02  1.33460654E-02
  2.77292712E-02  4.67017610E-03 -3.52401521E-02 -7.92430205E-03  1.91767491E-01
  4.85095596E-04  6.38444528E-04  1.03573997E-02 -9.55113580E-04 -2.95797286E-03
 -1.28877488E-03  1.51855751E-02 -1.40373268E-03 -4.50333055E-03 -2.13362184E-03
  1.19804972E-02 -1.00619555E-03 -3.66903655E-03  2.58090345E-04  2.46764831E-03
 -7.91664995E-03 -9.23476768E-03  2.50615724E-03 -4.72074123E-04  2.06335290E-03
  1.62316353E-02  4.06847422E-03 -8.55939115E-04  3.97159411E-03  7.96731335E-04
  2.51964518E-03 -2.84733516E-03 -1.57773316E-03  4.09087836E-02 -9.07767439E-05
  1.02454803E-02 -3.08050256E-03 -3.46476437E-03 -1.19392446E-03 -6.12785931E-03
  3.47672357E-03  4.42812991E-03 -1.63784812E-03 -9.76453527E-03  5.53155194E-03
  6.33446368E-03 -2.81972401E-03 -4.59844311E-03  6.29952984E-03  1.94396121E-02
 -4.00295021E-04  2.63542013E-03  5.77242131E-03 -1.79385265E-03 -2.26874800E-03
  5.21207105E-03 -4.32941752E-03  1.22833483E-02  4.40799580E-03  7.76184447E-03
 -6.09792830E-03  2.01145972E-02 -1.74533239E-04  3.73539535E-03 -2.48336641E-03
  8.90941085E-03  5.34416418E-03 -4.93037907E-05  8.92848191E-04  1.10997901E-03
  4.18037908E-03 -6.29413698E-04 -5.96607165E-04 -4.84205269E-03  4.21713421E-04
  6.33252405E-03  7.72127334E-04 -6.41486804E-03  6.70741184E-04  9.77931078E-03
 -6.38504795E-03 -3.76350878E-03 -9.16239795E-04  2.73159490E-03  5.78244065E-03
  2.50611426E-04  1.63946709E-03 -4.35345454E-04  5.28040162E-04  2.68168748E-03
  3.68743996E-04 -5.31003504E-05  4.73354915E-04  6.25864623E-04 -4.06273416E-03
  2.11276684E-03  6.94808207E-04  1.31247829E-03 -6.00388721E-03  3.78804983E-03
  1.21944712E-03  5.27847735E-04 -3.16710954E-03 -5.28110291E-03 -5.67231442E-05
 -6.08915636E-04 -1.74935529E-03 -5.81047958E-04 -2.88133375E-04  1.87907254E-03
  9.32977608E-04  8.28922072E-04 -2.64187729E-03 -9.63372526E-03 -2.57218239E-03
 -3.89896283E-04 -3.75062786E-03 -1.43668187E-02 -3.78483993E-03 -5.74688783E-06
 -2.11604368E-03 -8.38016245E-03 -3.05367120E-03  3.89632077E-03  1.91809253E-04
  2.84379032E-04  2.33525901E-04 -3.17577790E-06  3.27819253E-04  3.91827247E-04
  1.53714296E-03  1.05155324E-04  8.40855222E-05 -7.15793884E-03  3.49268675E-04
  7.28209534E-04 -1.92185735E-05 -1.03327074E-02  5.61498494E-04  1.00358822E-03
  1.11561153E-03 -7.70633790E-03  4.16876849E-04  1.41131516E-03  5.32419550E-05
 -1.20692583E-03 -5.82241750E-05  3.83588375E-04 -3.79719043E-04  2.11728992E-04
  2.19674204E-04  2.13806305E-04  1.28121910E-03  3.20415187E-03  4.84504504E-03
  7.76672942E-05 -1.58112926E-02 -7.03567309E-05 -1.14150409E-02  6.93762096E-05
 -2.67196054E-02  2.66679091E-04  1.16729546E-03  1.72412090E-03 -9.20374205E-03
 -2.93502403E-03  4.13174285E-02  8.68332454E-04  9.91361153E-03  2.91406219E-03
  2.33531093E-03 -1.40541234E-04  7.43831053E-04  4.27063171E-03 -1.82712700E-04
  6.58086727E-01  4.84504474E-03  7.33812292E-03  9.68627409E-05 -2.51397588E-02
 -1.14642093E-04 -1.74159547E-02  5.54945122E-05 -4.08278364E-02  4.51950975E-04
 -1.26649959E-03  1.83524076E-03 -1.55264902E-02 -4.49684176E-03  4.94618003E-02
  1.13519488E-03  1.18115856E-02  3.57224983E-03  3.39600962E-03 -9.03724090E-05
  1.08400174E-03  6.05161803E-03 -2.14614868E-04  5.59241190E-01  4.87830973E-01
 -7.75991022E-05 -9.67535499E-05  3.37354944E-04 -3.05697739E-04  1.28550411E-03
 -5.82249460E-05  1.59548284E-03 -5.53163026E-04  1.67649758E-03  1.38493438E-04
 -4.23796942E-03 -2.48224510E-03  5.45478606E-03  2.35112265E-02 -3.36204424E-03
  4.45343683E-03  5.78725948E-03 -1.09583554E-03 -3.74046602E-05  5.50391580E-04
  4.17918294E-04  7.69985477E-03 -1.23353764E-03 -1.72953869E-03  9.18242994E-02
  1.58112896E-02  2.51397533E-02 -3.05505370E-04 -6.96796325E-02  2.48801438E-03
 -7.19089609E-02 -6.90852578E-04 -1.03714903E-01  3.14418707E-03 -4.99380503E-02
 -9.94331356E-04 -6.32682396E-02 -1.99091903E-03 -4.11480098E-03  1.03913671E-03
 -6.41280894E-03  2.36342906E-03  4.26191920E-03  6.14599222E-04 -1.14796120E-03
  7.14387283E-03  7.79542185E-05  1.29147084E-04  2.92210397E-04  1.23868992E-03
  8.47204510E-02 -7.03660508E-05 -1.14657000E-04 -1.28551211E-03 -2.48798248E-03
  3.82230735E-03 -2.40161669E-05 -1.44593134E-03 -3.71305353E-03  6.42727176E-03
  7.52223853E-03 -3.83778754E-03 -1.25926785E-03  3.41814485E-03 -1.13206388E-02
 -2.67509527E-03 -1.88765284E-03 -2.76988251E-03 -4.89403624E-04 -1.59472996E-04
  4.19436878E-03 -5.77822124E-05  7.20479907E-04  5.64747182E-03  7.80972509E-03
  6.52298092E-03 -8.13217927E-03  6.35589062E-02 -1.14150349E-02 -1.74159510E-02
  5.78997976E-05  7.19089749E-02 -2.40696398E-05  4.14425714E-02  1.86811714E-04
  1.11218692E-01 -2.18053343E-03  1.25679453E-02 -2.48253549E-03  4.81523221E-02
  1.30491592E-02 -8.99914721E-02 -2.57873827E-03 -2.13499807E-02 -6.03970553E-03
 -8.72331062E-03 -8.50926054E-04 -2.96527836E-03 -1.49546951E-02  3.18116893E-04
 -8.03496134E-02 -1.41161240E-01  3.68690408E-03 -3.12171923E-03 -1.76233698E-02
  4.32304872E-01 -6.92599949E-05 -5.53087149E-05  1.59550666E-03 -6.91226247E-04
  1.44593455E-03 -1.87355177E-04  3.83544020E-03 -1.20255809E-03  1.79366137E-03
 -1.07498691E-03 -5.18432727E-03 -3.87875458E-03  6.80189282E-03  3.55065649E-02
 -4.86886266E-03  6.89598693E-03  8.23638190E-03 -1.50196718E-03 -2.16348059E-04
  5.84574098E-04  5.97523957E-04  1.10550007E-02 -4.00456075E-04 -8.44281545E-04
  1.33073498E-01  1.65001453E-03  7.96962097E-03  2.35925915E-03  1.93071081E-01
  2.67196027E-02  4.08278297E-02 -5.52878735E-04 -1.03714889E-01  3.71312906E-03
 -1.11218669E-01 -1.20200288E-03 -1.54325915E-01  4.66484570E-03 -7.66745904E-02
 -1.23783578E-03 -9.37740468E-02 -3.54160268E-03 -6.74920172E-03  1.69018072E-03
 -9.48056910E-03  3.00340523E-03  6.40188107E-03  1.05136022E-03 -1.35727290E-03
  1.09247132E-02  2.63235254E-04  3.34333764E-03  4.33150644E-03  2.43517299E-03
  1.26473591E-01 -1.19460977E-02 -1.21349111E-02  3.33757449E-03  1.89250961E-01
  2.66678617E-04  4.51952150E-04 -1.67654828E-03 -3.14415515E-03  6.42726467E-03
 -2.18052822E-03 -1.79371250E-03 -4.66475785E-03  1.05024058E-02  9.50527306E-03
 -5.80332119E-03 -2.30016550E-03  6.34886403E-03 -2.23865670E-02 -4.30153916E-03
 -4.14709935E-03 -4.53806202E-03 -1.04844187E-03 -3.13271866E-04  6.25629286E-03
 -6.29571928E-04  8.56628533E-04  8.13919355E-04  2.38998338E-03  8.00726450E-03
 -1.04421692E-02  9.92260913E-02 -9.11544575E-03  9.17301099E-03 -1.57951907E-02
  1.56036858E-01  1.16715754E-03 -1.26664419E-03 -1.39077655E-04  4.99381016E-02
  7.52249040E-03  1.25680810E-02  1.07404802E-03  7.66746755E-02  9.50572270E-03
 -3.69765480E-02  1.96893139E-03  2.53108477E-02 -1.91809108E-04 -2.44289277E-02
 -5.22576025E-04 -3.22812803E-03 -7.56114589E-03 -5.52127615E-03  6.16802813E-03
 -2.92303279E-03 -8.94120890E-03 -1.42799353E-04 -7.94258316E-02 -1.11210237E-01
  6.38760782E-03 -1.70227282E-03 -2.38840094E-02  2.61580619E-01  8.56774522E-03
 -6.50057226E-03 -2.58590458E-02  2.04337598E-01 -1.72401557E-03 -1.83514990E-03
 -4.23802693E-03 -9.94551665E-04  3.83785789E-03  2.48254773E-03 -5.18441713E-03
 -1.23815080E-03  5.80340594E-03 -1.96993855E-03 -1.01319190E-02 -3.36025751E-03
  5.25550042E-03  2.05679686E-02 -4.85061522E-03  4.21624329E-03  4.17551552E-03
 -7.16894631E-04  1.16998187E-04  5.02795282E-04  2.73091569E-04  8.21089145E-03
 -2.30185727E-03 -3.25211802E-03  9.29397649E-02  2.53377301E-03  1.08992588E-02
  6.99118707E-03  1.34958476E-01  4.33699677E-03  1.50758687E-02  9.37498834E-03
  9.68608437E-02  9.20378898E-03  1.55265451E-02 -2.48195234E-03 -6.32682389E-02
  1.25918263E-03 -4.81524408E-02 -3.87823277E-03 -9.37740553E-02  2.30002148E-03
 -2.53105370E-02 -3.35978079E-03 -5.45826746E-02  7.22835604E-04 -1.01627660E-02
  6.32367787E-04 -8.24393321E-03  2.90498399E-03  4.43774030E-03 -5.61551959E-04
 -8.84311120E-05  6.77219514E-03  4.97991629E-04  2.48994495E-03  2.79119029E-03
  6.97001716E-04  7.42790942E-02 -9.08868075E-03 -5.83422427E-03  5.38734990E-04
  1.11023823E-01 -1.26683751E-02 -1.11950178E-02  5.74522885E-04  6.93985778E-02
 -2.93508317E-03 -4.49691480E-03 -5.45472065E-03  1.99099369E-03  3.41825500E-03
  1.30493236E-02 -6.80180185E-03  3.54174384E-03  6.34904081E-03 -1.92316662E-04
 -5.25557203E-03 -7.22785756E-04 -4.66555256E-03  1.22051294E-03 -2.12921031E-03
  2.26508518E-03 -6.04003930E-03 -9.26115540E-04  3.30058278E-03  5.01018470E-03
  6.92942967E-04  1.10883138E-03  2.38966956E-03  5.60633587E-03  8.55320392E-03
 -1.11991210E-02  5.27384559E-02 -2.17200339E-02  1.13910857E-02 -1.57218604E-02
  8.15814037E-02 -4.29567986E-03  1.28998627E-02 -1.28870357E-02  5.64726663E-02
  4.13171907E-02  4.94614415E-02 -2.35119406E-02  4.11534319E-03 -1.13204235E-02
 -8.99906050E-02 -3.55075036E-02  6.75002287E-03 -2.23861973E-02 -2.44276815E-02
 -2.05680254E-02  1.01631429E-02  1.22102039E-03 -1.67634232E-01  7.28533164E-04
 -4.17356438E-02 -1.23013285E-02 -7.46367320E-03 -3.58164408E-03  2.16979528E-03
 -3.09749319E-04  2.05518130E-03 -4.77879660E-02 -5.61301185E-02 -7.04109955E-03
  3.21347817E-02  5.41897802E-03  9.69068782E-02 -1.21401829E-02  4.85285074E-02
  1.33469655E-02  2.77295385E-02 -4.66898027E-03  3.52397697E-02 -7.92407278E-03
  1.91768477E-01 -8.68335543E-04 -1.13521433E-03 -3.36205182E-03  1.03912452E-03
  2.67513316E-03  2.57885535E-03 -4.86887708E-03  1.69018511E-03  4.30161618E-03
  5.22419496E-04 -4.85063122E-03  6.32295032E-04  2.12920487E-03 -7.28500109E-04
 -1.71682332E-03  1.60001718E-04 -3.19651760E-04  3.84194474E-04 -1.91425847E-04
  2.78061322E-04 -2.14527045E-04  1.22633296E-03 -4.85098638E-04 -6.38423105E-04
  1.03574161E-02 -9.55159462E-04  2.95792481E-03  1.28860666E-03  1.51855957E-02
 -1.40377125E-03  4.50322339E-03  2.13373263E-03  1.19805125E-02 -1.00629913E-03
  3.66907028E-03 -2.58014258E-04  2.46764039E-03 -9.91355091E-03 -1.18114877E-02
  4.45365702E-03 -6.41295692E-03  1.88759989E-03  2.13497050E-02  6.89628549E-03
 -9.48081565E-03  4.14699574E-03  3.22794453E-03  4.21626447E-03 -8.24398728E-03
 -2.26509244E-03  4.17355182E-02  1.59993152E-04  9.77807051E-03  2.78719138E-03
  1.47424569E-03  1.49574846E-03 -8.25701920E-04  6.60766927E-04 -4.04681368E-04
  7.91668965E-03  9.23484066E-03  2.50576122E-03 -4.71912670E-04 -2.06345533E-03
 -1.62318542E-02  4.06792175E-03 -8.55672521E-04 -3.97176996E-03 -7.97039223E-04
  2.51941496E-03 -2.84723296E-03  1.57760557E-03 -4.09089288E-02 -9.07971886E-05
  1.02454726E-02  2.91401510E-03  3.57219333E-03 -5.78718546E-03 -2.36336540E-03
 -2.76981644E-03 -6.03961126E-03 -8.23626189E-03 -3.00333020E-03 -4.53796930E-03
 -7.56103823E-03 -4.17547551E-03 -2.90488671E-03 -6.03986593E-03 -1.23015954E-02
  3.19636600E-04 -2.78720425E-03 -3.50609803E-03 -1.48607382E-03  1.46285773E-03
  9.02403860E-04  9.28575767E-04  5.87961017E-04 -3.08053488E-03 -3.46481062E-03
  1.19425609E-03  6.12777030E-03  3.47687717E-03  4.42824758E-03  1.63833558E-03
  9.76438641E-03  5.53178937E-03  6.33441847E-03  2.82010451E-03  4.59834232E-03
  6.29968554E-03  1.94396578E-02  4.00353524E-04 -2.63547916E-03  5.77240520E-03
  2.33531868E-03  3.39602029E-03  1.09583295E-03 -4.26191598E-03 -4.89402944E-04
 -8.72333451E-03  1.50196855E-03 -6.40186951E-03 -1.04843663E-03 -5.52136332E-03
  7.16905186E-04 -4.43774045E-03 -9.26152871E-04 -7.46371426E-03 -3.84175871E-04
 -1.47425439E-03 -1.48609659E-03 -2.76977309E-04 -2.42242853E-04  6.82803851E-04
  6.79175289E-05 -5.69909674E-04 -1.79385623E-03 -2.26875931E-03 -5.21223200E-03
  4.32945118E-03  1.22833325E-02  4.40804045E-03 -7.76207502E-03  6.09798184E-03
  2.01145779E-02 -1.74467960E-04 -3.73562707E-03  2.48336576E-03  8.90942335E-03
  5.34416929E-03  4.92603255E-05 -8.92856665E-04  1.10998444E-03  4.18039446E-03
  1.40550450E-04  9.03854186E-05 -3.74209945E-05  6.14582820E-04  1.59460259E-04
  8.50898945E-04 -2.16369696E-04  1.05134440E-03  3.13254362E-04 -6.16819894E-03
  1.16880048E-04 -5.61558789E-04 -3.30063553E-03  3.58163469E-03 -1.91452830E-04
  1.49576419E-03 -1.46288710E-03  2.42243449E-04  3.61700909E-04 -4.96872101E-04
 -9.60082929E-05 -4.37404871E-04  6.29395919E-04  5.96561311E-04 -4.84194693E-03
  4.21788005E-04 -6.33244476E-03 -7.71957656E-04 -6.41471403E-03  6.70859735E-04
 -9.77918887E-03  6.38515493E-03 -3.76330891E-03 -9.16241664E-04 -2.73141125E-03
 -5.78252917E-03  2.50635765E-04  1.63946109E-03  4.35368573E-04 -5.28018652E-04
  2.68167929E-03 -7.43822319E-04 -1.08398801E-03  5.50393066E-04 -1.14797997E-03
 -4.19438652E-03  2.96523301E-03  5.84591296E-04 -1.35731524E-03 -6.25633660E-03
  2.92306177E-03  5.02820359E-04 -8.84588609E-05 -5.01022608E-03 -2.16973145E-03
  2.78061563E-04 -8.25694437E-04 -9.02376511E-04 -6.82805197E-04 -4.96887725E-04
  3.33162401E-04  2.62280419E-04  8.54630279E-05 -3.68739614E-04  5.31081527E-05
  4.73408760E-04  6.25887091E-04  4.06277315E-03 -2.11279649E-03  6.94890509E-04
  1.31250923E-03  6.00394788E-03 -3.78808744E-03  1.21946108E-03  5.27879819E-04
  3.16715264E-03  5.28115112E-03 -5.67258938E-05 -6.08922934E-04  1.74937516E-03
  5.81053899E-04 -2.88135842E-04  1.87908111E-03  4.27062793E-03  6.05161401E-03
 -4.17933279E-04 -7.14386441E-03 -5.77675708E-05 -1.49546900E-02 -5.97536815E-04
 -1.09246997E-02 -6.29549316E-04 -8.94120119E-03 -2.73103668E-04 -6.77217889E-03
  6.92962744E-04 -3.09695663E-04  2.14511897E-04 -6.60755240E-04  9.28583897E-04
  6.79172387E-05  9.60114730E-05 -2.62267304E-04  7.98963198E-04  2.05444189E-04
  9.32974655E-04  8.28921681E-04  2.64213811E-03  9.63371114E-03 -2.57213514E-03
 -3.89908009E-04  3.75101762E-03  1.43667989E-02 -3.78476717E-03 -5.72689899E-06
  2.11631552E-03  8.38017290E-03 -3.05362068E-03  3.89628780E-03 -1.91769069E-04
 -2.84368314E-04  2.33527475E-04 -3.18284642E-06 -3.27814901E-04 -3.91821310E-04
  1.53714405E-03 -1.82705072E-04 -2.14606162E-04 -7.69984767E-03 -7.79481227E-05
  7.20466974E-04  3.18116444E-04 -1.10549928E-02 -2.63212528E-04  8.56616257E-04
 -1.42939127E-04 -8.21087870E-03 -4.97997708E-04  1.10878892E-03  2.05489768E-03
 -1.22632393E-03  4.04615325E-04  5.87917300E-04 -5.69900426E-04  4.37420020E-04
 -8.54609484E-05  2.05417484E-04  1.15964359E-03  1.05143300E-04  8.40766376E-05
  7.15790733E-03 -3.49315504E-04  7.28263108E-04 -1.92326632E-05  1.03326638E-02
 -5.61559416E-04  1.00366848E-03  1.11567799E-03  7.70634294E-03 -4.16957479E-04
  1.41136057E-03  5.35804578E-05  1.20692842E-03  5.81521758E-05  3.83645797E-04
 -3.79717317E-04 -2.11713579E-04 -2.19656707E-04  2.13819468E-04  1.28121429E-03
 -2.01994500E-02 -3.14476286E-02  5.72841604E-02 -3.10941914E-02 -4.18131185E-02
  8.42394238E-02  8.25628803E-02 -4.44947969E-02 -5.96370472E-02  5.96276480E-02
  5.82717596E-02 -2.67772474E-02 -3.77288106E-02  2.43145884E-02  7.11535033E-03
  2.25060648E-03  3.85935685E-04 -2.59837417E-04 -7.30508373E-03  2.98168748E-03
  2.62566917E-03 -4.91027075E-03  3.29718766E-03  5.32989630E-03 -4.06425433E-03
  8.52360091E-03  3.78752157E-04 -1.59388224E-02 -5.03398507E-03  1.17699446E-02
  6.16504625E-05 -2.26474357E-02 -7.23344706E-03  1.11905521E-02 -3.23749275E-03
 -2.38645215E-02 -3.13425137E-03  6.54405905E-03 -3.39043113E-03  1.44309384E-03
 -4.81424449E-04  3.35394472E-03 -7.93454794E-04 -5.22449290E-03  8.23751613E-02
 -2.91891180E-02 -4.26614839E-02  7.90333164E-02 -4.45409862E-02 -5.24938559E-02
  1.05512276E-01  1.13554193E-01 -6.37369878E-02 -7.41920108E-02  7.61450069E-02
  7.88271781E-02 -3.73269073E-02 -4.78231165E-02  2.98264084E-02  8.80941377E-03
  2.36567345E-03  5.78616325E-04  1.49277566E-03 -1.08401182E-02  3.96061936E-03
  3.38299687E-03 -6.81309811E-03  4.05692655E-03  7.41503647E-03 -8.48261885E-03
  1.57570559E-02  1.24399317E-03 -2.44612305E-02 -1.09733481E-02  2.22574755E-02
  1.32869637E-03 -3.46997925E-02 -1.18730666E-02  1.91003199E-02 -5.43986333E-03
 -3.24658572E-02 -3.72658828E-03  8.51033627E-03 -5.55539515E-03  2.65525345E-03
 -1.78327369E-04  4.47946773E-03 -9.15930546E-04 -7.45189537E-03  1.10770075E-01
  1.51080379E-01  3.61094453E-03  2.84023851E-03  3.22523221E-02 -1.51260698E-02
 -1.41830237E-02 -9.65370934E-04  4.52350299E-02 -2.23219799E-02 -2.05979008E-02
  1.95161401E-02  2.89499191E-02 -9.07626634E-03 -4.74292266E-03 -1.19101726E-02
  1.28955139E-03 -4.42752443E-03  2.14340747E-03  2.21210068E-03 -8.21377689E-03
  1.61577538E-03 -5.32255870E-05 -2.68746541E-03  8.77147130E-04  1.99630968E-03
 -8.39254833E-03  1.04117819E-02  5.06950932E-03 -5.75958199E-03 -1.19596545E-02
  1.48860621E-02  8.48344231E-03 -2.64443377E-02 -1.01125313E-02  1.33782822E-02
 -7.68130328E-03  1.70961280E-03 -1.09232871E-03 -2.34832143E-03 -6.40180090E-03
  2.97791702E-03 -2.01907956E-03  7.71164653E-04  6.74317596E-04 -3.52285797E-03
  3.59957207E-02  5.32052283E-02  3.50197907E-02  5.09509685E-03  6.49289849E-03
 -1.37429943E-03  3.79440154E-03  3.36167868E-03 -1.30458288E-02 -2.02137267E-03
  5.38740815E-03  4.55347651E-03 -8.25740772E-03 -1.34317033E-03  3.30431960E-03
  3.35040496E-03 -4.18494290E-03 -2.32580510E-04 -4.62979849E-04 -2.19197259E-04
  3.29890744E-05  3.10950788E-04 -2.06575356E-04 -4.42173661E-04  1.24242101E-04
  1.09439925E-04 -7.76563980E-05 -9.11625589E-05 -9.51278294E-04  3.81933883E-05
  1.20190290E-03 -1.70970928E-04 -1.28477911E-03  1.50118062E-04  1.65195901E-03
 -9.66808792E-05 -1.35218384E-03 -1.25654226E-04  2.76208412E-03  8.15230310E-05
 -9.22194944E-04  2.69012347E-05  2.58654682E-05 -8.27034674E-06 -3.42311778E-04
  1.38723943E-04  1.20279451E-04 -6.18804010E-03 -8.17245670E-03 -1.63903104E-03
  7.05107273E-04 -2.74639923E-03 -3.62031662E-03  4.02790942E-03  2.72412175E-03
 -1.65602980E-03  7.87137224E-03  5.83196762E-03  4.24993007E-03 -2.21584975E-03
  4.95549451E-03  4.05904897E-03  2.50059131E-03 -1.53563115E-03  1.24737248E-03
  4.20877150E-04  3.99246822E-04 -1.62243475E-04 -3.81389444E-05 -3.71306143E-04
  1.32431218E-04 -3.82942708E-04 -2.59015794E-04 -7.98432028E-04 -1.10122830E-03
  4.19724883E-04 -3.59389337E-03 -4.58454370E-04  2.56960882E-03  6.71383064E-04
 -5.39974651E-03 -7.86555545E-04  1.24450703E-03  2.16701024E-04 -3.00304397E-03
 -2.83905640E-04 -2.45409237E-03 -7.03348036E-05  3.69189027E-04 -4.10177396E-04
 -3.61385211E-04  3.54098176E-05  1.91483477E-04 -5.15449862E-04 -3.20421986E-04
  3.78748472E-03  4.94574058E-03  1.24109931E-03 -2.43294210E-04  4.50960780E-04
 -3.42384410E-03 -4.33972331E-03  3.98282506E-03 -2.13554918E-03  3.83637291E-04
  8.70436166E-03  5.86068118E-03 -2.95041260E-03  1.20008265E-03  4.52315038E-03
  3.81989743E-03 -1.84632278E-03 -3.11029599E-04  3.43834891E-03  3.75633763E-04
  5.84921606E-04  1.37290782E-04  7.67741166E-04 -8.41573699E-05  1.08247221E-05
  9.24893893E-05 -3.13597101E-04 -1.34620956E-04  1.65552791E-05  2.67378497E-05
  6.63487276E-04 -8.64264423E-05 -9.44690873E-04  1.09400138E-04  9.02202261E-04
 -1.74184359E-04 -6.25808086E-04  5.97121959E-05  7.83913302E-04  3.25762565E-05
 -3.61061789E-03 -5.39903305E-06  9.71912922E-04 -3.22656564E-04 -2.00516507E-05
  1.23301900E-04  5.06674680E-05 -1.54614213E-04 -3.33179691E-04  4.51722214E-03
  6.24551207E-03  1.58425479E-03 -3.99203184E-04  2.51782145E-04  4.61139664E-04
 -1.99928179E-02 -3.11381011E-02 -6.96770333E-02 -2.93534682E-02 -1.46533384E-02
  8.34590405E-02 -1.00274442E-01 -4.27689137E-02 -2.04981825E-02  5.45778664E-02
 -6.95345631E-02 -2.63193669E-02 -1.31596414E-02  2.33819946E-02 -6.67600662E-03
  1.46310400E-03  2.41202540E-03 -4.82930416E-03  3.57747346E-03  1.39488522E-03
  6.03415017E-03  5.62725495E-03  2.95562194E-03  4.89604694E-03  5.37865616E-03
  9.51964144E-03  2.38459136E-03 -1.63247526E-02  6.88108243E-03  1.36979691E-02
  2.50947839E-03 -1.25237492E-02  8.58204278E-03  1.33718026E-02  8.75210906E-03
  2.13918027E-03  2.32408656E-03  2.60531041E-03  5.87857430E-03 -1.15176786E-03
 -6.29964342E-04  1.27222382E-03  2.31101669E-04  6.22673512E-03 -1.02726177E-02
 -1.77494211E-02 -2.04800986E-02 -3.25924494E-03 -2.19703420E-03 -8.64604641E-04
  8.23237474E-02 -2.77410566E-02 -4.09394517E-02 -9.42249892E-02 -4.25510767E-02
 -1.66579265E-02  1.03285368E-01 -1.34881900E-01 -6.19374333E-02 -2.30273592E-02
  5.79573085E-02 -9.19742307E-02 -4.06554587E-02 -1.96363216E-02  3.90908197E-02
 -7.97235494E-03  4.44939015E-03  1.69636629E-03 -6.29808416E-03  7.87301468E-03
  2.43462480E-03  9.20164820E-03  7.92644975E-03  5.11423602E-03  8.50003458E-03
  1.27783027E-02  1.83665423E-02  2.71532018E-03 -2.87653761E-02  1.72377773E-02
  2.72554822E-02  2.22715996E-03 -1.01045316E-02  1.71065239E-02  2.09458980E-02
  1.70388678E-02 -1.95482837E-03  3.26375967E-03  5.83006900E-03  1.07084571E-02
 -1.77621410E-03 -1.93098387E-04  1.40258608E-03  1.14908042E-03  8.87168105E-03
 -1.81278308E-02 -3.09415923E-02 -3.62016811E-02 -4.15594935E-03 -3.34314213E-03
 -1.14769414E-03  1.12213158E-01  1.58404941E-01  5.89441381E-03  5.76254133E-03
 -3.43337429E-02 -1.47011079E-02 -3.67747579E-03 -5.50771522E-03 -4.85237668E-02
 -2.19988892E-02 -6.70088406E-03 -6.31445283E-03 -3.06097225E-02 -1.58332378E-02
 -3.94449288E-03 -3.27871994E-03 -1.35521173E-03 -1.39404882E-03 -1.27929713E-03
 -3.51581923E-03  5.11279664E-03  2.11987818E-03  4.15005113E-03  3.61083021E-03
  2.08701699E-03  3.44475432E-03  1.39238987E-02  1.41908057E-02  2.64694537E-03
 -1.18234583E-02  1.90835653E-02  2.18325361E-02  3.37246484E-03  1.22558643E-05
  1.38187511E-02  1.32306282E-02  9.67274056E-03  1.79515017E-02  9.08426990E-04
 -1.89299910E-03  7.00667732E-03 -3.30930432E-04 -2.00473525E-03 -4.15320477E-04
  2.63746636E-03  3.86284398E-03 -1.73925822E-02 -2.74426047E-02 -1.96298349E-02
 -5.53983995E-05 -2.12760148E-03 -1.39908030E-03  3.52919092E-02  5.51095640E-02
  3.08226130E-02 -6.02228863E-03 -7.72525743E-03 -3.64621014E-03 -3.99843444E-03
 -1.41986243E-03  1.57303311E-02 -5.16181438E-03 -5.67038203E-03 -1.49489534E-03
  9.42478535E-03 -3.74371975E-03 -3.51862137E-03 -1.76142370E-03  4.89165741E-03
 -3.37819891E-04  5.91619626E-04  3.25789494E-04  7.72803818E-05  2.34578219E-04
  1.39519113E-04  5.83354690E-04  2.30975424E-04 -3.42171519E-05  1.61037218E-04
 -2.62259928E-04  8.50417220E-04  4.19530466E-05 -1.43652675E-03 -4.17368362E-04
  1.11107076E-03 -4.18339651E-05 -1.28970394E-03  3.06232264E-05  1.42180869E-03
  7.28156382E-04 -2.81678946E-03  1.25083756E-04  9.98478518E-04  2.11874054E-04
 -1.19058828E-04  6.52447306E-05  1.48546606E-04 -1.84835577E-04  2.85343121E-04
  2.72054951E-03  3.41581240E-03 -6.25150811E-04 -6.47505522E-04  2.08746578E-05
  2.75995456E-04  7.29256271E-03  9.82468965E-03  2.04753340E-03  9.40562043E-04
 -2.47679160E-03 -3.29181745E-03 -4.08305223E-03  2.79469331E-03  9.00510787E-05
  7.28032338E-03 -5.83803305E-03  4.28766355E-03  2.72196541E-04  3.85079284E-03
 -3.94951376E-03  2.34491122E-03 -1.55388943E-04  8.62259184E-04 -3.91948202E-04
  3.44243987E-04 -2.20173832E-04 -3.50147651E-04  4.25867174E-04  5.33824043E-05
 -1.52307503E-04  2.92221246E-04 -7.10082775E-04 -1.06839083E-03 -2.71126416E-04
 -3.39784432E-03 -3.85472801E-04  2.69177340E-03 -4.41020138E-04 -5.09779934E-03
 -6.50463527E-04  2.44164773E-03 -7.92463012E-05 -2.85150648E-03  6.26670700E-04
 -8.43309638E-04  1.43731478E-04  1.35763279E-04  2.38340745E-04 -3.88370462E-04
  1.52831846E-04 -2.11701836E-05 -4.56281717E-04  3.27770575E-04 -2.22438467E-03
 -3.39784584E-03 -2.51606663E-03 -3.78381088E-05  4.18914781E-05 -9.97669320E-05
  3.62519360E-03  4.96710566E-03  1.30211886E-03  3.07256646E-04  4.20353511E-04
 -9.43370914E-04 -1.21968234E-03 -2.05173778E-03 -2.60180274E-04  2.62068752E-03
  2.58843005E-03 -2.86369112E-03 -3.32390774E-04  4.21457994E-03  6.57368491E-04
 -2.19497887E-03 -2.52982548E-04  1.93375042E-03  1.42370810E-03 -2.97041666E-04
  3.15912249E-04  1.17825193E-04  4.64676034E-04  4.70489231E-04 -1.33456438E-04
  3.69191873E-05  1.70880290E-04  2.71142330E-05  7.34867108E-05  1.79923069E-04
  1.13060017E-04  1.46147751E-04 -4.22426157E-04  2.34743509E-04  1.59656382E-04
  2.05998668E-04  4.35962777E-04  4.39049459E-04  1.26445168E-04  5.57514060E-04
 -1.13929077E-03  2.11486221E-04  3.47939951E-04  8.78728432E-05 -8.04554963E-05
  9.35655231E-05 -1.57297214E-04 -6.09004591E-05  1.93575999E-04 -2.06342074E-03
 -2.74453383E-03 -1.46842702E-03  3.95166186E-05 -1.07241484E-04  3.06405555E-05
  1.62570441E-03  2.49106631E-03  7.82108724E-04  1.68163157E-04  1.31483526E-04
  1.83226595E-04  2.95561677E-03  4.89603936E-03 -5.37866225E-03 -9.51952919E-03
  2.38459682E-03 -1.63247391E-02 -6.88109467E-03 -1.36978029E-02  2.50947825E-03
 -1.25239097E-02 -8.58193572E-03 -1.33717667E-02  8.75220882E-03  2.13862020E-03
 -2.32408368E-03 -2.60547205E-03  5.87861996E-03 -1.15177567E-03  6.29993504E-04
 -1.27219060E-03  2.31057558E-04  6.22677564E-03 -1.99927743E-02 -3.11380262E-02
  6.96773842E-02  2.93530861E-02 -1.46530271E-02  8.34587656E-02  1.00274970E-01
  4.27684145E-02 -2.04977722E-02  5.45780194E-02  6.95349058E-02  2.63190575E-02
 -1.31594298E-02  2.33832117E-02  6.67605358E-03 -1.46337826E-03  2.41223183E-03
 -4.82939276E-03 -3.57739170E-03 -1.39482366E-03  6.03427839E-03  5.62722248E-03
 -7.47415246E-03 -1.22573357E-02 -6.90257901E-03  2.27348789E-06 -6.11859949E-04
 -2.34947925E-04  8.31291114E-03  1.61910422E-02  1.64343628E-02  1.23115442E-05
 -5.09395352E-04  1.98419119E-04  8.23238086E-02  5.11423652E-03  8.50004699E-03
 -1.27782503E-02 -1.83663787E-02  2.71528366E-03 -2.87654663E-02 -1.72377023E-02
 -2.72552377E-02  2.22709425E-03 -1.01045424E-02 -1.71061629E-02 -2.09458014E-02
  1.70390168E-02 -1.95585185E-03 -3.26369637E-03 -5.83041395E-03  1.07085521E-02
 -1.77621791E-03  1.93145803E-04 -1.40255427E-03  1.14900350E-03  8.87171260E-03
 -2.77408969E-02 -4.09392569E-02  9.42253266E-02  4.25505418E-02 -1.66577070E-02
  1.03284962E-01  1.34882413E-01  6.19367095E-02 -2.30270997E-02  5.79573615E-02
  9.19744211E-02  4.06551581E-02 -1.96364350E-02  3.90929947E-02  7.97237326E-03
 -4.44983279E-03  1.69663157E-03 -6.29823173E-03 -7.87293184E-03 -2.43453669E-03
  9.20181352E-03  7.92636986E-03 -1.16752513E-02 -1.88894946E-02 -6.00779509E-03
  8.57438973E-05 -1.37703113E-03 -7.43112229E-04  1.61909631E-02  2.70091022E-02
  2.62649059E-02  1.61209163E-04 -8.94501992E-04  1.94469521E-04  1.12213167E-01
  1.58404952E-01  2.08701677E-03  3.44478112E-03 -1.39239732E-02 -1.41908328E-02
  2.64700414E-03 -1.18236253E-02 -1.90836822E-02 -2.18325694E-02  3.37254685E-03
  1.23015208E-05 -1.38187119E-02 -1.32305769E-02  9.67293007E-03  1.79506907E-02
 -9.08424809E-04  1.89277975E-03  7.00665719E-03 -3.30911751E-04  2.00477232E-03
  4.15334534E-04  2.63742505E-03  3.86286302E-03  5.89440462E-03  5.76250769E-03
  3.43337958E-02  1.47010987E-02 -3.67754141E-03 -5.50756117E-03  4.85238477E-02
  2.19989026E-02 -6.70099024E-03 -6.31430719E-03  3.06098188E-02  1.58334174E-02
 -3.94478645E-03 -3.27771602E-03  1.35526743E-03  1.39385929E-03 -1.27923706E-03
 -3.51587603E-03 -5.11274727E-03 -2.11983930E-03  4.15010870E-03  3.61076939E-03
 -8.79014673E-03 -1.43292838E-02 -6.16352753E-03  5.66439124E-05 -1.23925050E-03
 -6.39876320E-04  1.64343687E-02  2.62649210E-02  1.89780267E-02  7.37088435E-04
 -7.18132567E-05  3.71667149E-04  3.52919936E-02  5.51096467E-02  3.08225369E-02
  3.42257906E-05 -1.61024632E-04 -2.62244207E-04  8.50367922E-04 -4.19475907E-05
  1.43650140E-03 -4.17348411E-04  1.11099920E-03  4.18433067E-05  1.28966686E-03
  3.06223405E-05  1.42176774E-03 -7.28172765E-04  2.81680167E-03  1.25079738E-04
  9.98491423E-04 -2.11892960E-04  1.19066550E-04  6.52407955E-05  1.48542921E-04
  1.84840324E-04 -2.85348755E-04  6.02229899E-03  7.72527273E-03 -3.64626240E-03
 -3.99836587E-03  1.41981012E-03 -1.57303692E-02 -5.16188638E-03 -5.67028261E-03
  1.49481832E-03 -9.42481206E-03 -3.74373993E-03 -3.51856903E-03  1.76138798E-03
 -4.89174670E-03 -3.37813696E-04  5.91642954E-04 -3.25798059E-04 -7.72768527E-05
  2.34586084E-04  1.39516328E-04 -5.83358867E-04 -2.30975244E-04 -5.54325369E-05
 -5.70374223E-05 -2.79290922E-04  3.31009108E-05  4.40004639E-05 -2.16910293E-05
 -1.23258980E-05 -1.61233883E-04 -7.37107836E-04  3.85797547E-06  8.53808127E-05
  1.31040150E-05 -7.29257122E-03 -9.82471583E-03 -2.04757958E-03  9.40562518E-04
  7.10079880E-04  1.06839094E-03 -2.71128659E-04 -3.39784861E-03  3.85480475E-04
 -2.69178678E-03 -4.41019347E-04 -5.09780405E-03  6.50475313E-04 -2.44166324E-03
 -7.92733744E-05 -2.85150180E-03 -6.26669102E-04  8.43362472E-04  1.43722190E-04
  1.35777076E-04 -2.38339707E-04  3.88372452E-04  1.52829350E-04 -2.11711814E-05
  4.56281655E-04 -3.27764041E-04  2.47675194E-03  3.29176776E-03 -4.08300178E-03
  2.79473632E-03 -9.00771814E-05 -7.28022196E-03 -5.83795582E-03  4.28772418E-03
 -2.72229692E-04 -3.85073776E-03 -3.94945319E-03  2.34494973E-03  1.55382275E-04
 -8.62363815E-04 -3.91940175E-04  3.44264875E-04  2.20157564E-04  3.50149660E-04
  4.25867591E-04  5.33804694E-05  1.52302606E-04 -2.92215580E-04  3.89124197E-04
  8.77470932E-04  3.73816621E-04 -4.07456880E-05 -1.89823046E-04  4.87157491E-05
  5.09405177E-04  8.94511398E-04  7.18117451E-05  8.53830542E-05 -1.15358077E-04
  3.52813064E-05 -3.62514410E-03 -4.96704303E-03 -1.30210416E-03  3.07255331E-04
  4.20349180E-04  2.71079463E-05  7.34760561E-05 -1.79934973E-04 -1.13041730E-04
  1.46159401E-04 -4.22386277E-04 -2.34760630E-04 -1.59629242E-04  2.06019638E-04
  4.35964516E-04 -4.39039853E-04 -1.26437403E-04  5.57508059E-04 -1.13921509E-03
 -2.11479865E-04 -3.47916774E-04  8.78680900E-05 -8.04527078E-05 -9.35607045E-05
  1.57291891E-04 -6.09009580E-05  1.93569261E-04 -9.43293536E-04 -1.21958253E-03
  2.05164698E-03  2.60119867E-04  2.62066872E-03  2.58821981E-03  2.86356217E-03
  3.32309568E-04  4.21453809E-03  6.57303074E-04  2.19486924E-03  2.52920030E-04
  1.93374298E-03  1.42363385E-03  2.97027309E-04 -3.15894330E-04  1.17828443E-04
  4.64665307E-04 -4.70470518E-04  1.33461137E-04  3.69161163E-05  1.70874473E-04
 -1.27989779E-04 -1.66689433E-04  3.69454272E-04  7.47329002E-06 -2.66772314E-05
 -2.25875277E-05  1.98419059E-04  1.94474573E-04  3.71641690E-04 -1.31025871E-05
 -3.52784033E-05 -2.89880361E-06  1.62559436E-03  2.49089773E-03  7.82063050E-04
 -1.68152034E-04 -1.31476013E-04  1.83216064E-04  3.29720087E-03  5.32991809E-03
  4.06424797E-03 -8.52369963E-03  3.78785734E-04 -1.59388888E-02  5.03399935E-03
 -1.17701039E-02  6.17258859E-05 -2.26472750E-02  7.23334344E-03 -1.11905623E-02
 -3.23744013E-03 -2.38638095E-02  3.13422769E-03 -6.54387335E-03 -3.39040285E-03
  1.44310214E-03  4.81427333E-04 -3.35394380E-03 -7.93410404E-04 -5.22445662E-03
 -2.01995081E-02 -3.14477245E-02 -5.72837158E-02  3.10945180E-02 -4.18132826E-02
  8.42397508E-02 -8.25622287E-02  4.44952174E-02 -5.96372425E-02  5.96275416E-02
 -5.82713230E-02  2.67775013E-02 -3.77288892E-02  2.43131730E-02 -7.11533360E-03
 -2.25029305E-03  3.85685854E-04 -2.59751649E-04  7.30503184E-03 -2.98175210E-03
  2.62554541E-03 -4.91025717E-03  3.14246486E-03  6.94906867E-03  4.68510967E-03
 -4.29605858E-05 -6.60152268E-04  3.72754256E-04 -7.47404675E-03 -1.16750935E-02
 -8.78993609E-03  5.54531590E-05 -3.89140496E-04 -1.27974069E-04 -1.02726205E-02
 -1.81276913E-02 -1.73923066E-02 -2.72051085E-03  2.22438752E-03 -2.06340673E-03
  8.23751005E-02  4.05695950E-03  7.41506443E-03  8.48263328E-03 -1.57572621E-02
  1.24398926E-03 -2.44612283E-02  1.09734136E-02 -2.22578069E-02  1.32870958E-03
 -3.46998904E-02  1.18729423E-02 -1.91005163E-02 -5.43993491E-03 -3.24645370E-02
  3.72659527E-03 -8.51000188E-03 -5.55533377E-03  2.65522452E-03  1.78373774E-04
 -4.47952998E-03 -9.15869781E-04 -7.45187581E-03 -2.91892451E-02 -4.26616500E-02
 -7.90328472E-02  4.45414001E-02 -5.24941080E-02  1.05512680E-01 -1.13553489E-01
  6.37375041E-02 -7.41923163E-02  7.61450185E-02 -7.88267057E-02  3.73270337E-02
 -4.78232267E-02  2.98243976E-02 -8.80943943E-03 -2.36518578E-03  5.78331341E-04
  1.49291335E-03  1.08400683E-02 -3.96071095E-03  3.38283907E-03 -6.81307199E-03
  6.94909992E-03  1.40940868E-02  8.96566497E-03 -1.79195778E-04 -9.96171067E-04
  7.83801322E-04 -1.22571391E-02 -1.88891651E-02 -1.43289757E-02  5.70820503E-05
 -8.77485874E-04 -1.66667481E-04 -1.77495294E-02 -3.09415919E-02 -2.74423106E-02
 -3.41574039E-03  3.39785497E-03 -2.74452099E-03  1.10770069E-01  1.51080492E-01
  8.77108236E-04  1.99623654E-03  8.39243869E-03 -1.04117484E-02  5.06962590E-03
 -5.75931093E-03  1.19595049E-02 -1.48859889E-02  8.48364809E-03 -2.64446026E-02
  1.01120854E-02 -1.33781963E-02 -7.68125475E-03  1.71042950E-03  1.09224453E-03
  2.34862601E-03 -6.40184344E-03  2.97791697E-03  2.01910894E-03 -7.71138707E-04
  6.74359155E-04 -3.52279490E-03  3.61091119E-03  2.84022983E-03 -3.22520685E-02
  1.51261266E-02 -1.41829582E-02 -9.65494869E-04 -4.52346499E-02  2.23220904E-02
 -2.05978315E-02  1.95160817E-02 -2.89494297E-02  9.07609131E-03 -4.74248366E-03
 -1.19116521E-02 -1.28950582E-03  4.42776497E-03  2.14332568E-03  2.21213040E-03
  8.21378233E-03 -1.61580885E-03 -5.32792977E-05 -2.68741517E-03  4.68503235E-03
  8.96571745E-03 -1.13329998E-03 -2.38847409E-04 -4.00719351E-04  1.06605035E-03
 -6.90237324E-03 -6.00748573E-03 -6.16340716E-03  2.79315840E-04 -3.73803252E-04
  3.69485853E-04 -2.04801367E-02 -3.62018160E-02 -1.96296930E-02  6.25224278E-04
  2.51606383E-03 -1.46838729E-03  3.59954771E-02  5.32049773E-02  3.50197942E-02
 -1.09428303E-04  7.76726324E-05 -9.11646876E-05 -9.51322564E-04 -3.82046924E-05
 -1.20194216E-03 -1.70968963E-04 -1.28485103E-03 -1.50137600E-04 -1.65198256E-03
 -9.66710619E-05 -1.35222371E-03  1.25644870E-04 -2.76199695E-03  8.15367715E-05
 -9.22187551E-04 -2.68750900E-05 -2.58702194E-05 -8.26102542E-06 -3.42322616E-04
 -1.38715243E-04 -1.20273492E-04 -5.09505300E-03 -6.49284099E-03 -1.37419144E-03
  3.79442530E-03 -3.36170907E-03  1.30457078E-02 -2.02121451E-03  5.38744162E-03
 -4.55352900E-03  8.25732878E-03 -1.34308419E-03  3.30433060E-03 -3.35044194E-03
  4.18494647E-03 -2.32586610E-04 -4.62970496E-04  2.19199101E-04 -3.29996723E-05
  3.10941924E-04 -2.06574789E-04  4.42177447E-04 -1.24237016E-04  4.29548341E-05
  1.79166343E-04  2.38804665E-04 -3.14717033E-05 -6.67137336E-05  1.94757115E-05
 -2.24790315E-06 -8.56912233E-05 -5.65927931E-05  3.31023417E-05 -4.07472164E-05
 -7.47280871E-06  3.25928583E-03  4.15602657E-03  5.54680794E-05 -6.47501999E-04
 -3.78363141E-05 -3.95234964E-05  6.18798815E-03  8.17238019E-03  1.63896182E-03
  7.05101760E-04  7.98433213E-04  1.10122559E-03  4.19715733E-04 -3.59387943E-03
  4.58439073E-04 -2.56958512E-03  6.71374331E-04 -5.39972463E-03  7.86529819E-04
 -1.24452293E-03  2.16694465E-04 -3.00303956E-03  2.83879127E-04  2.45408996E-03
 -7.03411540E-05  3.69192153E-04  4.10168875E-04  3.61377855E-04  3.54155258E-05
  1.91496307E-04  5.15452266E-04  3.20427174E-04  2.74642952E-03  3.62035349E-03
  4.02794160E-03  2.72408068E-03  1.65609333E-03 -7.87144614E-03  5.83201845E-03
  4.24987693E-03  2.21594125E-03 -4.95548731E-03  4.05908827E-03  2.50056198E-03
  1.53571385E-03 -1.24734355E-03  4.20888636E-04  3.99236716E-04  1.62266771E-04
  3.81400024E-05 -3.71299776E-04  1.32437660E-04  3.82947544E-04  2.59018189E-04
  6.60144056E-04  9.96154619E-04  4.00700080E-04 -6.67128824E-05 -1.30688842E-04
  7.32590008E-05  6.11891491E-04  1.37708676E-03  1.23926696E-03  4.40035443E-05
 -1.89820139E-04  2.66783191E-05  2.19702929E-03  3.34311937E-03  2.12759521E-03
  2.08780921E-05  4.18919657E-05  1.07241219E-04 -3.78753527E-03 -4.94581515E-03
 -1.24108514E-03 -2.43294765E-04  4.50965753E-04 -1.34610013E-04  1.65703940E-05
 -2.67456718E-05 -6.63528865E-04 -8.64458308E-05 -9.44727505E-04 -1.09407001E-04
 -9.02264253E-04 -1.74214690E-04 -6.25858332E-04 -5.96944633E-05 -7.83976951E-04
  3.25450075E-05 -3.61063354E-03  5.41514526E-06 -9.71922068E-04 -3.22662697E-04
 -2.00588185E-05 -1.23297293E-04 -5.06805889E-05 -1.54612108E-04 -3.33186801E-04
 -3.42389810E-03 -4.33979264E-03 -3.98287376E-03  2.13562039E-03  3.83596266E-04
  8.70450371E-03 -5.86075308E-03  2.95051011E-03  1.20003409E-03  4.52326003E-03
 -3.81997729E-03  1.84636378E-03 -3.11079150E-04  3.43837982E-03 -3.75654980E-04
 -5.84911604E-04  1.37293559E-04  7.67757979E-04  8.41629141E-05 -1.08280949E-05
  9.24880157E-05 -3.13599226E-04  3.72757310E-04  7.83795321E-04  1.06602639E-03
 -1.94777700E-05 -7.32627464E-05  3.58257973E-06 -2.34929775E-04 -7.43076541E-04
 -6.39849667E-04  2.16956453E-05 -4.87167530E-05 -2.25879448E-05 -8.64609458E-04
 -1.14769753E-03 -1.39908646E-03 -2.76000194E-04  9.97696976E-05  3.06361480E-05
  4.51731194E-03  6.24563312E-03  1.58427097E-03  3.99204798E-04 -2.51788861E-04
  4.61152308E-04 -1.17657245E-03 -1.93325728E-03 -9.52620808E-05  2.92673593E-03
  3.24357717E-03  5.76499412E-03 -2.44131539E-04  4.37273334E-03  5.54519761E-03
  3.89890605E-03 -3.39540493E-03  3.63580417E-03  3.04579520E-03  1.60043753E-02
  2.05324632E-04  5.82616234E-05  4.66259262E-03 -3.64090063E-04  8.59290126E-04
 -1.40872958E-03 -5.03412724E-04 -4.87562852E-05 -1.17656902E-03 -1.93324381E-03
  9.52588983E-05 -2.92672173E-03  3.24356977E-03  5.76498806E-03  2.44059351E-04
 -4.37277992E-03  5.54520467E-03  3.89880925E-03  3.39543595E-03 -3.63575659E-03
  3.04588076E-03  1.60052022E-02 -2.05275396E-04 -5.84633372E-05  4.66264681E-03
 -3.64102961E-04 -8.59252093E-04  1.40878259E-03 -5.03444410E-04 -4.87404067E-05
 -2.68747598E-03 -3.75160763E-03 -4.39682226E-03  6.76688038E-05  1.58334768E-04
 -4.94023475E-09 -5.61201418E-04 -2.82335672E-03 -4.20400905E-03 -2.59204857E-04
 -6.55431304E-05 -1.49733593E-04 -5.61161954E-04 -2.82325503E-03 -4.20411452E-03
  2.59161486E-04  6.55176472E-05 -1.49720064E-04 -2.68749055E-03 -3.75154856E-03
 -4.39680240E-03 -6.76445488E-05 -1.58354413E-04 -4.18651740E-08  6.58740217E-01
 -1.93104212E-03 -3.15358256E-03 -2.60916248E-04  5.03808470E-03  5.39858156E-03
  9.50576515E-03 -3.79292258E-04  7.30049505E-03  8.71325272E-03  6.58850999E-03
 -3.61078545E-03  6.02642230E-03  4.85829554E-03  1.92863416E-02  3.82412662E-04
  2.42653660E-04  5.64169865E-03 -7.17440622E-04  1.33715912E-03 -2.37970745E-03
 -8.65937282E-04 -1.42852215E-04 -1.93106167E-03 -3.15359072E-03  2.60909702E-04
 -5.03806179E-03  5.39856730E-03  9.50577890E-03  3.79173203E-04 -7.30056772E-03
  8.71326586E-03  6.58818617E-03  3.61081152E-03 -6.02628968E-03  4.85836681E-03
  1.92876686E-02 -3.82348490E-04 -2.42983208E-04  5.64175432E-03 -7.17461326E-04
 -1.33710142E-03  2.37979339E-03 -8.65989742E-04 -1.42827965E-04 -4.43588303E-03
 -6.98814709E-03 -6.64747607E-03  1.71999589E-04  2.49865015E-04 -1.00524545E-04
 -9.93908345E-04 -3.73067986E-03 -5.15425572E-03 -3.66384464E-04  4.48609670E-05
 -7.58376377E-05 -9.93856231E-04 -3.73045929E-03 -5.15442470E-03  3.66307010E-04
 -4.49045996E-05 -7.58127071E-05 -4.43590263E-03 -6.98803874E-03 -6.64748057E-03
 -1.71951931E-04 -2.49896849E-04 -1.00585633E-04  5.60175150E-01  4.89233945E-01
 -3.39684680E-04 -5.66624110E-04 -4.44639568E-03  6.69925048E-04 -2.52659520E-03
  3.06996472E-03 -6.55143914E-03  1.92406130E-03 -3.30341820E-03 -8.66594123E-03
 -3.57467996E-03 -4.36598751E-03 -6.54135998E-03  6.87678435E-02 -1.57348062E-03
  1.83787745E-02  2.10005368E-03 -8.27255588E-04  2.40659855E-03  1.31006998E-03
  4.97675151E-04  3.18171730E-04  3.39675954E-04  5.66607842E-04 -4.44644661E-03
  6.69852480E-04  2.52662898E-03 -3.06989772E-03 -6.55152828E-03  1.92404960E-03
  3.30340421E-03  8.66608797E-03 -3.57457684E-03 -4.36606342E-03  6.54145746E-03
 -6.87681203E-02 -1.57342530E-03  1.83787822E-02 -2.10009531E-03  8.27203698E-04
  2.40654524E-03  1.31003828E-03 -4.97703959E-04 -3.18253900E-04 -2.07162331E-03
 -2.60213831E-03 -5.56129320E-03 -2.86304498E-04  8.43126676E-05  6.18631648E-05
  5.16535423E-03  1.13331264E-02 -1.86932567E-03  5.84369691E-04  6.21415613E-04
  3.16060605E-04 -5.16539280E-03 -1.13333896E-02  1.86931330E-03  5.84385314E-04
  6.21415832E-04 -3.15993816E-04  2.07162159E-03  2.60196255E-03  5.56152301E-03
 -2.86366722E-04  8.43092341E-05 -6.19096115E-05 -4.49330003E-10 -3.81084129E-10
  6.69577677E-02 -3.07071857E-04 -4.83597619E-04 -9.19000853E-04 -2.98599238E-03
  8.87671921E-03  1.62792051E-03 -5.99589311E-04 -6.69161385E-03  1.22160436E-02
 -7.13031841E-03 -2.34949049E-03 -2.93963403E-03  6.90500773E-03  2.63642746E-02
 -5.86082713E-04  4.45308904E-03  4.73854158E-03 -6.09280571E-04  2.42852225E-03
 -4.37035051E-03 -5.28269964E-04 -1.03909805E-03  3.07067995E-04  4.83593268E-04
 -9.18949327E-04 -2.98603371E-03 -8.87669989E-03 -1.62794086E-03 -5.99579081E-04
 -6.69163886E-03 -1.22160316E-02  7.13052186E-03 -2.34948044E-03 -2.93971592E-03
 -6.90486057E-03 -2.63644380E-02 -5.86103172E-04  4.45307303E-03 -4.73858354E-03
  6.09287227E-04  2.42855362E-03 -4.37035049E-03  5.28307809E-04  1.03904633E-03
 -5.97867990E-03 -1.06618564E-02 -7.31366948E-03  4.38214960E-04 -6.74540351E-04
 -1.89064729E-04 -3.21616360E-04 -2.36419444E-04 -2.47887022E-03 -8.71665686E-05
 -2.94754379E-05  3.96119965E-04  3.21609341E-04  2.36400849E-04  2.47898111E-03
 -8.71839751E-05 -2.94343305E-05 -3.96142012E-04  5.97864752E-03  1.06616745E-02
  7.31366884E-03  4.38194894E-04 -6.74505496E-04  1.89019917E-04  5.62750447E-09
  8.61942012E-09 -9.41646356E-04  7.22090744E-02 -3.01723884E-03 -5.09180475E-03
  4.10301406E-04  5.80062766E-03  8.16209689E-03  1.71295540E-02  1.18634009E-03
  8.04480034E-03  1.33307531E-02  1.54676661E-02  3.40946260E-03  4.77540873E-03
  8.88660748E-03  7.39025496E-03  2.61111622E-03 -9.03017394E-04  2.31444952E-03
 -1.97655874E-03  1.56875606E-03 -3.72470102E-03 -1.24911355E-03 -5.60284587E-04
 -3.01726151E-03 -5.09182505E-03 -4.10346679E-04 -5.80060904E-03  8.16208807E-03
  1.71295539E-02 -1.18624401E-03 -8.04477024E-03  1.33307692E-02  1.54677504E-02
 -3.40952593E-03 -4.77544640E-03  8.88653283E-03  7.38956852E-03 -2.61114884E-03
  9.03219027E-04  2.31443787E-03 -1.97653773E-03 -1.56889520E-03  3.72458808E-03
 -1.24909730E-03 -5.60247399E-04 -5.09899935E-03 -1.07914736E-02 -1.01549678E-02
  2.98162513E-04  3.14194213E-04  5.37839656E-06 -1.47232496E-03 -2.69945557E-03
 -3.64791028E-03 -2.44029080E-04  4.09638337E-04  4.81559621E-04 -1.47224146E-03
 -2.69949599E-03 -3.64775481E-03  2.44069387E-04 -4.09588396E-04  4.81582365E-04
 -5.09903414E-03 -1.07914512E-02 -1.01549885E-02 -2.98141070E-04 -3.14187828E-04
  5.47405727E-06 -5.95250424E-03 -7.70377682E-03  3.64276561E-08  2.67736792E-09
  9.61835980E-02  6.43051443E-03  1.05209324E-02  1.71210126E-03 -1.94077758E-02
 -1.90431766E-02 -3.19055542E-02  1.84559486E-03 -2.78022455E-02 -2.91266121E-02
 -2.08096144E-02  5.89840462E-03 -2.16282681E-02 -1.57006142E-02 -3.68898435E-02
 -9.88610048E-04 -1.40351435E-03 -1.09584546E-02  1.94781529E-03 -4.15509531E-03
  7.22482517E-03  3.21235294E-03  5.02398236E-04  6.43053097E-03  1.05209488E-02
 -1.71204707E-03  1.94077079E-02 -1.90431217E-02 -3.19056649E-02 -1.84518308E-03
  2.78024739E-02 -2.91266466E-02 -2.08080055E-02 -5.89838066E-03  2.16276759E-02
 -1.57005751E-02 -3.68940499E-02  9.88463414E-04  1.40458268E-03 -1.09585226E-02
  1.94789079E-03  4.15491390E-03 -7.22511703E-03  3.21251729E-03  5.02313978E-04
  1.55369681E-02  2.62563137E-02  1.92264944E-02 -8.30040277E-04 -8.16909281E-04
  6.05092185E-04  3.71231477E-03  9.00151296E-03  1.03722169E-02  9.23763597E-04
 -7.98450647E-04 -4.03032545E-04  3.71219766E-03  9.00065005E-03  1.03727497E-02
 -9.23500348E-04  7.98589827E-04 -4.03106151E-04  1.55370128E-02  2.62559220E-02
  1.92266457E-02  8.29865317E-04  8.17001537E-04  6.05277475E-04 -8.92495389E-02
 -1.54926032E-01  1.00191854E-08 -2.93106137E-08  2.34737617E-02  4.99039733E-01
 -3.79384214E-04 -7.82049217E-04 -7.49811631E-03  9.29428310E-04 -4.42847218E-03
  4.98291246E-03 -1.10088242E-02  2.80641953E-03 -5.96197849E-03 -1.42160683E-02
 -5.98904810E-03 -7.10328870E-03 -1.11116756E-02  1.06559470E-01 -2.43893150E-03
  2.85481578E-02  2.92520744E-03 -1.51178863E-03  3.91434296E-03  2.06977503E-03
  8.34586110E-04  4.55309068E-04  3.79369217E-04  7.82022982E-04 -7.49819566E-03
  9.29301324E-04  4.42852479E-03 -4.98280960E-03 -1.10089635E-02  2.80638040E-03
  5.96195626E-03  1.42162877E-02 -5.98888009E-03 -7.10342833E-03  1.11118344E-02
 -1.06559911E-01 -2.43884657E-03  2.85481660E-02 -2.92527423E-03  1.51170830E-03
  3.91426348E-03  2.06972688E-03 -8.34631692E-04 -4.55433991E-04 -3.35465433E-03
 -4.37423516E-03 -9.34156655E-03 -4.61775814E-04  9.75710054E-05  6.72454186E-05
  8.72837073E-03  1.87907227E-02 -2.39107820E-03  9.57662301E-04  1.01383117E-03
  4.97022983E-04 -8.72843473E-03 -1.87911423E-02  2.39105382E-03  9.57687809E-04
  1.01383099E-03 -4.96919317E-04  3.35464214E-03  4.37395617E-03  9.34192267E-03
 -4.61873725E-04  9.75675719E-05 -6.73170708E-05  4.72085935E-09  6.93396553E-09
  1.03813929E-01 -6.02350996E-04  5.26380504E-08 -3.32971295E-09  1.61029378E-01
 -8.68708703E-04 -1.24278097E-03 -1.71876667E-03 -4.32586661E-03  1.53268443E-02
  3.71614812E-03 -1.28747995E-03 -9.74987261E-03  2.15404871E-02 -1.23060348E-02
 -3.67549114E-03 -4.63774385E-03  1.10826669E-02  4.23927958E-02 -8.35148152E-04
  7.53609279E-03  6.92560408E-03 -5.19103038E-04  4.23633959E-03 -6.77153743E-03
 -7.56349258E-04 -1.58162558E-03  8.68706095E-04  1.24277494E-03 -1.71867241E-03
 -4.32592294E-03 -1.53268112E-02 -3.71616462E-03 -1.28743813E-03 -9.74990020E-03
 -2.15404651E-02  1.23063211E-02 -3.67541923E-03 -4.63787567E-03 -1.10824273E-02
 -4.23930735E-02 -8.35169052E-04  7.53606602E-03 -6.92567202E-03  5.19110344E-04
  4.23638263E-03 -6.77153962E-03  7.56406551E-04  1.58155095E-03 -1.03279938E-02
 -1.78914174E-02 -1.28527048E-02  7.08303135E-04 -1.04063180E-03 -2.07600778E-04
 -3.43459485E-04  5.55237578E-04 -3.41615803E-03 -7.27623667E-05  4.93500940E-05
  7.33270126E-04  3.43458980E-04 -5.55255329E-04  3.41633716E-03 -7.27852882E-05
  4.94111071E-05 -7.33297969E-04  1.03279402E-02  1.78911452E-02  1.28527092E-02
  7.08273519E-04 -1.04057961E-03  2.07534227E-04  3.44119939E-10 -8.23800720E-10
 -1.10472874E-04  1.09178885E-01  2.04895865E-08  2.71977536E-09  1.14503642E-03
  1.65354725E-01 -5.59649454E-03 -8.82196572E-03 -1.61976805E-04  1.03019800E-02
  1.23476429E-02  2.73161334E-02  6.51475939E-04  1.44372281E-02  2.00182548E-02
  2.40019798E-02  3.77443884E-03  8.90849167E-03  1.35094881E-02  1.10658955E-02
  3.70008916E-03 -1.24221074E-03  3.47060688E-03 -3.10498653E-03  2.50791741E-03
 -5.66845085E-03 -2.02193235E-03 -7.17438440E-04 -5.59646319E-03 -8.82194412E-03
  1.61926518E-04 -1.03019505E-02  1.23476158E-02  2.73161461E-02 -6.51344315E-04
 -1.44371752E-02  2.00182597E-02  2.40020889E-02 -3.77452861E-03 -8.90852102E-03
  1.35093869E-02  1.10649775E-02 -3.70013308E-03  1.24248320E-03  3.47058899E-03
 -3.10495556E-03 -2.50812357E-03  5.66827508E-03 -2.02191023E-03 -7.17397798E-04
 -8.50895046E-03 -1.74366337E-02 -1.58994175E-02  4.69109875E-04  5.26230362E-04
 -5.25922932E-05 -1.73477398E-03 -3.61555788E-03 -5.31495983E-03 -3.68724101E-04
  7.07645535E-04  7.10273180E-04 -1.73462404E-03 -3.61555458E-03 -5.31472314E-03
  3.68768339E-04 -7.07585795E-04  7.10316286E-04 -8.50900340E-03 -1.74366122E-02
 -1.58994465E-02 -4.69079077E-04 -5.26227276E-04 -5.24732768E-05  6.49345062E-04
  7.96841185E-05  5.58407025E-08 -3.45247503E-09  1.35769897E-01  1.25241824E-02
  8.10035461E-08  1.84598340E-08  1.93392203E-01 -1.61572661E-03 -2.43023092E-04
  7.67126268E-03 -1.54292435E-02 -1.16235954E-02 -7.55392793E-03  1.07739963E-02
 -2.23330060E-02 -1.70900154E-02  4.19435187E-04  9.64609988E-03 -1.79145983E-02
 -4.44806311E-03 -3.07326851E-02 -1.75304911E-03 -1.42297073E-03 -9.29406227E-03
  1.56746339E-03 -3.50003328E-03  6.47257678E-03  2.13752409E-03 -5.24698857E-04
 -1.61578322E-03 -2.43087706E-04 -7.67151390E-03  1.54292243E-02 -1.16236434E-02
 -7.55390994E-03 -1.07743007E-02  2.23332908E-02 -1.70901851E-02  4.21018020E-04
 -9.64645974E-03  1.79142551E-02 -4.44786995E-03 -3.07354942E-02  1.75292940E-03
  1.42365825E-03 -9.29405883E-03  1.56756492E-03  3.49990985E-03 -6.47290188E-03
  2.13763397E-03 -5.24862344E-04  1.83179954E-02  2.88179913E-02  2.00492114E-02
 -1.00174723E-03 -3.64560311E-04  1.03340205E-03  5.95794716E-04  1.82660410E-03
  4.34601306E-03  8.78157011E-04 -8.83366294E-04 -2.97776936E-04  5.95528647E-04
  1.82578933E-03  4.34635111E-03 -8.77998927E-04  8.83429079E-04 -2.97786193E-04
  1.83182623E-02  2.88178099E-02  2.00495045E-02  1.00156623E-03  3.64586278E-04
  1.03343612E-03 -6.89923919E-02 -9.93476650E-02 -2.62949527E-08  9.75638480E-08
 -2.10097326E-03  2.64996998E-01 -5.03191181E-08  1.77626225E-07 -1.05640273E-02
  1.86288422E-01 -8.52197380E-04 -9.73294934E-04 -4.81839653E-03 -7.87465915E-04
 -1.11731566E-03  2.89214197E-03 -6.92808767E-03 -1.09315542E-03 -1.74626688E-03
 -7.12469135E-03 -4.05612906E-03 -6.31414491E-03 -2.61646457E-03  6.88776819E-02
 -1.67554372E-03  1.82585258E-02  3.33864152E-03 -1.55305379E-03  2.43660534E-03
 -1.42335576E-05  2.57776188E-04 -2.43753829E-05  8.52181245E-04  9.73271143E-04
 -4.81842890E-03 -7.87537975E-04  1.11735988E-03 -2.89206204E-03 -6.92813834E-03
 -1.09318446E-03  1.74628066E-03  7.12472205E-03 -4.05597180E-03 -6.31425688E-03
  2.61653953E-03 -6.88778925E-02 -1.67548440E-03  1.82585326E-02 -3.33867557E-03
  1.55300293E-03  2.43653104E-03 -1.42662602E-05 -2.57814673E-04  2.42963869E-05
 -2.99286856E-03 -4.73884345E-03 -6.22701579E-03 -1.57248680E-04 -1.48112267E-04
 -1.17611926E-05  5.21562918E-03  1.04936310E-02 -2.17740636E-03  5.25426439E-04
  5.12400206E-04  3.65302995E-04 -5.21567169E-03 -1.04938751E-02  2.17738273E-03
  5.25441653E-04  5.12395327E-04 -3.65237508E-04  2.99285081E-03  4.73873639E-03
  6.22718977E-03 -1.57299659E-04 -1.48121328E-04  1.17294929E-05  2.53243401E-08
  3.79763665E-08  6.20956758E-02  1.15963005E-02 -1.77091417E-08 -1.00032271E-07
  9.64058669E-02  1.87679439E-02 -1.56833106E-08 -8.51191950E-08  6.20310180E-02
  7.00864362E-04  8.51444188E-04 -2.56542848E-03  2.84888913E-03  6.91661786E-03
 -1.81109026E-03 -3.83734200E-03  4.81056495E-03  1.12799916E-02 -7.30799065E-03
 -4.59979029E-03  6.84482785E-03 -3.17794624E-04  1.57251163E-02 -6.78379781E-04
  1.65330994E-03  2.11142153E-03  2.85206043E-03  1.08109077E-03 -2.08953532E-04
 -5.73729926E-05  3.02059930E-04 -7.00874251E-04 -8.51471382E-04 -2.56539274E-03
  2.84880084E-03 -6.91664412E-03  1.81115507E-03 -3.83739540E-03  4.81051088E-03
 -1.12800738E-02  7.30868896E-03 -4.59998614E-03  6.84486180E-03  3.17916172E-04
 -1.57254413E-02 -6.78415811E-04  1.65332613E-03 -2.11149021E-03 -2.85203979E-03
  1.08117901E-03 -2.08935303E-04  5.74195821E-05 -3.02125032E-04 -5.76003101E-03
 -6.21312835E-03 -1.03528462E-03  2.88171310E-04 -3.99139965E-05 -1.77500347E-04
 -9.44029726E-04 -6.44397241E-04 -3.04088718E-03 -6.29496834E-05  2.54065613E-04
  2.09108599E-04  9.44043820E-04  6.44367069E-04  3.04103683E-03 -6.29750691E-05
  2.54119941E-04 -2.09131837E-04  5.76002623E-03  6.21263846E-03  1.03539351E-03
  2.88115728E-04 -3.98768098E-05  1.77404903E-04 -1.55528362E-08 -8.46694842E-09
  9.19093203E-03  2.49372166E-02  2.65626906E-08 -3.69846497E-08  1.43125750E-02
  3.75912924E-02  3.41531944E-08  8.09363426E-08  4.76993244E-03  4.10728955E-02
 -6.34396298E-03 -7.84333500E-03  2.42638671E-03  8.99067551E-03  4.68525596E-04
  1.64269476E-02  3.23264483E-03  1.29957640E-02  3.34954834E-04  7.92807801E-03
  1.72163778E-03  1.13109261E-02 -3.19829638E-03  7.67114348E-03  3.14836248E-03
 -6.84522866E-04  2.01526823E-03 -2.40821228E-03  6.57547680E-04 -6.14415851E-03
 -1.90990205E-03 -1.01852964E-03 -6.34404154E-03 -7.84337731E-03 -2.42624735E-03
 -8.99067572E-03  4.68519225E-04  1.64267773E-02 -3.23236100E-03 -1.29957699E-02
  3.35011110E-04  7.92828826E-03 -1.72153503E-03 -1.13110347E-02 -3.19800337E-03
  7.66986005E-03 -3.14837494E-03  6.84889969E-04  2.01525268E-03 -2.40816679E-03
 -6.57607456E-04  6.14403529E-03 -1.90993401E-03 -1.01850557E-03 -1.88189511E-03
 -5.43253211E-03 -9.49375759E-03 -9.07710864E-05  9.38689771E-04 -7.95826745E-05
 -3.89561475E-03 -8.33933048E-03 -9.26703291E-03 -4.30196784E-04  4.20125769E-04
 -8.37758065E-05 -3.89551455E-03 -8.33932881E-03 -9.26691124E-03  4.30210125E-04
 -4.20123505E-04 -8.37239936E-05 -1.88203011E-03 -5.43251617E-03 -9.49360946E-03
  9.07959635E-05 -9.38722306E-04 -7.95652614E-05  1.78163133E-02  2.33131023E-02
  1.16627265E-07 -2.34604925E-10  5.34238632E-02 -4.73494471E-02  1.87413592E-07
  2.59646813E-08  8.13936031E-02 -3.50036460E-02  1.19671141E-07 -5.70685774E-08
  6.95353072E-02 -2.38936746E-03 -3.52892997E-03  1.56743587E-02  2.07533108E-02
  2.45820417E-03  8.96430018E-03  2.25728298E-02  3.14705386E-02  4.31128017E-03
  4.53538899E-03  1.59526216E-02  1.82181661E-02  2.76210218E-03 -1.99485378E-02
  4.09708195E-04  1.83891212E-04 -6.07703272E-03  1.78437240E-03 -1.32580254E-03
  2.42551010E-03 -2.83802535E-03 -2.18774598E-03 -2.38952920E-03 -3.52909764E-03
 -1.56751342E-02 -2.07531464E-02  2.45797446E-03  8.96443799E-03 -2.25739809E-02
 -3.14701461E-02  4.31089096E-03  4.53616602E-03 -1.59534390E-02 -1.82180511E-02
  2.76227361E-03 -1.99492778E-02 -4.09796725E-04 -1.83699612E-04 -6.07689291E-03
  1.78440660E-03  1.32582915E-03 -2.42561442E-03 -2.83804025E-03 -2.18780204E-03
  5.20466854E-03  9.00881955E-03  8.37987228E-03  4.64371774E-04  1.29917177E-03
  6.06722642E-04 -1.82874993E-02 -2.63781008E-02 -1.06259782E-02 -1.00461060E-03
  1.54253392E-04 -2.21050514E-04 -1.82879043E-02 -2.63788453E-02 -1.06260498E-02
  1.00466556E-03 -1.54218581E-04 -2.21051285E-04  5.20518380E-03  9.00930982E-03
  8.38026490E-03 -4.64445019E-04 -1.29919218E-03  6.06738107E-04 -3.66061460E-02
 -4.40302059E-02  1.23796111E-07  1.45409244E-07 -7.96921400E-03  8.39466644E-02
  1.97529065E-07  2.39821836E-07 -1.28567766E-02  6.14884580E-02  5.27352860E-08
  3.53861517E-07 -8.75054333E-03  3.72041805E-02  4.07163691E-04  6.23252333E-04
  7.86917545E-04 -2.39077437E-04 -1.04911808E-03 -1.53532358E-03  1.13975475E-03
 -5.10080505E-04 -1.80162568E-03 -2.84046614E-03  7.09430076E-04 -1.88225221E-03
 -6.50793864E-04  1.80372840E-02 -3.38699570E-04  4.62358184E-03  1.45104952E-03
 -5.42446108E-04  2.61985161E-04 -1.65624600E-04 -1.12403700E-04 -5.46263667E-05
 -4.07148577E-04 -6.23232009E-04  7.86930310E-04 -2.38994801E-04  1.04907001E-03
  1.53528100E-03  1.13977831E-03 -5.09937878E-04  1.80153691E-03  2.84042825E-03
  7.09488107E-04 -1.88219226E-03  6.50737115E-04 -1.80372431E-02 -3.38690429E-04
  4.62358500E-03 -1.45103563E-03  5.42424306E-04  2.61975969E-04 -1.65618119E-04
  1.12407669E-04  5.46076497E-05  4.56677695E-04  4.26299164E-04 -2.83549812E-04
 -3.03034387E-05  2.11675803E-05  7.87600765E-07 -4.63078766E-04 -5.74452051E-05
 -1.33852997E-03 -3.62758823E-05 -2.88366467E-05 -1.88891248E-05  4.63116091E-04
  5.74432265E-05  1.33851528E-03 -3.62785242E-05 -2.88340068E-05  1.88988665E-05
 -4.56639211E-04 -4.26253006E-04  2.83594335E-04 -3.03077919E-05  2.11671435E-05
 -7.94101568E-07  2.36008017E-08  2.83221454E-08  1.46284359E-02  3.25478537E-03
  4.71858801E-09 -4.81775493E-08  2.26797184E-02  5.06643343E-03  9.06031636E-09
 -6.08047789E-08  1.48900473E-02  7.00562927E-04  5.99987911E-08 -5.84359072E-08
  3.86597221E-03 -4.09416549E-03 -4.93105980E-03  2.60294003E-03 -5.27242835E-05
  4.39487218E-03  8.91041839E-03  3.77766032E-03  3.94110674E-04  7.82516213E-03
  5.79793751E-03  1.42550728E-03  2.78349241E-03  2.20577035E-03  1.20173449E-02
 -6.24061722E-05  1.82771482E-03  1.82882922E-03  2.34155806E-03  2.85739145E-05
  3.66428255E-05  1.59066915E-04  2.78298632E-04  4.09417541E-03  4.93107288E-03
  2.60289216E-03 -5.27091490E-05 -4.39490254E-03 -8.91046282E-03  3.77755752E-03
  3.94167412E-04 -7.82523305E-03 -5.79770595E-03  1.42537641E-03  2.78356688E-03
 -2.20576684E-03 -1.20174527E-02 -6.24143413E-05  1.82772748E-03 -1.82885068E-03
 -2.34155719E-03  2.86021952E-05  3.66515532E-05 -1.59041844E-04 -2.78341563E-04
  1.34993284E-03  2.69167972E-03  1.64253246E-03 -2.09315606E-04  3.17368798E-04
  3.86105547E-04 -1.34221519E-03 -1.91057912E-03 -2.79090717E-03  1.92010812E-04
  1.17014220E-05  1.57067523E-04  1.34218725E-03  1.91052539E-03  2.79093666E-03
  1.92003768E-04  1.17259170E-05 -1.57073016E-04 -1.34986865E-03 -2.69180276E-03
 -1.64243828E-03 -2.09330162E-04  3.17378112E-04 -3.86149956E-04 -1.64142239E-08
 -2.16565582E-08  4.94732808E-03  7.29261454E-03  1.67444557E-08  5.13847696E-08
  7.46537718E-03  1.11120450E-02  2.71030296E-08  6.91614871E-08  2.77659552E-03
  1.55745366E-02  2.84271066E-09  1.31123486E-07  4.03330183E-04  7.43050530E-03
  2.60962294E-03  3.55568600E-03 -6.99822980E-03 -7.49389409E-03 -5.01672141E-03
 -7.78086706E-03 -1.03702180E-02 -1.15460415E-02 -8.37376677E-03 -4.87425959E-03
 -6.92213689E-03 -6.01335078E-03 -5.70130489E-03  1.07017589E-02  3.46678490E-04
  5.71528948E-05  3.11057199E-03 -1.72566894E-03  8.69170339E-05 -1.94091435E-03
  1.13358134E-03  9.11942212E-04  2.60968749E-03  3.55576045E-03  6.99851476E-03
  7.49381107E-03 -5.01665098E-03 -7.78095909E-03  1.03706693E-02  1.15458226E-02
 -8.37362853E-03 -4.87470150E-03  6.92246248E-03  6.01327894E-03 -5.70141967E-03
  1.07019555E-02 -3.46644443E-04 -5.72029652E-05  3.11048175E-03 -1.72569091E-03
 -8.69234825E-05  1.94096241E-03  1.13358090E-03  9.11990164E-04 -2.07447693E-03
 -3.98176727E-03 -4.59476759E-03 -1.76531749E-04 -4.16892799E-04 -4.89230913E-04
  7.19166424E-03  9.94108207E-03  3.07246164E-03  2.13648896E-04 -3.73229837E-05
 -1.14409891E-04  7.19179718E-03  9.94136999E-03  3.07248256E-03 -2.13664145E-04
  3.73165032E-05 -1.14410978E-04 -2.07466696E-03 -3.98187361E-03 -4.59493226E-03
  1.76582913E-04  4.16894956E-04 -4.89221462E-04  1.59241607E-02  1.90825895E-02
 -4.73541198E-08 -5.55463788E-08  8.02563207E-03 -3.61686389E-02 -7.44632030E-08
 -9.07833070E-08  1.16312534E-02 -3.43007215E-02 -6.38008955E-09 -1.80378084E-07
  9.59474452E-03 -1.93533483E-02  3.99569562E-08 -6.93507182E-08  1.21616250E-02
 -1.67966726E-03 -2.74819986E-03  1.79276134E-03 -4.70514696E-04  9.31889768E-03
  7.72324645E-03  3.06471284E-03 -3.70500341E-04  1.53936852E-02  4.93910387E-03
  1.67843601E-03 -1.34536040E-03  8.99513455E-03 -2.68533997E-03 -7.07024502E-04
 -2.96840730E-04 -5.48187225E-04  2.10632443E-03  6.75038390E-04  1.05193826E-03
 -3.79896315E-04 -1.88861426E-04 -1.67966398E-03 -2.74819985E-03 -1.79279171E-03
  4.70533938E-04  9.31890861E-03  7.72324069E-03 -3.06473588E-03  3.70557310E-04
  1.53936812E-02  4.93942037E-03 -1.67846909E-03  1.34529924E-03  8.99521414E-03
 -2.68532838E-03  7.07024720E-04  2.96853779E-04 -5.48103245E-04  2.10633451E-03
 -6.75006456E-04 -1.05193540E-03 -3.79888796E-04 -1.88856816E-04 -1.12938460E-03
 -7.70013321E-04  1.45730114E-03  9.85027369E-05 -1.37386529E-04  4.73706035E-04
 -1.46710252E-03 -1.46136522E-03 -1.95703402E-04  2.13544388E-04 -3.37402946E-05
  4.57441542E-04 -1.46710911E-03 -1.46149603E-03 -1.95753324E-04 -2.13534676E-04
  3.37555588E-05  4.57425283E-04 -1.12936630E-03 -7.70030629E-04  1.45742097E-03
 -9.85266860E-05  1.37401667E-04  4.73715879E-04 -2.72716370E-03 -6.05530601E-03
  1.43923376E-08  1.59661644E-09  7.93348049E-03  2.27248202E-02  2.33262747E-08
  7.47581959E-09  9.63300698E-03  1.36176959E-02 -4.03960018E-09  3.38954365E-09
 -7.50686177E-03  5.12715795E-03 -2.06275495E-08 -1.15521752E-08 -4.35370078E-03
  7.04206821E-03 -8.87689844E-05 -1.45944697E-04  4.71806454E-04 -1.27532237E-03
  1.53087082E-03 -5.54267651E-04  3.59496043E-04 -2.55166436E-03  2.19494340E-03
  1.19998890E-02 -1.22330057E-03  5.00942434E-04  9.36809185E-03  8.94555974E-03
 -8.29601057E-04  1.23802225E-03  4.98807251E-03  3.86929410E-04 -2.09627793E-03
 -9.98946281E-04 -5.53614277E-04  7.32854712E-05  8.87536067E-05  1.45919847E-04
  4.71791444E-04 -1.27531359E-03 -1.53080680E-03  5.54347909E-04  3.59476694E-04
 -2.55166197E-03 -2.19482375E-03 -1.19997813E-02 -1.22340443E-03  5.01026548E-04
 -9.36812765E-03 -8.94547835E-03 -8.29586337E-04  1.23806740E-03 -4.98807533E-03
 -3.86920236E-04 -2.09633139E-03 -9.98968952E-04  5.53586080E-04 -7.33236086E-05
  1.08077717E-03  2.13639479E-03  7.52524874E-03  7.24933556E-05 -1.89632492E-05
 -7.19599893E-05 -1.79168403E-03 -6.44603811E-03 -4.90916795E-03 -1.91041696E-04
 -3.79928434E-04 -1.27510600E-04  1.79165465E-03  6.44603734E-03  4.90915968E-03
 -1.91054373E-04 -3.79931892E-04  1.27518650E-04 -1.08076759E-03 -2.13640004E-03
 -7.52527221E-03  7.24941627E-05 -1.89860636E-05  7.19593169E-05 -1.11111551E-08
 -2.06781961E-08  5.67502178E-03  3.48060642E-03 -2.95357250E-09  6.15895040E-08
  8.28955837E-03  4.71390347E-03 -3.20375262E-09  4.83459615E-08  7.96076603E-03
 -1.83185624E-03 -1.11813151E-07 -6.19410787E-08  2.52724914E-03  6.85753365E-04
  1.59581131E-08 -9.71600283E-09  8.69186919E-03 -3.60333255E-05 -1.41736281E-04
 -2.01749333E-04  2.26701335E-03 -7.12430921E-04  1.17226575E-04 -7.14803447E-04
  4.51693834E-03 -8.91303319E-05  1.66041927E-03 -1.39359184E-03  5.87654139E-03
 -3.71208613E-03 -1.55356067E-03 -2.00611336E-04 -1.51890122E-03  4.74486091E-05
  1.94520455E-03 -8.54683380E-04  1.67589438E-03  2.10271575E-04  6.00936057E-04
  3.60348222E-05  1.41734581E-04 -2.01740893E-04  2.26701225E-03  7.12428397E-04
 -1.17237864E-04 -7.14846017E-04  4.51697522E-03  8.91064658E-05 -1.66001038E-03
 -1.39377232E-03  5.87665457E-03  3.71212583E-03  1.55343283E-03 -2.00634457E-04
 -1.51888229E-03 -4.74728437E-05 -1.94518241E-03 -8.54631273E-04  1.67590548E-03
 -2.10242781E-04 -6.00960973E-04  1.03518695E-03  3.41088168E-03  4.35944201E-03
 -1.45864601E-04  3.27994675E-04 -2.44532466E-05 -4.95450774E-04 -1.19324393E-03
 -1.64938578E-03  2.72564774E-05  7.14421063E-05 -1.48989803E-04  4.95482662E-04
  1.19327272E-03  1.64946697E-03  2.72386911E-05  7.14676393E-05  1.48976406E-04
 -1.03518893E-03 -3.41117782E-03 -4.35937077E-03 -1.45894572E-04  3.28014454E-04
  2.44001083E-05  1.38817036E-09  3.10776078E-09  3.45161060E-03 -8.77494827E-03
 -1.77380827E-08 -2.06710543E-08  5.05537303E-03 -1.36797891E-02 -2.64079473E-08
  2.80857543E-08 -4.04989706E-03  1.96785931E-02 -9.18867007E-08  1.71248270E-07
 -1.29597043E-03  8.30288170E-03 -1.05247295E-07  2.37374468E-09 -2.15277861E-03
  1.74889520E-02 -6.81039951E-04 -1.06869022E-03 -1.99210671E-04 -1.58958496E-03
  3.66164213E-03  2.83127084E-03  2.22318597E-04 -2.43608380E-03  5.91665491E-03
  3.15144247E-03  8.35320539E-04 -2.09613704E-03  4.60639903E-03  1.47025437E-03
  4.76679456E-04 -8.11434023E-05  5.85535514E-04  2.12642086E-04  1.20942894E-03
  4.22578819E-04  3.33170439E-04 -2.67075767E-05 -6.81045701E-04 -1.06870109E-03
  1.99212541E-04  1.58959169E-03  3.66165052E-03  2.83131185E-03 -2.22325196E-04
  2.43608999E-03  5.91667121E-03  3.15143762E-03 -8.35307288E-04  2.09617881E-03
  4.60636275E-03  1.47047937E-03 -4.76666470E-04  8.10974872E-05  5.85554193E-04
  2.12651981E-04 -1.20942371E-03 -4.22574702E-04  3.33165230E-04 -2.67145781E-05
 -1.23575200E-03 -2.59808063E-03 -1.96133969E-03  5.14016122E-05 -1.90858169E-04
  7.27792693E-05  1.41604857E-03  3.14629822E-03  3.31368134E-03  1.46595134E-04
  2.05003061E-05  2.06380549E-04  1.41605701E-03  3.14630528E-03  3.31363959E-03
 -1.46609293E-04 -2.05043678E-05  2.06379004E-04 -1.23574125E-03 -2.59806850E-03
 -1.96131064E-03 -5.13963715E-05  1.90859805E-04  7.27790491E-05  2.14706070E-03
  3.73744074E-03  1.28423885E-08  8.55258068E-09  5.36827628E-03 -1.16145990E-02
  1.99070859E-08  1.26487430E-08  8.05760388E-03 -3.51234521E-03  9.98950449E-09
 -1.40741832E-11 -6.79920248E-04 -2.58057010E-03 -5.75294882E-09 -7.06481686E-09
 -2.62125100E-04  2.09982954E-03  4.83202634E-09 -5.38513131E-10  2.76719578E-03
 -7.95356339E-04 -1.27521067E-03  1.37683184E-03 -3.59051631E-05  2.66775262E-03
  3.93954861E-03  1.59384665E-03  8.37768959E-05  4.56554526E-03  2.18200880E-03
 -4.93310275E-04  2.99327481E-04  1.70746381E-03 -8.46572165E-04 -1.32724459E-03
 -2.32027191E-04 -3.05223178E-04  9.04798618E-04 -1.22905933E-03 -4.83895544E-04
 -6.79288472E-04 -1.21176289E-04 -7.95345061E-04 -1.27519130E-03 -1.37682993E-03
  3.59104189E-05  2.66773676E-03  3.93946913E-03 -1.59383919E-03 -8.37519102E-05
  4.56550251E-03  2.18216998E-03  4.93279650E-04 -2.99403711E-04  1.70757111E-03
 -8.46758718E-04  1.32723146E-03  2.32064762E-04 -3.05194858E-04  9.04784456E-04
  1.22906812E-03  4.83890419E-04 -6.79279384E-04 -1.21169104E-04  1.06935305E-03
  2.96726182E-03  3.40408297E-03 -5.90736297E-05  1.07206759E-04  2.63315921E-04
 -2.37561706E-03 -5.21081241E-03 -5.86222342E-03 -2.31185802E-05 -1.47273569E-04
  8.15254376E-05 -2.37561058E-03 -5.21084677E-03 -5.86219181E-03  2.31329646E-05
  1.47282044E-04  8.15273404E-05  1.06933662E-03  2.96720929E-03  3.40409954E-03
  5.90533515E-05 -1.07203928E-04  2.63305436E-04  1.25808812E-03  2.11522499E-03
  1.30377262E-08 -1.45273997E-08  2.86014794E-03 -6.24538729E-03  2.04958438E-08
 -2.03236781E-08  4.15274046E-03 -1.37545193E-03  4.17917517E-09  1.09396148E-08
  1.84406789E-03 -1.57161455E-04  3.58465131E-09  7.64986242E-09  5.07311249E-05
  9.82543640E-04 -4.02160452E-09  9.55758465E-09 -7.66003384E-04  3.29548104E-03
 -2.82984977E-04 -3.84258003E-04 -6.81048506E-04  1.00010802E-03  1.17297325E-03
  1.05088247E-03 -6.76665526E-04  7.17721071E-04  2.39062291E-03 -7.50495303E-03
  4.23047772E-04 -5.41386059E-03  1.06477631E-03  3.60006974E-02 -1.30634433E-03
  8.22776302E-03  4.68437824E-03  9.54517345E-04  6.60023957E-05  1.71461547E-04
 -3.62016775E-05  3.58900942E-05  1.15431473E-03  1.50072608E-03  1.70385350E-03
 -1.35056058E-03 -8.57701956E-03 -2.36957236E-03  2.74691566E-03 -1.60786429E-03
 -1.33573342E-02  2.52364397E-02 -1.71877472E-03 -2.34822921E-03  3.66451694E-03
 -3.67485922E-02  1.39395930E-03  7.19973196E-03 -5.26588445E-03 -3.93693478E-03
  2.22005373E-03 -3.30371234E-03  7.10331175E-04  7.40715127E-04 -9.03499457E-04
 -6.49473104E-04 -3.36393126E-04  1.62501991E-04  7.05356664E-05  6.58977952E-05
  1.60438419E-04  1.79608849E-03 -1.47431623E-03  1.45485279E-04  2.40797233E-04
  1.67357962E-04  2.68621982E-03  9.12930250E-04  3.32946114E-03  4.57160041E-04
  2.64793090E-04 -4.86162612E-04  3.51431084E-03  1.71276949E-03  4.56874568E-03
 -2.08390501E-04  2.89865082E-04 -7.58058894E-04  2.30340126E-03  3.33325279E-03
  2.12450443E-03 -7.27365960E-03  4.95772951E-03 -6.31493086E-03  3.34885642E-03
 -1.09414990E-02  6.98401793E-03  1.36397154E-02 -2.18086350E-03  7.80360992E-03
 -1.51243583E-02 -4.95354519E-03  5.31912450E-04  2.57822020E-03 -5.24798349E-04
  3.00150354E-03 -1.83969806E-03  6.31953265E-03  2.87230341E-03  1.77765875E-03
  6.39235823E-01 -4.58083128E-04 -6.35040836E-04 -1.10985850E-03  1.65515369E-03
  1.96599689E-03  1.61705817E-03 -1.22932214E-03  1.34849741E-03  3.79990933E-03
 -1.04923007E-02  1.53643104E-05 -7.08119728E-03  2.00281268E-03  4.76292478E-02
 -2.00959544E-03  1.09290968E-02  6.06178861E-03  1.37385562E-03  1.32176807E-04
  3.25219715E-04 -5.68342403E-05  1.02186933E-04  1.64377447E-03  2.19694237E-03
  2.74532348E-03 -2.17555731E-03 -1.37700845E-02 -3.18140734E-03  4.40211495E-03
 -2.78997911E-03 -2.15023426E-02  3.57810663E-02 -1.99317936E-03 -2.87976732E-03
  4.74237179E-03 -5.03040933E-02  2.07694608E-03  9.76171667E-03 -7.28146855E-03
 -6.23081216E-03  3.49090835E-03 -5.22485101E-03  1.06081577E-03  1.15292333E-03
 -1.47455430E-03 -1.07076912E-03 -1.24607212E-04  2.22570614E-04  4.91408656E-05
  7.17380517E-05  2.54837554E-04  2.35896387E-03 -1.87322697E-03  1.84608009E-04
  3.33029544E-04  2.11383074E-04  4.39540141E-03  2.33859491E-03  4.92245612E-03
  5.48416256E-04  3.38293805E-04 -6.43065862E-04  5.68132441E-03  4.01965854E-03
  7.27539463E-03 -2.24431741E-04  3.47375315E-04 -9.67898034E-04  3.52999978E-03
  5.14362454E-03  3.41603935E-03 -1.16939394E-02  7.91263515E-03 -9.73230628E-03
  5.25350915E-03 -1.73662406E-02  1.10605136E-02  1.98861095E-02 -2.85612377E-03
  1.07257615E-02 -2.15553457E-02 -5.52672800E-03  7.83484473E-04  3.42610889E-03
 -1.53554977E-03  4.65941376E-03 -2.91143876E-03  9.90104331E-03  4.59965630E-03
  2.85196446E-03  5.68196770E-01  5.21970740E-01 -2.22228898E-04 -4.74690023E-04
 -6.65799838E-04 -6.37457286E-04 -1.89669932E-03  6.43670062E-03 -2.39827845E-03
  1.61995322E-04 -2.58818322E-03 -4.43212804E-02 -6.32759738E-03 -1.08349840E-02
 -2.75418011E-02  2.08225522E-02 -7.15629776E-03  1.02607595E-02 -1.29276920E-02
 -5.00179465E-04  2.83966336E-06 -1.12862611E-03 -1.92699171E-03 -6.45287507E-04
 -3.66339435E-03 -5.84161614E-03 -4.50461658E-03  1.89385880E-03  1.32662137E-02
  1.40305446E-02 -2.51731406E-03  1.97881981E-03  2.33565951E-02  4.80366061E-02
  1.20189037E-02 -1.30669988E-02  2.71305099E-02 -3.93638451E-02  9.54846840E-03
  1.20301113E-02  6.69530584E-03  9.39694031E-03  1.57591252E-02  2.32677800E-03
 -4.21085831E-03  1.45986325E-03  1.18305999E-03  6.68914296E-03 -7.19959476E-03
 -5.70227700E-04  4.07449008E-05  9.99901963E-04 -1.53355183E-03  8.33987925E-04
 -1.64951717E-02  6.00833531E-04  4.27856350E-04  5.84377995E-04 -1.54719362E-02
 -4.48772111E-02 -4.07881704E-02  5.01667870E-04  1.77213839E-03 -3.05825078E-04
  1.02734116E-02  2.79643136E-02  4.77207208E-02  3.18867262E-04 -8.51086170E-04
  1.08851824E-03 -4.80100658E-03 -7.71786137E-03  2.31280497E-02  1.90444187E-02
 -9.77644865E-03  2.26480189E-02  3.78207703E-02  3.09308664E-02 -1.56579304E-02
  1.82460572E-02  2.48096573E-02 -1.57540263E-03 -4.12520765E-03  9.16732218E-03
  5.32267881E-03 -5.90356914E-03 -2.81721902E-03  2.12055804E-03 -1.61851377E-02
 -1.11686411E-02 -9.55472965E-03  1.57094184E-02  3.85374988E-03  5.95634779E-03
  1.67803566E-01 -5.04290045E-03 -8.39077471E-03 -4.68358162E-04  1.35626936E-02
  2.58164351E-03  2.91959505E-02 -1.75652078E-03  2.40809243E-02  7.34402663E-03
  1.14597031E-02  3.13577290E-04  2.07281667E-02 -1.41756992E-02  4.30526092E-03
  2.58998165E-03  4.61932167E-05 -5.80623179E-03  2.35793836E-03  1.21073958E-03
 -9.48372301E-04  3.41918035E-04  1.63528512E-03  4.82409788E-03  7.70827304E-03
  3.49196427E-03 -2.55865543E-03 -1.57697491E-02 -2.24738570E-02  6.17034161E-03
  1.43211495E-03 -2.97789615E-02 -9.97221287E-03  7.74227995E-03 -5.08623948E-04
 -5.64664684E-03  2.13559954E-02 -2.87415738E-04  8.76568447E-05  1.25192714E-02
 -9.53155949E-03  3.94049421E-03  1.16115061E-02 -3.55740051E-03 -1.95545761E-03
 -3.26561658E-03 -3.67572487E-03 -1.41172018E-02 -5.17339228E-04  1.81752899E-03
  6.59377053E-04 -2.04228786E-04  1.86290903E-03 -7.41863789E-03  2.37672794E-04
  1.25167424E-03  4.49395189E-04 -4.52215132E-03 -1.71922438E-02 -1.56952913E-02
  1.66221948E-03  6.45232492E-04 -1.29837430E-03 -1.95055716E-03 -7.11814242E-03
 -8.22237483E-04 -5.89872072E-04  2.63219490E-04 -1.91672924E-03  1.79420556E-02
  2.86825244E-02  1.87198346E-02 -4.11579384E-02  3.78077546E-02 -8.17368324E-02
  2.84934542E-02 -5.99901372E-02  5.79464522E-02 -6.33037495E-02  3.22122375E-03
  1.19395185E-02  5.49491670E-02 -2.29330154E-02 -2.72042470E-03  1.00263596E-02
  1.83645180E-02 -1.10946843E-02 -1.03690213E-02  2.10539927E-02 -2.80834975E-03
  4.03968520E-03 -1.03936764E-02 -1.62056565E-02  7.37046003E-03  1.47991165E-01
 -2.13238735E-03 -3.44600150E-03 -2.45830979E-03  1.19380076E-02  8.61137455E-04
  1.22657060E-02 -3.64884731E-03  1.66590490E-02  6.26743188E-04 -3.32160590E-03
 -1.12283059E-03  1.28410776E-02 -2.71485961E-03  3.18929093E-02  1.28576226E-03
  9.29478250E-03  2.87255680E-03  9.59278649E-04  1.17708747E-03 -5.08379105E-03
  3.75888003E-04  1.08822443E-03  1.46492534E-02  2.32251449E-02  1.41696359E-02
 -1.85982325E-02 -6.63299924E-02 -6.53771573E-02  2.35558931E-02 -2.71543798E-02
 -1.07920821E-01 -2.41610865E-02  1.11990885E-02 -1.53390691E-02 -5.31861055E-02
 -3.80907088E-02  4.69803833E-04  6.03966375E-03 -6.12450381E-03 -1.55659596E-02
  8.17676274E-03 -5.12490341E-03  6.83766679E-05  1.79873047E-03 -7.89610273E-03
 -1.29329212E-02 -1.51882565E-02  4.18925250E-04  8.69732809E-04 -2.01001613E-05
 -5.84243617E-04  1.27000353E-03 -1.90621562E-03 -1.39762480E-04  1.13241894E-03
  3.01593704E-04  6.43036569E-03  4.11740397E-03  5.15532394E-03  1.88621533E-03
 -2.76266812E-04 -3.26761172E-03  8.62752341E-03  1.05837841E-02  1.06182595E-02
 -1.36256144E-04 -5.57225998E-04 -3.72791554E-03 -1.07128814E-02 -1.69543329E-02
 -6.71355483E-03  3.37326321E-02 -1.84857106E-02  5.01594816E-02 -1.06121194E-02
  5.36879057E-02 -2.78239517E-02  1.84210527E-02  7.21891825E-04  7.20100092E-03
 -2.28659284E-03  5.20354363E-03 -1.08968789E-03  7.02670072E-03  4.34007378E-03
 -1.30534903E-02  1.50462538E-03 -9.33916689E-03 -8.46149547E-03 -3.72300862E-03
 -4.00306340E-03 -6.19623461E-03  3.27743643E-03  1.25456727E-02  1.18138366E-01
  1.65071703E-03  2.33887952E-03  3.67882368E-03 -6.24467406E-03 -6.48597660E-03
 -5.33235309E-03  4.62931359E-03 -6.51494109E-03 -1.17061874E-02  2.46294373E-02
  2.79701098E-03  1.42335508E-02 -7.68896843E-03 -1.03196162E-01  5.83860670E-03
 -2.38848354E-02 -1.27914911E-02 -3.56222468E-03 -3.49475083E-04 -1.22938734E-03
  4.09279143E-04 -5.19177622E-04 -2.44381514E-03 -3.33665062E-03 -8.16948474E-03
  6.77641154E-03  4.01608984E-02  1.39253506E-03 -1.29298266E-02  9.58022494E-03
  6.26433258E-02 -9.18400244E-02  3.15471426E-03  5.50205647E-03 -1.00031131E-02
  1.17149300E-01 -5.69234759E-03 -2.21219236E-02  1.76789372E-02  1.78069825E-02
 -9.85959834E-03  1.52379190E-02 -2.80271679E-03 -3.30039691E-03  4.88256154E-03
  3.73044025E-03 -1.52065892E-03 -5.59706103E-04  5.00939912E-05 -7.60364393E-05
 -6.31687907E-04 -4.71726571E-03  4.04565058E-03 -3.71944041E-04 -8.42426799E-04
 -4.36292261E-04 -1.42344983E-02 -1.13723846E-02 -1.32117028E-02 -7.64221773E-04
 -5.76556208E-04  1.35390398E-03 -1.75782283E-02 -1.70691286E-02 -2.08579192E-02
  1.36326714E-04 -5.23703816E-04  1.86020810E-03 -8.66611203E-03 -1.29635106E-02
 -9.53161739E-03  3.36929210E-02 -2.20576657E-02  2.43199545E-02 -1.41980443E-02
  4.93448325E-02 -3.04534416E-02 -5.37634650E-02  6.70603042E-03 -2.62962099E-02
  5.51545378E-02  6.83423387E-03 -1.97548740E-03 -7.88419576E-03  7.63999029E-03
 -1.35371319E-02  8.19931820E-03 -2.86503442E-02 -1.34024222E-02 -8.39427036E-03
 -1.31840519E-01 -2.23318508E-01 -1.64313121E-02  4.80041646E-02  1.82711454E-02
  6.93130711E-01 -3.89246019E-04 -7.31648526E-04 -1.03912735E-03 -1.15935192E-03
 -2.95023077E-03  9.32306067E-03 -3.61107747E-03 -6.21557926E-05 -4.05772465E-03
 -6.50855780E-02 -9.43370105E-03 -1.60091234E-02 -4.06480531E-02  3.08688912E-02
 -1.05259205E-02  1.50824600E-02 -1.89338519E-02 -7.62407875E-04  5.39433681E-06
 -1.62829137E-03 -2.80012421E-03 -8.68498171E-04 -5.55861209E-03 -8.78626328E-03
 -5.83023745E-03  3.09550514E-03  1.99689713E-02  2.09156104E-02 -2.58446933E-03
  3.38479583E-03  3.50445357E-02  7.02858224E-02  1.84813259E-02 -1.88985958E-02
  4.01055704E-02 -5.77276456E-02  1.40552502E-02  1.76966305E-02  9.91713677E-03
  1.38792168E-02  2.30120165E-02  3.54891127E-03 -6.15287633E-03  2.18703713E-03
  1.81036247E-03  9.90795222E-03 -1.05733761E-02 -8.57145344E-04  5.90406033E-05
  1.46493062E-03 -2.05773762E-03  1.53937446E-03 -2.40516563E-02  8.92785122E-04
  6.19081126E-04  8.52423947E-04 -2.20674405E-02 -6.49532320E-02 -5.95107154E-02
  6.82130984E-04  2.56746126E-03 -4.08771882E-04  1.44719818E-02  4.02240696E-02
  6.95666036E-02  4.63391756E-04 -1.20405887E-03  1.58998048E-03 -7.23083371E-03
 -1.14956905E-02  3.44841989E-02  2.81632433E-02 -1.44633093E-02  3.32709503E-02
  5.63436541E-02  4.56925616E-02 -2.31303006E-02  2.63661092E-02  3.68821289E-02
 -1.93166505E-03 -5.74531117E-03  1.32723906E-02  7.93197023E-03 -8.49192756E-03
 -4.00576907E-03  3.03181543E-03 -2.36947553E-02 -1.61822494E-02 -1.40805422E-02
  2.29982553E-02  4.28440736E-03  7.08298332E-03  2.46236334E-01  1.13116664E-02
  4.48743702E-03 -2.10853376E-02  3.61366641E-01 -7.45797389E-03 -1.24698754E-02
 -8.46785963E-04  1.95538045E-02  4.61416545E-03  4.35168827E-02 -2.75373839E-03
  3.47311797E-02  1.20818543E-02  1.70620883E-02  3.54668913E-04  2.96248356E-02
 -1.96347944E-02  8.28037693E-03  3.68036318E-03  5.89578341E-04 -8.23896647E-03
  3.54706700E-03  1.87364483E-03 -1.48739063E-03  5.08998529E-04  2.41322534E-03
  7.28404773E-03  1.15189015E-02  5.45441104E-03 -3.67656099E-03 -2.39185015E-02
 -3.31813637E-02  9.56029432E-03  2.17261006E-03 -4.48681066E-02 -1.36177236E-02
  1.16309515E-02 -8.26651240E-04 -8.65967404E-03  2.93134316E-02 -2.95286564E-04
  6.56858070E-04  1.80818001E-02 -1.41825093E-02  5.93644430E-03  1.66872896E-02
 -5.13762650E-03 -2.77700037E-03 -5.12492092E-03 -5.89252692E-03 -2.09781147E-02
 -7.41521349E-04  2.62968619E-03  1.00189068E-03 -1.05183681E-04  3.08716829E-03
 -1.07923485E-02  3.80859306E-04  1.84146286E-03  7.14027548E-04 -6.16243830E-03
 -2.46769710E-02 -2.26795486E-02  2.42951271E-03  9.54455607E-04 -1.93815273E-03
 -2.52122512E-03 -9.98360537E-03 -6.99720075E-04 -8.46675427E-04  4.01243283E-04
 -2.85454980E-03  2.72233760E-02  4.29848239E-02  2.77899489E-02 -6.05875504E-02
  5.58955446E-02 -1.20700743E-01  4.22936568E-02 -8.82354020E-02  8.56478500E-02
 -9.20970133E-02  5.31422857E-03  1.63550922E-02  7.98145128E-02 -3.38900384E-02
 -3.81014020E-03  1.43295793E-02  2.68063740E-02 -1.59842347E-02 -1.49615203E-02
  3.00363653E-02 -3.83695464E-03  6.07292277E-03 -1.18382411E-02 -1.96788536E-02
  1.12207094E-02  2.15609813E-01  1.88635986E-02  6.30780678E-02  1.71347630E-02
  3.14308247E-01 -2.98412277E-03 -4.86927560E-03 -3.53702753E-03  1.71717614E-02
  1.48893965E-03  1.75878475E-02 -5.28485339E-03  2.39652111E-02  1.36018182E-03
 -4.88167885E-03 -1.66938482E-03  1.88981149E-02 -3.95443466E-03  4.72511355E-02
  1.86020112E-03  1.36677912E-02  4.34209422E-03  1.70235571E-03  1.62799861E-03
 -7.36382679E-03  6.49685939E-04  1.64236317E-03  2.20990964E-02  3.50893872E-02
  2.08709215E-02 -2.70150204E-02 -9.78862877E-02 -9.88291498E-02  3.46896330E-02
 -3.93282972E-02 -1.59407907E-01 -3.71901715E-02  1.63224332E-02 -2.18776965E-02
 -7.82752196E-02 -5.67181760E-02  7.04335722E-04  8.86101442E-03 -9.21108574E-03
 -2.31510125E-02  1.20124355E-02 -7.54005093E-03  1.33844703E-04  2.61243814E-03
 -1.14823268E-02 -1.86186848E-02 -2.17904767E-02  6.11381231E-04  1.27758316E-03
 -1.49852556E-05 -9.66262608E-04  1.67838866E-03 -2.95760753E-03 -2.03689374E-04
  1.63850280E-03  4.43089617E-04  9.20673813E-03  5.85792892E-03  7.86644001E-03
  2.85203771E-03 -3.57812416E-04 -4.82287468E-03  1.23903603E-02  1.50760060E-02
  1.54507457E-02 -2.66708288E-04 -7.45550690E-04 -5.53632344E-03 -1.63408867E-02
 -2.57679869E-02 -9.95795359E-03  4.91665194E-02 -2.71512705E-02  7.59503801E-02
 -1.57703548E-02  7.82714243E-02 -4.10008862E-02  2.83373758E-02  5.03322674E-04
  1.20409539E-02 -3.94977680E-03  7.87394408E-03 -1.76110867E-03  1.10307517E-02
  6.28529866E-03 -1.90805397E-02  2.14600174E-03 -1.25102489E-02 -1.24755101E-02
 -5.46884614E-03 -4.24219916E-03 -7.11747320E-03  3.82370260E-03  1.93847119E-02
  1.74048589E-01  2.31703560E-02  5.13583539E-03  2.90829862E-02  2.56542937E-01
 -1.42630133E-03 -1.95720304E-03  5.41426866E-03  1.46756805E-03 -9.20029574E-03
  5.65015400E-03  6.65584668E-03  4.09635388E-03 -1.55919633E-02  3.75046709E-02
  4.64373360E-03  2.14256908E-02 -5.72884295E-03 -7.37574194E-02  6.76434759E-03
 -1.82137991E-02 -6.27510801E-03 -4.12233177E-03 -2.06098340E-03 -4.09964085E-03
 -2.33412758E-04 -3.80150630E-04  2.80974475E-03  5.63520868E-03 -3.90448757E-03
 -6.22988721E-03  2.32923816E-02 -2.29779053E-02 -6.15183383E-03 -8.65542741E-03
  3.38291276E-02 -1.01416128E-01  4.54784803E-03 -6.35850049E-03 -2.43660755E-02
  1.00777517E-01 -6.63473104E-03 -1.78445561E-02  1.43738940E-02  9.57512189E-03
 -9.49374735E-03  1.58993911E-02 -3.36079883E-03 -3.33171277E-03  5.87547101E-03
  4.23441936E-03 -2.04546007E-03 -5.66671902E-04  9.86839846E-04 -1.61732098E-04
 -3.58146433E-03 -1.19595039E-02 -3.67126664E-03 -7.38189049E-04 -5.70572671E-04
 -6.91080390E-04 -1.59307113E-02 -1.41643926E-02 -1.28957181E-02  7.70794406E-04
 -8.41200200E-04  4.74250883E-04 -2.26305120E-02 -2.79780636E-02 -2.93256704E-02
 -7.56947021E-04 -5.44825254E-04  9.71458896E-05  5.32901197E-03  1.03745575E-02
 -6.81869358E-03  8.35616665E-03 -5.28797189E-03 -4.46248737E-02 -1.07910222E-02
  1.15539096E-02 -3.62625273E-03 -9.07757441E-02  6.10763020E-03 -3.68680455E-02
  7.40766943E-02 -9.11424580E-03 -1.61270529E-03 -9.09664877E-03  1.77169658E-02
 -2.02185845E-02  1.20591230E-02 -2.71445910E-02 -1.22679562E-02 -6.83676337E-03
 -1.39824432E-01 -2.14630904E-01 -3.68942368E-02  8.14819073E-02  2.78752844E-02
  5.97290192E-01 -5.16719600E-02  1.13585111E-01  3.75082900E-02  5.51379144E-01
 -6.02078250E-04 -1.21058821E-03 -4.81493549E-04  9.20706436E-04 -3.43041955E-03
  1.07151557E-02 -2.89654354E-03  2.84951232E-03 -4.76931953E-03 -5.66418658E-02
 -7.82514084E-03 -1.17427183E-02 -3.79849468E-02  2.15609628E-02 -8.98288773E-03
  1.20386082E-02 -1.77584603E-02 -6.52789009E-04 -5.80753405E-04 -2.16303153E-03
 -2.81682492E-03 -1.52254855E-03 -3.99337585E-03 -6.41448989E-03 -1.35797360E-02
  2.99632995E-04  1.44161227E-02  1.54105678E-02 -1.41090816E-02 -5.22395045E-04
  2.58410920E-02  6.08259958E-02  8.51452108E-03 -1.91505827E-02  3.25391480E-02
 -4.55934079E-02  1.19286541E-02  1.44270295E-02  9.29706486E-03  1.18444322E-02
  2.16599901E-02  3.71094979E-03 -6.16227803E-03  1.25049194E-03  2.32871448E-03
  1.02151937E-02 -8.80351777E-03 -7.65436151E-04  2.20805021E-04  1.32309631E-03
 -3.41991282E-03 -2.22373981E-03 -2.48977270E-02  7.25257625E-04  6.30501695E-04
  6.89486462E-04 -2.74425268E-02 -6.94886411E-02 -5.94407534E-02  1.20855418E-03
  2.67141947E-03 -7.29355372E-04  1.81742213E-02  4.31555874E-02  6.55009818E-02
  4.64733680E-04 -1.56918806E-03  1.56982730E-03 -4.86130049E-03 -7.45489845E-03
  2.58914054E-02  2.12798237E-02 -9.79455318E-03  2.10554311E-02  4.27316619E-02
  3.50689248E-02 -1.59036161E-02  1.82763187E-02  2.78543207E-02 -4.15759515E-03
 -1.24242722E-05  1.12857321E-02  5.58964109E-03 -8.66293402E-03 -2.32269400E-03
  1.44527521E-03 -2.22017983E-02 -1.47657394E-02 -1.33026564E-02  2.16742203E-02
  3.99190331E-03  7.07160238E-03  2.22936957E-01  1.82892626E-02  6.30785341E-03
 -2.23723614E-02  3.26994047E-01  2.73420074E-02  7.96179438E-03 -4.41433643E-02
  2.98451562E-01 -6.76738846E-03 -1.11632059E-02 -9.87532086E-04  1.98140801E-02
  4.36396955E-03  3.83917943E-02 -2.71651683E-03  3.45912900E-02  1.10838719E-02
  1.15566372E-02  1.71416801E-05  2.81241914E-02 -1.86614984E-02  5.16438873E-04
  2.47224969E-03  2.89610389E-04 -9.62806097E-03  3.68052415E-03  1.78818752E-03
 -1.62609726E-04  3.39093029E-04  2.10523662E-03  6.90210350E-03  1.09859339E-02
  3.44197540E-03 -6.18156353E-03 -2.32552227E-02 -3.23769783E-02  6.72372658E-03
 -2.83240189E-03 -4.27524792E-02 -1.14948868E-02  9.29446996E-03 -2.67944843E-03
 -7.39087896E-03  2.12865836E-02  7.10696329E-04 -4.38392686E-05  1.49580493E-02
 -1.18239750E-02  6.65158190E-03  1.29194069E-02 -4.87873172E-03 -2.21097960E-03
 -5.13812816E-03 -5.40665966E-03 -1.81281325E-02 -5.46271374E-04  2.29361127E-03
  9.15770562E-04 -5.25917488E-04  2.94396252E-03 -8.68321974E-03  3.85511328E-04
  1.79015506E-03  6.93105814E-04 -7.67962244E-03 -2.54748122E-02 -2.10871097E-02
  2.25760254E-03  8.96895057E-04 -1.86188116E-03 -3.32032699E-04 -4.62744750E-03
  5.10552840E-03 -7.84719032E-04  1.70803955E-04 -2.45909779E-03  1.57701833E-02
  2.47493878E-02  2.13038688E-02 -4.28680070E-02  3.68498503E-02 -6.88422589E-02
  3.25748182E-02 -6.17449110E-02  5.60897422E-02 -5.87067217E-02  2.84751577E-03
  1.93764329E-02  5.61384599E-02 -1.97600240E-02 -4.00492035E-03  1.39692830E-02
  1.82189043E-02 -1.22114929E-02 -1.48516994E-02  2.61256694E-02 -4.96536885E-03
  4.90037585E-03 -9.89477574E-03 -1.81171091E-02  2.05085367E-02  1.73350604E-01
  2.77224832E-02  6.27443806E-02  3.06774169E-02  2.52329960E-01  4.21250743E-02
  9.32557818E-02  3.66453940E-02  2.08509419E-01 -3.19654459E-03 -5.63896602E-03
 -4.68217420E-03  2.03390359E-02  4.65401497E-03  2.08378735E-02 -6.54219642E-03
  2.95091445E-02  6.58368952E-03 -4.74654515E-03 -2.39126224E-03  1.81301298E-02
 -1.74607250E-03  3.49714982E-02  1.34788607E-03  1.10117253E-02  1.34149599E-03
  4.24720393E-04  2.97128684E-03 -5.59794981E-03 -5.03206050E-04  1.26193658E-03
  1.20151378E-02  1.86998013E-02  1.52239657E-02 -2.46027045E-02 -6.74985824E-02
 -5.23246310E-02  2.52141784E-02 -3.59611685E-02 -1.09520831E-01 -9.44952730E-03
  1.36261906E-02 -2.29159359E-02 -5.12889292E-02 -3.83184904E-02  9.46559198E-04
  7.37791488E-03 -3.77352491E-03 -1.61245595E-02  9.38847987E-03 -4.71190613E-03
 -9.04099481E-04  2.07530799E-03 -1.36959230E-02 -2.19324894E-02 -2.34306590E-02
  7.05765991E-04  1.10632087E-03 -3.46224068E-05 -2.46424900E-04  3.56297186E-03
 -1.03309669E-03 -1.43503300E-04  1.78736056E-03  6.36491984E-04  7.24514224E-03
  2.15500934E-03  2.02669440E-03  1.81129079E-03 -5.35265155E-04 -3.41197980E-03
  9.62401432E-03  1.15391977E-02  1.31164040E-02  6.26240416E-06 -9.98391979E-04
 -3.87341653E-03 -7.34588501E-03 -1.09218140E-02 -2.90194584E-03  2.95149526E-02
 -1.44504929E-02  2.99074328E-02 -4.56686538E-03  4.80350395E-02 -2.12339201E-02
  5.31227782E-03  4.41266537E-03  1.64485627E-03  2.70686275E-03  2.33684558E-03
 -5.46455322E-04  4.72424156E-03  5.99591915E-03 -1.34685463E-02 -7.28456012E-04
 -1.26902745E-02 -7.96298042E-03 -3.27154004E-03 -2.70335402E-03 -5.16186009E-03
  1.19084208E-02  2.37017472E-02  1.18889815E-01  1.90554089E-02  1.70838374E-02
  3.55326224E-02  1.74716368E-01  3.33579994E-02  1.84710014E-02  4.02378585E-02
  1.24523146E-01 -4.30024001E-03 -4.94061873E-03  8.34709307E-03 -4.14769100E-03
 -4.89489239E-03  8.87582854E-03  1.14292797E-02 -8.21758625E-03 -8.20306487E-03
  1.68040315E-02  7.05867383E-03 -1.93359724E-03  3.69338039E-03  4.32973985E-02
  2.29522420E-03  7.91827160E-03  1.09815616E-02 -1.45891066E-03 -3.01242992E-03
 -7.03585387E-03 -2.85370689E-04 -1.53434681E-04  2.05739233E-02  2.49008188E-02
  1.38670142E-02 -9.30002020E-03 -2.04305096E-02 -4.36958777E-02  2.14345317E-02
 -1.38560591E-02 -3.46800516E-02 -3.87706821E-02  1.21889100E-02 -1.19894616E-02
 -3.21049276E-02 -2.05593657E-02 -1.88226276E-03  7.06955274E-03 -5.02984072E-03
 -6.85563676E-03 -7.71586647E-04  1.80895745E-03  3.78615562E-04  2.53468140E-04
  7.77694508E-03  8.34549340E-03  1.21961293E-03 -4.95575841E-04  9.29337542E-04
  3.34228274E-04 -5.39475488E-03 -1.27659976E-02 -1.18590982E-02 -4.57439320E-04
 -6.21565303E-04 -4.39285964E-04  3.31978604E-03  5.88986180E-03  2.64088106E-03
  1.42433028E-03 -5.67354209E-04 -1.01836886E-03 -1.16931896E-02 -1.77295646E-02
 -1.39522263E-02 -9.42282563E-04  3.88913633E-04 -2.40830805E-03  2.09275926E-02
  2.71079989E-02  3.72906676E-03 -1.04445786E-02  1.89272998E-02 -5.79354754E-02
  4.83188047E-03 -1.52999681E-02  2.95040669E-02 -4.99676587E-02  9.59997198E-03
 -2.88838713E-02  3.57099962E-02 -2.08086563E-02  3.34628929E-03 -6.42364828E-03
  1.67700175E-02 -1.18965982E-02  1.24880159E-02 -1.66777490E-02 -3.11837778E-03
  5.72536460E-04 -3.20031917E-03 -7.60645271E-03 -2.00940243E-02  2.91411180E-02
  3.49875766E-02  3.29388473E-02 -2.96374923E-02  4.38702306E-02  5.04128597E-02
  7.55719566E-02 -2.14111438E-02  2.33913710E-02  4.04712725E-02  8.36568814E-02
 -3.87792592E-04 -5.52683497E-04  1.34032530E-03  8.36634525E-04 -9.66913066E-04
  2.25722890E-03  1.36299806E-03  1.20034285E-03 -1.49699193E-03 -4.91251366E-03
  1.05601757E-03  5.18180845E-04 -5.31337885E-03 -1.02175654E-02  3.86923313E-05
 -1.81683674E-03 -3.01997220E-03  1.04066643E-04 -7.75510310E-04 -1.41977704E-03
 -6.30451406E-04 -1.58623123E-03  1.40273306E-03  1.53867922E-03 -1.57287797E-02
 -1.70450971E-03 -3.80345948E-03 -2.01431566E-03 -2.18073597E-02 -2.79475566E-03
 -5.40187240E-03  2.90096678E-03 -1.32417389E-02 -3.58067480E-03 -2.77397500E-03
  6.74102366E-03 -1.10198401E-04 -1.29011898E-03  1.27386883E-03  1.03884946E-03
  3.59493738E-03  5.44981722E-04 -1.25386130E-03 -1.03295833E-03  1.75556858E-03
  3.58985329E-03  6.25080366E-04 -6.50855933E-05  1.11765094E-04  1.86714617E-04
 -3.03815866E-03 -5.95104248E-03 -6.75694609E-03 -3.04634544E-05  4.07104226E-05
 -3.85289438E-05 -1.44576486E-02 -2.34955739E-02 -1.47322431E-02  8.61639515E-04
  9.02482310E-04 -6.05957960E-04  1.18649519E-02  1.84096653E-02  1.25162406E-02
  3.17264698E-04 -9.57334896E-04  6.01455957E-04  1.24482150E-03  1.45456981E-03
 -8.02066991E-03 -2.80632256E-04  1.95719840E-03 -2.14797339E-03 -1.20986450E-02
 -4.41071833E-05  2.63015742E-03 -1.61521607E-03 -6.77955889E-03 -5.05708302E-03
  5.36040378E-03  1.93393153E-03 -2.06067488E-03 -3.21204366E-03  6.40042227E-04
 -1.10416066E-03 -3.48296902E-03 -3.75586563E-03 -2.37715437E-03  3.26489982E-03
 -1.26773935E-05 -6.22833320E-05  2.48716085E-02  5.73925813E-03  4.92819436E-03
  6.33161701E-04  3.61971300E-02  8.49046250E-03  7.01556505E-03  2.67535574E-03
  3.65596320E-02  8.06478845E-03  6.74040088E-03  3.68293300E-03  1.01078245E-02
 -8.95608497E-04 -2.29963169E-03 -1.84836235E-03  1.42815224E-02  1.24175576E-03
  9.53755765E-03 -2.91320127E-03  2.22229835E-02  2.58098802E-03  5.72679253E-03
 -2.24450555E-03  1.46569575E-02 -1.30619419E-03 -1.45982074E-02 -1.07532620E-03
 -1.73038807E-03 -3.99062747E-03  6.31732486E-04 -3.13476223E-04  2.08522746E-03
 -1.17083450E-03  2.87270488E-04 -2.30666833E-03 -2.30145507E-03 -4.09750135E-03
 -1.25530085E-02  3.53183788E-03  2.22691096E-03 -5.94292296E-03 -1.81030864E-02
  4.95864258E-03  1.45205023E-03 -3.03978418E-03 -9.17691089E-03  6.63736249E-03
  2.93093016E-03  1.08748057E-03 -2.69586741E-03  5.82374843E-04 -1.42050829E-04
  7.72501565E-04  5.16615720E-04 -2.18522336E-03 -2.96413522E-04 -3.45632491E-03
 -3.57223072E-03 -1.13407452E-04  3.14635371E-04  5.71678535E-04 -1.34369912E-04
 -1.87035374E-03 -3.14839789E-03 -2.33864363E-03 -1.55409676E-04  7.10630099E-04
  6.72936825E-05 -8.14402990E-03 -1.27196388E-02 -5.98294358E-03  7.26080802E-04
 -1.56131794E-04 -1.28366027E-05 -2.67080810E-03 -3.42740038E-03  1.38327396E-03
 -5.96268751E-04 -4.78026680E-04 -3.09152662E-05 -5.80487045E-03 -6.59921345E-03
 -1.19496920E-03 -3.15906160E-03 -5.94503600E-03  9.93627106E-03 -1.77397298E-03
 -4.78280202E-03 -8.61002628E-03  8.24929621E-03 -4.28898841E-03  7.88272323E-03
 -5.15995326E-03  9.01318596E-03 -1.71474099E-03  3.05268012E-03 -4.71333478E-03
  1.26722941E-03 -3.28507757E-03  6.81035241E-03 -1.03704938E-03  8.25273225E-04
  3.14735695E-04  3.23098176E-04  6.59521173E-03  8.15473543E-03 -6.10027013E-04
 -8.87042014E-04  9.69540911E-03  1.14277960E-02 -4.37746913E-04 -6.40837549E-03
  9.06360065E-03  1.39453081E-02 -9.23139843E-04 -1.63070705E-02  7.85986930E-04
  8.40396375E-03  1.51023596E-03  2.36522480E-03 -5.19917130E-03 -1.88715708E-03
 -1.46432003E-03 -6.14412479E-03 -7.30088489E-03 -2.82921187E-03 -2.92385358E-03
 -1.05819489E-02 -3.61865622E-03 -4.53203493E-03 -4.14167534E-03 -5.52247505E-03
  2.47865463E-04 -1.19610006E-03 -2.32480873E-03 -1.80930594E-03  1.77642919E-03
 -1.22106357E-04  2.27754459E-04 -4.63067004E-04 -8.24442876E-03 -9.97998153E-03
 -7.09693885E-03  5.35737686E-03  3.57730360E-03  1.76865272E-02 -1.04145824E-02
  7.69094016E-03  6.98197433E-03  1.75606208E-02 -5.86037246E-03  2.36136541E-03
  5.91464876E-03  1.04886836E-02 -5.64845639E-04 -6.33263566E-04  3.72820383E-03
  2.39424921E-03  1.00726617E-03  3.79723980E-04  2.57657081E-04  1.95076248E-05
 -3.80727907E-03 -6.23128975E-03 -6.05150971E-03  1.28149007E-04 -5.37118892E-04
 -3.39534965E-04  4.32968507E-03  7.93235315E-03  4.50074033E-03  1.73183405E-04
  2.36067566E-04  1.06027651E-04 -1.51507901E-03 -3.71261872E-03 -3.51101590E-03
 -4.79515186E-04  3.68032252E-04  7.25674650E-05  8.04010495E-03  1.13592463E-02
  5.99348227E-03  7.21572237E-04 -4.84871118E-04  8.48698926E-04  3.38091982E-03
  4.83432405E-03  7.84072239E-04  2.16017568E-03  3.43728677E-03 -1.23520724E-02
  1.68693831E-03  3.45646123E-03  5.15181817E-03 -7.05093197E-03  1.53614588E-03
 -2.45954182E-03  1.71103666E-03 -3.89135458E-03  1.68549399E-04 -3.19579253E-03
  1.45774775E-03  6.17367197E-04 -3.46658798E-03 -3.06398094E-03  1.16959253E-03
  1.45098640E-04 -6.71028982E-04 -8.59763646E-04  1.14494708E-02 -2.23348174E-03
 -1.01968508E-02  1.88550304E-03  1.67597297E-02 -3.21634418E-03 -1.54518958E-02
 -2.07459551E-03  1.53693017E-02 -3.55611122E-03 -7.81614103E-03 -5.99645125E-03
  2.48419576E-03 -1.33452879E-03  5.58121876E-03 -8.99041740E-05 -1.09563935E-04
  7.73028226E-05 -9.06686701E-05  4.30856188E-04  1.78340611E-04  9.56120821E-05
  2.86081586E-05  7.37455415E-04  6.68065457E-04  1.23636199E-04  2.70651722E-04
  1.94544359E-04 -3.04893462E-03  2.23110436E-04 -1.02825884E-03 -2.48630890E-04
 -2.42993265E-05  6.24017082E-05 -6.83220507E-05 -9.45002936E-05 -1.18206942E-04
 -1.64882043E-03 -2.43619186E-03 -1.65709197E-03  1.47117204E-03  1.73553697E-03
  6.21752047E-03 -2.55381393E-03  2.22493691E-03  2.97159288E-03  2.43830531E-03
 -1.54525155E-03  1.46368541E-03  1.02703847E-03  4.78737676E-03 -3.56731833E-04
 -7.18315360E-04  7.43842437E-04  4.45021934E-04 -3.31050174E-04  6.20434473E-04
 -3.29699408E-05 -2.58605183E-04 -6.12868806E-05 -8.78632469E-05  3.41219789E-05
 -9.66375106E-06 -6.64677738E-06  2.76353115E-06 -1.73761484E-04 -4.11571385E-04
 -2.48792759E-04 -7.78345141E-06 -1.70003745E-05  5.10194946E-06 -8.94936075E-05
 -7.47071419E-05 -7.83709955E-04 -1.87901944E-04  1.49547287E-05  9.92403614E-05
  1.42752479E-03  1.68193863E-03 -5.11238728E-04  1.88414563E-04 -8.94970868E-05
  2.58281040E-04  8.20884960E-04  1.31865886E-03  1.63714845E-04 -9.90069747E-04
  3.84978814E-03 -3.77257251E-03  2.52897159E-04 -1.57549795E-03  5.66703325E-03
 -2.93684486E-03 -2.85874988E-04  7.60435807E-04  3.54637649E-03 -9.73255404E-04
 -1.47479147E-04  1.46083767E-04  5.49823247E-04  2.64402635E-04 -1.92497514E-04
  9.22030596E-04  3.40597380E-04  1.66627127E-04 -1.45755825E-03 -2.30730013E-03
 -1.31049709E-03  4.14736967E-03 -4.60845605E-03  6.62281978E-03 -1.87322462E-03
  5.94154364E-03 -6.79571816E-03  6.05037591E-03 -1.49685215E-03  4.22452168E-03
 -4.39872680E-03 -7.88230302E-04  7.78654915E-06  4.35986793E-05  6.36408205E-04
  5.33475872E-04 -1.96532815E-05 -5.25548066E-05 -5.17245959E-05  1.61544979E-04
 -7.19224951E-05  2.41727891E-04 -1.11366034E-04  1.81464734E-04 -1.08132758E-04
  4.58380612E-04  2.26293014E-04  4.28763559E-04  3.12332157E-05  2.03625738E-03
  2.25017177E-04  5.15677266E-04  2.56877962E-04  1.21495617E-04  3.56810459E-05
 -1.46358300E-04  6.69256213E-05 -2.60782816E-04  9.28607515E-04  1.40377289E-03
 -3.19616315E-03 -6.29337570E-04 -2.80719065E-03 -3.66922308E-03 -4.58547608E-03
 -9.16843813E-04 -4.52815621E-03 -2.30882659E-03 -3.67156456E-03 -2.82314648E-04
 -2.57549752E-03 -2.86946877E-03 -5.88406340E-04  4.52661850E-04 -6.22692067E-04
 -4.87025833E-04  2.83006177E-04 -2.77025279E-04 -1.98251227E-05 -2.55421134E-04
  3.35133558E-05  6.23022141E-05  1.12142085E-04  1.15890294E-05  9.14710520E-06
 -9.15945015E-06 -1.60210948E-04 -3.77423141E-04 -5.52753854E-04  1.02876876E-05
  3.42742273E-05 -5.44121746E-06 -2.53405086E-03 -3.21660377E-03 -3.42918270E-04
  2.40132215E-04  1.52598614E-04 -2.01410260E-04  2.37373069E-03  3.04038293E-03
  1.01699882E-03  1.67138802E-05 -1.44025089E-04  6.04035170E-08 -5.81944417E-04
 -8.85990636E-04  1.25299020E-03  1.53519574E-03 -6.03981491E-04  2.54851563E-03
  1.92456454E-03  2.40508007E-03 -9.71602841E-04  1.40840945E-03  1.43036621E-03
  1.12138463E-03 -2.86710486E-04  8.47987193E-04  2.44415497E-04  5.77297774E-04
 -1.91599284E-04 -3.53971695E-04  5.68676440E-04  1.03184434E-04 -1.69296492E-04
 -3.13651667E-04  3.48981567E-05  2.55936481E-05 -1.90799755E-03 -8.07251254E-05
  3.67722321E-03  5.50334865E-05 -2.82818048E-03 -1.15411135E-04  5.45871348E-03
  3.99282078E-04 -2.35277287E-03  2.78231504E-04  3.37774733E-03  7.60309411E-04
  1.06582883E-04  4.33435686E-05 -3.86285157E-04 -1.06626437E-04  3.49198585E-04
 -5.12616756E-04 -7.87789472E-04 -1.16218788E-04  2.48064670E-03  2.84416504E-04
  2.00206425E-03 -1.31566399E-04  3.71973495E-03  4.74783114E-04  2.22647688E-03
 -1.84378481E-04  1.74690913E-03  1.04917709E-03 -1.09611061E-03 -2.26256534E-04
 -1.15591603E-04 -8.25725412E-05 -3.13102824E-04 -5.13173950E-05  3.27212447E-04
 -4.29467782E-04 -8.13519095E-05 -1.52920597E-03 -2.36104730E-03 -1.11884123E-03
 -2.51888762E-03  5.33472790E-03  6.55556326E-03 -1.85825579E-03 -3.85395274E-03
  8.64789798E-03  3.20254551E-03 -9.26354800E-04 -2.55049481E-03  4.39608515E-03
  7.79712972E-04  2.48300291E-05 -1.59744599E-04  9.58353354E-05  9.83257683E-04
 -6.40954015E-04  2.32943617E-04 -4.01928159E-04 -7.18394601E-05 -3.87195338E-04
 -5.85739214E-04  4.02699196E-04  5.85649689E-05  6.92067675E-05 -4.97868451E-05
 -3.89850264E-04 -9.41127853E-04 -5.19644173E-04 -4.77516790E-05  8.01208553E-05
 -6.15743325E-06 -1.49615064E-03 -1.82765744E-03 -9.34289653E-04 -2.49086948E-06
 -1.25703078E-04  2.38607473E-04 -1.77920338E-03 -2.49405543E-03 -1.48893775E-03
 -1.22142671E-04 -1.08470270E-04  2.00475303E-04  2.10831853E-03  3.04086425E-03
  1.10688580E-03 -3.17333679E-03  1.61337046E-03 -8.12863662E-03  1.72116529E-03
 -4.97600869E-03  2.63093708E-03 -3.63403787E-03  7.21516397E-04 -1.81282875E-03
  4.82058799E-04 -8.74649041E-05  3.21163088E-04 -9.90179236E-04 -4.87585822E-04
  9.73265430E-04  2.24625350E-04 -2.60638998E-06  7.55764876E-04  3.59263178E-04
  1.00775178E-03  1.67374342E-03 -3.66452498E-04 -1.41561625E-03 -8.87396764E-03
 -5.14318969E-03 -5.53794871E-04 -2.00625773E-03 -1.31451194E-02 -3.96109091E-03
 -5.04507700E-04 -2.97328209E-03 -8.27799473E-03 -9.27227357E-04 -2.81957828E-04
  1.38566515E-04  7.26903538E-04  2.48145496E-04 -2.79851217E-04  9.57191151E-04
 -2.16416060E-04 -3.36609142E-04 -1.55126224E-04  1.20723960E-04  1.27934311E-04
  1.34118004E-03 -2.81332748E-04  3.57029543E-04  3.56504260E-04 -8.79208131E-04
 -1.41645241E-04  1.75857546E-05 -1.28404388E-03  3.30843096E-03  2.48337401E-05
  7.35880066E-04 -2.66143356E-04 -2.60945284E-05  2.01181081E-04 -2.37743510E-04
  3.70708973E-05  1.19957883E-04  1.87574048E-04  2.47459407E-04  9.23321830E-04
  5.50253917E-04 -6.35855011E-04 -6.13823662E-04  1.48200473E-03  1.11079776E-03
 -1.20404714E-03  1.51962050E-03  1.45386910E-03 -1.38225823E-05  4.10673706E-04
 -9.58552234E-04  1.62349571E-04  8.27950914E-04  9.11105051E-04 -4.24909975E-04
  5.56615944E-04  7.48264502E-04 -1.67592223E-04 -3.36604036E-06 -3.06270178E-04
 -4.42907697E-04 -1.49334414E-03 -4.56184355E-05  7.00011901E-05  5.25247259E-05
  2.37641472E-04  7.08041188E-04 -5.41504873E-04  3.20162642E-05  6.41792671E-05
  5.15056909E-05  3.18217082E-04 -8.06651055E-04 -1.26010045E-03  5.36925253E-05
  6.53993109E-05 -6.78471022E-05 -1.09733032E-04 -2.15687402E-04  7.46091282E-04
 -8.97611564E-06  4.61893687E-05 -1.18604215E-04  1.87646933E-03  2.68858749E-03
  2.83257063E-03 -2.03509704E-03  3.81362056E-03 -6.56876315E-03  4.40192919E-03
 -2.86634911E-03  5.71988060E-03 -4.57001650E-03  2.03036743E-03  1.89236281E-04
  4.16064276E-03 -2.27272995E-03  3.29181241E-04  2.71640821E-04  1.55622473E-03
 -6.01834023E-04 -7.65676063E-04  5.91754546E-04 -1.08719176E-04  6.15825461E-04
  3.02633560E-04  4.31571362E-04  4.16839585E-03  9.24167178E-03  1.43423928E-04
 -8.79590603E-04  6.14228185E-03  1.35687946E-02  2.07524911E-04  1.88173326E-03
  5.96124004E-03  1.05518288E-02  1.27855450E-03  2.73867099E-03  6.67164660E-04
 -9.53665817E-05  3.62768878E-04  2.47330858E-04 -8.15856228E-05  3.41500006E-06
  7.84269384E-04 -3.79926288E-05 -6.54127678E-05 -7.39999455E-05 -7.10299502E-05
  2.54805827E-04 -7.17400820E-06 -5.89799447E-05 -1.44064193E-04  4.25641479E-04
  3.12166207E-03  2.73263338E-04  7.94966412E-04  1.62620192E-03 -2.88351399E-03
  5.22305602E-04 -1.14290641E-03  6.83934509E-04  8.05725227E-05 -7.46880980E-05
 -8.85739880E-05  1.28379508E-04  3.85407142E-05  3.97838946E-04  5.76946991E-04
  6.92796686E-05  1.77540128E-04 -1.37670481E-03 -1.22678313E-03 -1.00860866E-04
  4.06314074E-04 -2.37836505E-03 -3.15107069E-03 -8.40057218E-04  1.14149492E-03
 -2.11753217E-03  5.02672192E-03 -5.68054833E-04 -1.19787975E-03 -3.99164094E-05
 -8.29316056E-04 -8.74908914E-04  1.03616860E-04  2.22344787E-04 -1.31198586E-04
 -1.30541319E-04 -4.54149999E-04  2.95764879E-04  2.78224824E-05  1.00834743E-05
 -5.14700592E-05  1.16716020E-04 -1.84677218E-04  7.84514356E-04 -3.57581159E-05
 -2.49762431E-05 -2.97901457E-05  8.03909600E-04  2.37414266E-03  1.83747229E-03
 -1.16314177E-06 -7.46592341E-05 -1.37393848E-05 -2.94373480E-04 -1.35963149E-03
 -2.87787530E-03  5.72512819E-07  4.45839694E-05 -8.73198969E-05  1.20395298E-03
  1.72702788E-03 -2.95552795E-03 -2.72353577E-03  2.36254978E-03 -4.25486252E-03
 -4.71806469E-03 -4.22276783E-03  3.58864723E-03 -2.99684436E-03 -3.27368790E-03
 -4.84974750E-04  2.02156955E-03 -1.53474618E-03 -8.09039611E-04  1.91726014E-04
  8.31000729E-04 -3.72870940E-04  6.19773547E-04  8.61616635E-04  5.81705919E-04
 -7.15134484E-04  1.05976188E-04  1.22652068E-04 -1.04236828E-02  2.77302033E-03
 -2.15333790E-04 -1.41821145E-04 -1.53223802E-02  4.05450794E-03 -2.43327490E-04
  2.74327353E-03 -1.33553685E-02  2.26574249E-03 -4.57624697E-04  2.63115798E-03
 -8.74515228E-04 -4.65394318E-04 -6.35506092E-04  1.89845740E-04  6.29677109E-05
  2.21565238E-05 -5.05172140E-05  8.16796698E-04  1.15431161E-03  1.50072459E-03
 -1.70380351E-03  1.35055213E-03 -8.57703537E-03 -2.36956254E-03 -2.74687614E-03
  1.60788167E-03 -1.33573374E-02  2.52362661E-02  1.71910020E-03  2.34816827E-03
  3.66444866E-03 -3.67488412E-02 -1.39393538E-03 -7.19979701E-03 -5.26595285E-03
 -3.93693601E-03 -2.22007953E-03  3.30369384E-03  7.10302585E-04  7.40750382E-04
 -2.82986927E-04 -3.84268566E-04  6.81059775E-04 -1.00011198E-03  1.17298091E-03
  1.05091642E-03  6.76584524E-04 -7.17691324E-04  2.39056801E-03 -7.50470896E-03
 -4.23212820E-04  5.41385735E-03  1.06473411E-03  3.60008498E-02  1.30636581E-03
 -8.22779370E-03  4.68443701E-03  9.54519299E-04 -6.59667368E-05 -1.71478453E-04
 -3.61834148E-05  3.58534424E-05  3.51433398E-03  1.71282820E-03  4.56867778E-03
  2.08376236E-04 -2.89856570E-04 -7.58032678E-04  2.68618299E-03  9.12959151E-04
  3.32952093E-03 -4.57162610E-04 -2.64781729E-04 -4.86183869E-04  1.60437506E-04
  1.79608158E-03 -1.47433822E-03 -1.45492051E-04 -2.40792325E-04  1.67357139E-04
 -9.03460663E-04 -6.49683898E-04 -3.36321507E-04 -1.62551287E-04 -7.05028486E-05
  6.58457079E-05  2.30339901E-03  3.33325009E-03 -2.12451042E-03  7.27365856E-03
  4.95773197E-03 -6.31492538E-03 -3.34886342E-03  1.09414890E-02  6.98402949E-03
  1.36396816E-02  2.18081264E-03 -7.80362505E-03 -1.51244396E-02 -4.95345572E-03
 -5.31937814E-04 -2.57825391E-03 -5.24856754E-04  3.00149414E-03  1.83971250E-03
 -6.31953248E-03  2.87230143E-03  1.77765481E-03 -3.54930396E-04 -5.13174041E-04
  1.16548913E-03 -4.83338678E-03 -4.72992839E-04  1.34190254E-03  1.36042347E-03
 -6.14300510E-03 -1.16032742E-03 -2.28072361E-03  8.53059837E-04 -3.70148801E-03
  6.91683284E-05 -7.86875541E-03 -9.95094332E-04  1.25574482E-03  3.31109850E-03
 -1.47491160E-05 -6.19021615E-05  1.86792181E-04 -6.51051589E-06 -2.37087469E-05
  6.39235825E-01  1.64378410E-03  2.19695335E-03 -2.74524636E-03  2.17553545E-03
 -1.37701130E-02 -3.18139731E-03 -4.40205986E-03  2.78999250E-03 -2.15023529E-02
  3.57807731E-02  1.99360755E-03  2.87966614E-03  4.74226560E-03 -5.03044724E-02
 -2.07691842E-03 -9.76181622E-03 -7.28157230E-03 -6.23081320E-03 -3.49094876E-03
  5.22482133E-03  1.06077161E-03  1.15297669E-03 -4.58086501E-04 -6.35053492E-04
  1.10986276E-03 -1.65515358E-03  1.96600668E-03  1.61709658E-03  1.22922427E-03
 -1.34844532E-03  3.79983552E-03 -1.04919395E-02 -1.55747296E-05  7.08118609E-03
  2.00276072E-03  4.76294853E-02  2.00962991E-03 -1.09291495E-02  6.06187674E-03
  1.37385484E-03 -1.32132295E-04 -3.25241952E-04 -5.68066565E-05  1.02135933E-04
  5.68136170E-03  4.01978317E-03  7.27531464E-03  2.24406484E-04 -3.47359297E-04
 -9.67858472E-04  4.39534781E-03  2.33862375E-03  4.92252080E-03 -5.48419289E-04
 -3.38279496E-04 -6.43095055E-04  2.54830236E-04  2.35892966E-03 -1.87326809E-03
 -1.84611261E-04 -3.33021141E-04  2.11380067E-04 -1.47449300E-03 -1.07104369E-03
 -1.24487729E-04 -2.22635150E-04 -4.91013373E-05  7.16722434E-05  3.52999691E-03
  5.14362114E-03 -3.41604563E-03  1.16939337E-02  7.91263699E-03 -9.73230066E-03
 -5.25351686E-03  1.73662231E-02  1.10605261E-02  1.98860643E-02  2.85605468E-03
 -1.07257888E-02 -2.15554462E-02 -5.52660129E-03 -7.83525291E-04 -3.42615865E-03
 -1.53563061E-03  4.65939719E-03  2.91146236E-03 -9.90104618E-03  4.59965138E-03
  2.85195949E-03 -5.13174054E-04 -7.71441818E-04  1.93654788E-03 -7.81982996E-03
 -7.96574874E-04  2.07323953E-03  2.39530674E-03 -1.01440206E-02 -1.82692524E-03
 -3.69279819E-03  1.46727940E-03 -6.39090707E-03 -2.05174837E-04 -1.10612493E-02
 -1.43770601E-03  1.79813976E-03  3.91361978E-03 -7.21711663E-05 -1.01583335E-04
  2.90094479E-04 -8.37762909E-05 -7.72602175E-05  5.68196773E-01  5.21970747E-01
  3.66355238E-03  5.84186142E-03 -4.50463648E-03  1.89405796E-03 -1.32666055E-02
 -1.40313332E-02 -2.51740640E-03  1.97895455E-03 -2.33573864E-02 -4.80363214E-02
  1.20185750E-02 -1.30659962E-02 -2.71299979E-02  3.93621100E-02  9.54855635E-03
  1.20299663E-02 -6.69524898E-03 -9.39711947E-03  1.57589677E-02  2.32681636E-03
  4.21097467E-03 -1.45976598E-03  2.22189576E-04  4.74631127E-04 -6.65834992E-04
 -6.37586691E-04  1.89672614E-03 -6.43642978E-03 -2.39835038E-03  1.61762579E-04
  2.58825082E-03  4.43198553E-02 -6.32698233E-03 -1.08349375E-02  2.75415157E-02
 -2.08214379E-02 -7.15620929E-03  1.02603170E-02  1.29276030E-02  5.00208063E-04
  2.86824936E-06 -1.12853921E-03  1.92694596E-03  6.45308139E-04 -1.02734630E-02
 -2.79643286E-02 -4.77204634E-02  3.18999316E-04 -8.51153113E-04 -1.08855992E-03
  1.54719481E-02  4.48767482E-02  4.07883267E-02  5.01515983E-04  1.77209104E-03
  3.05826841E-04  1.53350437E-03 -8.34078726E-04  1.64948137E-02  6.00785474E-04
  4.27801880E-04 -5.84352318E-04 -1.18308194E-03 -6.68876069E-03  7.19965182E-03
 -5.70136631E-04  4.07787617E-05 -9.99831411E-04  4.80099502E-03  7.71783984E-03
  2.31280119E-02  1.90443941E-02  9.77640719E-03 -2.26478815E-02  3.78207124E-02
  3.09308018E-02  1.56578456E-02 -1.82461044E-02  2.48095953E-02 -1.57535370E-03
  4.12599436E-03 -9.16707484E-03  5.32261752E-03 -5.90361757E-03  2.81724355E-03
 -2.12049375E-03 -1.61851708E-02 -1.11685630E-02  9.55469415E-03 -1.57094107E-02
 -1.16547994E-03 -1.93653466E-03 -1.72156672E-02 -1.27011659E-02 -1.40745868E-04
  7.57162649E-03 -2.51102338E-02 -1.84850505E-02 -1.66640786E-03 -5.90508579E-03
 -2.86781272E-02 -1.63781325E-02  9.92543294E-03 -1.84614728E-02 -1.02248611E-02
 -7.62576325E-03  1.66609997E-02  1.23425803E-04  4.08103897E-04  3.15518389E-04
  3.25587722E-04 -3.23899117E-04 -3.85383727E-03 -5.95648463E-03  1.67803411E-01
 -4.82408470E-03 -7.70825431E-03  3.49202066E-03 -2.55859465E-03  1.57696453E-02
  2.24738182E-02  6.17039709E-03  1.43222046E-03  2.97787744E-02  9.97193734E-03
  7.74234849E-03 -5.08694110E-04  5.64671583E-03 -2.13566867E-02 -2.87450282E-04
  8.76197362E-05 -1.25194286E-02  9.53149203E-03  3.94053306E-03  1.16115393E-02
  3.55741342E-03  1.95552008E-03  5.04288593E-03  8.39074282E-03 -4.68354815E-04
  1.35626250E-02 -2.58159018E-03 -2.91958597E-02 -1.75659047E-03  2.40809781E-02
 -7.34408769E-03 -1.14589376E-02  3.13636191E-04  2.07281323E-02  1.41758658E-02
 -4.30541352E-03  2.59007023E-03  4.61307766E-05  5.80631267E-03 -2.35792359E-03
  1.21085347E-03 -9.48366533E-04 -3.41865607E-04 -1.63533959E-03  1.95057444E-03
  7.11795944E-03  8.22280299E-04 -5.89901076E-04  2.63246254E-04  1.91668166E-03
  4.52221560E-03  1.71924415E-02  1.56955983E-02  1.66218329E-03  6.45221576E-04
  1.29845220E-03  2.04184393E-04 -1.86315877E-03  7.41866816E-03  2.37712273E-04
  1.25167948E-03 -4.49401780E-04  3.26569229E-03  3.67521464E-03  1.41176251E-02
 -5.17444959E-04  1.81757423E-03 -6.59467930E-04 -1.79420509E-02 -2.86825154E-02
  1.87197447E-02 -4.11579096E-02 -3.78078028E-02  8.17367990E-02  2.84933144E-02
 -5.99900948E-02 -5.79464985E-02  6.33036432E-02  3.22111870E-03  1.19394485E-02
 -5.49491301E-02  2.29337376E-02 -2.72055128E-03  1.00262878E-02 -1.83649087E-02
  1.10947518E-02 -1.03689862E-02  2.10540006E-02  2.80835755E-03 -4.03964400E-03
  4.83339712E-03  7.81984646E-03 -1.27012347E-02  2.83819461E-02 -3.46330582E-03
 -2.40976043E-02 -1.85778359E-02  4.14167331E-02 -3.17554965E-03 -4.46563785E-02
 -2.15053602E-02  4.83008175E-02 -4.06226976E-03 -5.81925946E-02 -1.09640749E-02
  1.90889380E-02 -5.64024280E-03 -7.89157887E-04  5.29385817E-04 -1.31518515E-03
 -2.56888138E-04  6.63513576E-06  1.03936610E-02  1.62056326E-02  7.37046975E-03
  1.47991231E-01  1.46492514E-02  2.32251408E-02 -1.41695573E-02  1.85981389E-02
 -6.63299520E-02 -6.53771904E-02 -2.35557869E-02  2.71542260E-02 -1.07920739E-01
 -2.41603893E-02 -1.11986907E-02  1.53390447E-02 -5.31859829E-02 -3.80903533E-02
 -4.69772176E-04 -6.03966264E-03 -6.12432431E-03 -1.55658477E-02 -8.17699137E-03
  5.12482965E-03  6.83143191E-05  1.79877107E-03 -2.13238594E-03 -3.44600017E-03
  2.45826657E-03 -1.19380092E-02  8.61073410E-04  1.22657404E-02  3.64878369E-03
 -1.66590655E-02  6.26671596E-04 -3.32194466E-03  1.12259578E-03 -1.28409053E-02
 -2.71526138E-03  3.18926909E-02 -1.28582379E-03 -9.29473184E-03  2.87237135E-03
  9.59273283E-04 -1.17706963E-03  5.08381927E-03  3.75888062E-04  1.08823342E-03
  8.62753395E-03  1.05838687E-02  1.06186421E-02  1.36315822E-04  5.57205184E-04
 -3.72789735E-03  6.43032787E-03  4.11700608E-03  5.15484961E-03 -1.88616460E-03
  2.76267605E-04 -3.26766856E-03 -5.84212784E-04  1.27008217E-03 -1.90632291E-03
  1.39748123E-04 -1.13242263E-03  3.01578437E-04 -7.89609983E-03 -1.29328944E-02
 -1.51884366E-02 -4.18922250E-04 -8.69717034E-04 -2.00728557E-05 -1.07129008E-02
 -1.69543636E-02  6.71341332E-03 -3.37327100E-02 -1.84857856E-02  5.01595793E-02
  1.06118893E-02 -5.36880387E-02 -2.78240787E-02  1.84211096E-02 -7.22035728E-04
 -7.20091704E-03 -2.28671017E-03  5.20346735E-03  1.08971887E-03 -7.02661000E-03
  4.34007787E-03 -1.30534994E-02 -1.50457681E-03  9.33924536E-03 -8.46155816E-03
 -3.72291948E-03 -4.72958939E-04 -7.96537743E-04  1.40817411E-04  3.46335525E-03
 -7.85830216E-03  2.33390096E-03  5.40444529E-04  3.38488941E-03 -1.12811836E-02
  8.37525696E-03  1.60295398E-03  3.03610104E-03 -1.25650396E-02  8.42842132E-04
 -1.12663690E-04  5.03388606E-03 -7.00167406E-04 -6.33217833E-04 -3.19567505E-04
  6.77282778E-04 -3.23939450E-04 -1.89007646E-04 -4.00304952E-03 -6.19621156E-03
 -3.27788038E-03 -1.25457560E-02  1.18138477E-01 -2.44382109E-03 -3.33666516E-03
  8.16922769E-03 -6.77635166E-03  4.01609777E-02  1.39250101E-03  1.29296382E-02
 -9.58026940E-03  6.26433477E-02 -9.18390713E-02 -3.15566872E-03 -5.50176932E-03
 -1.00028264E-02  1.17150372E-01  5.69230692E-03  2.21221980E-02  1.76792313E-02
  1.78069820E-02  9.85971129E-03 -1.52378293E-02 -2.80258267E-03 -3.30054302E-03
  1.65074243E-03  2.33892691E-03 -3.67878755E-03  6.24468005E-03 -6.48599982E-03
 -5.33248397E-03 -4.62913262E-03  6.51481357E-03 -1.17060235E-02  2.46284219E-02
 -2.79659476E-03 -1.42334530E-02 -7.68887643E-03 -1.03196824E-01 -5.83871399E-03
  2.38850047E-02 -1.27917280E-02 -3.56221019E-03  3.49384586E-04  1.22944277E-03
  4.09205678E-04 -5.19052172E-04 -1.75783473E-02 -1.70696320E-02 -2.08577907E-02
 -1.36239378E-04  5.23645207E-04  1.86009646E-03 -1.42343172E-02 -1.13723545E-02
 -1.32117520E-02  7.64230584E-04  5.76525309E-04  1.35396803E-03 -6.31651247E-04
 -4.71707327E-03  4.04581390E-03  3.71928023E-04  8.42403644E-04 -4.36278934E-04
  4.88237670E-03  3.73101021E-03 -1.52104834E-03  5.59848073E-04 -5.01649132E-05
 -7.59044133E-05 -8.66609997E-03 -1.29634863E-02  9.53163978E-03 -3.36928900E-02
 -2.20576764E-02  2.43198700E-02  1.41980790E-02 -4.93447763E-02 -3.04534751E-02
 -5.37634194E-02 -6.70586172E-03  2.62963265E-02  5.51547105E-02  6.83389294E-03
  1.97561189E-03  7.88433773E-03  7.64019662E-03 -1.35370900E-02 -8.19939367E-03
  2.86503811E-02 -1.34023993E-02 -8.39426807E-03  1.34189661E-03  2.07323334E-03
 -7.57170466E-03  2.40975887E-02  2.33395801E-03 -5.53927093E-03 -1.01806274E-02
  3.20600371E-02  5.08194096E-03  1.17904344E-02 -6.69411784E-03  2.10198866E-02
  1.25784144E-03  2.78364139E-02  3.62724906E-03 -4.85344317E-03 -6.72942883E-03
  4.79360795E-04  3.40311729E-04 -8.76243211E-04  5.40180822E-04  5.10150024E-04
 -1.31840535E-01 -2.23318537E-01  1.64317480E-02 -4.80040912E-02  1.82711015E-02
  6.93130838E-01  5.55882104E-03  8.78659770E-03 -5.83027582E-03  3.09582624E-03
 -1.99695597E-02 -2.09167316E-02 -2.58461673E-03  3.38503387E-03 -3.50457194E-02
 -7.02853642E-02  1.84808427E-02 -1.88971116E-02 -4.01048194E-02  5.77250932E-02
  1.40553752E-02  1.76964207E-02 -9.91705642E-03 -1.38794889E-02  2.30117818E-02
  3.54897266E-03  6.15304641E-03 -2.18689259E-03  3.89185098E-04  7.31553969E-04
 -1.03915453E-03 -1.15958279E-03  2.95031313E-03 -9.32263168E-03 -3.61115128E-03
 -6.25577756E-05  4.05789041E-03  6.50835224E-02 -9.43277835E-03 -1.60090909E-02
  4.06476799E-02 -3.08672661E-02 -1.05257842E-02  1.50818097E-02  1.89337229E-02
  7.62456779E-04  5.43320227E-06 -1.62816722E-03  2.80005396E-03  8.68530816E-04
 -1.44720535E-02 -4.02240971E-02 -6.95662251E-02  4.63585172E-04 -1.20415682E-03
 -1.59004358E-03  2.20674729E-02  6.49525696E-02  5.95109578E-02  6.81909651E-04
  2.56739256E-03  4.08772820E-04  2.05767347E-03 -1.53950159E-03  2.40511342E-02
  8.92714237E-04  6.18999008E-04 -8.52383989E-04 -1.81043719E-03 -9.90745874E-03
  1.05734482E-02 -8.57016642E-04  5.90914030E-05 -1.46483020E-03  7.23081848E-03
  1.14956602E-02  3.44841339E-02  2.81631978E-02  1.44632383E-02 -3.32707515E-02
  5.63435551E-02  4.56924508E-02  2.31301607E-02 -2.63661703E-02  3.68820315E-02
 -1.93162145E-03  5.74642896E-03 -1.32720167E-02  7.93187973E-03 -8.49201275E-03
  4.00579208E-03 -3.03171019E-03 -2.36948054E-02 -1.61821488E-02  1.40804954E-02
 -2.29982430E-02 -1.36040632E-03 -2.39527229E-03 -2.51102190E-02 -1.85778016E-02
 -5.40382062E-04  1.01804376E-02 -3.66215915E-02 -2.70368774E-02 -2.92281894E-03
 -9.68660847E-03 -4.19504430E-02 -2.39037689E-02  1.41512541E-02 -2.75846858E-02
 -1.51471549E-02 -1.10364347E-02  2.44104307E-02  1.88962717E-04  6.09932172E-04
  4.89948341E-04  4.90225035E-04 -5.05932234E-04 -4.28450124E-03 -7.08314149E-03
  2.46236126E-01  1.13116771E-02 -4.48807082E-03  2.10858920E-02  3.61366365E-01
 -7.28400136E-03 -1.15188286E-02  5.45446457E-03 -3.67650662E-03  2.39183787E-02
  3.31811780E-02  9.56033165E-03  2.17271174E-03  4.48678728E-02  1.36172082E-02
  1.16310023E-02 -8.26774174E-04  8.65978482E-03 -2.93144145E-02 -2.95340766E-04
  6.56809138E-04 -1.80820259E-02  1.41824120E-02  5.93651672E-03  1.66873373E-02
  5.13765121E-03  2.77709214E-03  7.45796706E-03  1.24698534E-02 -8.46780220E-04
  1.95537646E-02 -4.61411504E-03 -4.35168226E-02 -2.75383114E-03  3.47313477E-02
 -1.20819857E-02 -1.70610383E-02  3.54780564E-04  2.96248286E-02  1.96350155E-02
 -8.28058188E-03  3.68049443E-03  5.89491295E-04  8.23909433E-03 -3.54705103E-03
  1.87380977E-03 -1.48738087E-03 -5.08918854E-04 -2.41330067E-03  2.52120529E-03
  9.98328906E-03  6.99754735E-04 -8.46714943E-04  4.01279539E-04  2.85447923E-03
  6.16253531E-03  2.46772759E-02  2.26800153E-02  2.42945584E-03  9.54439717E-04
  1.93827117E-03  1.05127012E-04 -3.08752045E-03  1.07923996E-02  3.80919242E-04
  1.84147164E-03 -7.14036380E-04  5.12504991E-03  5.89183458E-03  2.09787446E-02
 -7.41670688E-04  2.62975115E-03 -1.00201938E-03 -2.72233645E-02 -4.29848053E-02
  2.77898315E-02 -6.05875062E-02 -5.58956040E-02  1.20700688E-01  4.22934745E-02
 -8.82353335E-02 -8.56479016E-02  9.20968305E-02  5.31408915E-03  1.63549975E-02
 -7.98144291E-02  3.38910419E-02 -3.81032366E-03  1.43294785E-02 -2.68069130E-02
  1.59843243E-02 -1.49614786E-02  3.00363760E-02  3.83696509E-03 -6.07286567E-03
  6.14300046E-03  1.01440188E-02 -1.84851260E-02  4.14167967E-02 -3.38478184E-03
 -3.20600023E-02 -2.70368916E-02  6.04481674E-02 -2.22172965E-03 -6.17419595E-02
 -3.12529754E-02  7.04732475E-02 -3.97912785E-03 -8.30238682E-02 -1.58009969E-02
  2.74864854E-02 -8.38444570E-03 -1.23134709E-03  8.30561564E-04 -2.00476104E-03
 -3.76797775E-04 -6.41962687E-06  1.18382172E-02  1.96788149E-02  1.12207562E-02
  2.15609925E-01 -1.88637411E-02 -6.30779435E-02  1.71348247E-02  3.14308436E-01
  2.20990787E-02  3.50893575E-02 -2.08708079E-02  2.70148836E-02 -9.78862273E-02
 -9.88291327E-02 -3.46894798E-02  3.93280757E-02 -1.59407783E-01 -3.71891425E-02
 -1.63218578E-02  2.18776581E-02 -7.82750324E-02 -5.67176787E-02 -7.04290775E-04
 -8.86101646E-03 -9.21082639E-03 -2.31508521E-02 -1.20127688E-02  7.53994408E-03
  1.33747826E-04  2.61249859E-03 -2.98413737E-03 -4.86930173E-03  3.53695340E-03
 -1.71717759E-02  1.48888035E-03  1.75879807E-02  5.28474818E-03 -2.39652590E-02
  1.36013737E-03 -4.88215749E-03  1.66904430E-03 -1.88978872E-02 -3.95500375E-03
  4.72508383E-02 -1.86028974E-03 -1.36677212E-02  4.34182522E-03  1.70235891E-03
 -1.62797902E-03  7.36386344E-03  6.49682785E-04  1.64237900E-03  1.23903859E-02
  1.50761641E-02  1.54513030E-02  2.66792655E-04  7.45521921E-04 -5.53629165E-03
  9.20669607E-03  5.85736210E-03  7.86574613E-03 -2.85196027E-03  3.57816853E-04
 -4.82295734E-03 -9.66222193E-04  1.67849683E-03 -2.95777648E-03  2.03668611E-04
 -1.63851055E-03  4.43069501E-04 -1.14823191E-02 -1.86186206E-02 -2.17907413E-02
 -6.11374853E-04 -1.27756199E-03 -1.49377673E-05 -1.63409304E-02 -2.57680564E-02
  9.95770877E-03 -4.91666416E-02 -2.71513740E-02  7.59505928E-02  1.57699603E-02
 -7.82716323E-02 -4.10010673E-02  2.83374931E-02 -5.03561101E-04 -1.20408796E-02
 -3.94995020E-03  7.87383263E-03  1.76114902E-03 -1.10306416E-02  6.28530217E-03
 -1.90805366E-02 -2.14593187E-03  1.25103349E-02 -1.24755982E-02 -5.46871727E-03
 -1.16035149E-03 -1.82694095E-03  1.66652568E-03  3.17553671E-03 -1.12812387E-02
  5.08189863E-03  2.92292759E-03  2.22176339E-03 -1.62631643E-02  1.34326827E-02
  4.21395071E-03  2.21831849E-03 -1.80661115E-02  1.77929158E-03  9.44848036E-05
  6.97106417E-03 -7.14798598E-04 -1.00685386E-03 -4.85286660E-04  9.91178009E-04
 -5.27124244E-04 -3.98628415E-04 -4.24218202E-03 -7.11743930E-03 -3.82433903E-03
 -1.93848509E-02  1.74048730E-01  2.31702698E-02 -5.13674280E-03 -2.90832185E-02
  2.56543116E-01  2.80969586E-03  5.63513863E-03  3.90384989E-03  6.22990044E-03
  2.32925959E-02 -2.29778546E-02  6.15110737E-03  8.65522602E-03  3.38293073E-02
 -1.01414711E-01 -4.54901242E-03  6.35879437E-03 -2.43655516E-02  1.00778078E-01
  6.63467234E-03  1.78447929E-02  1.43741510E-02  9.57514953E-03  9.49375230E-03
 -1.58993316E-02 -3.36061886E-03 -3.33183396E-03 -1.42635437E-03 -1.95724006E-03
 -5.41419971E-03 -1.46754001E-03 -9.20025176E-03  5.65012181E-03 -6.65567800E-03
 -4.09647853E-03 -1.55916830E-02  3.75036749E-02 -4.64330096E-03 -2.14255700E-02
 -5.72860211E-03 -7.37580598E-02 -6.76441487E-03  1.82139051E-02 -6.27538797E-03
 -4.12228234E-03  2.06098453E-03  4.09971034E-03 -2.33477712E-04 -3.79969872E-04
 -2.26308552E-02 -2.79790480E-02 -2.93255634E-02  7.57105179E-04  5.44696469E-04
  9.70270906E-05 -1.59302752E-02 -1.41641846E-02 -1.28956067E-02 -7.70779919E-04
  8.41149492E-04  4.74261765E-04 -3.58136116E-03 -1.19591890E-02 -3.67111156E-03
  7.38140609E-04  5.70570670E-04 -6.91061190E-04  5.87525216E-03  4.23489541E-03
 -2.04576024E-03  5.66825070E-04 -9.86888164E-04 -1.61635173E-04  5.32903178E-03
  1.03745504E-02  6.81880760E-03 -8.35622205E-03 -5.28793336E-03 -4.46246930E-02
  1.07912090E-02 -1.15539815E-02 -3.62620854E-03 -9.07752540E-02 -6.10733820E-03
  3.68679621E-02  7.40769523E-02 -9.11414324E-03  1.61288932E-03  9.09668800E-03
  1.77169225E-02 -2.02184773E-02 -1.20592531E-02  2.71444729E-02 -1.22679395E-02
 -6.83671221E-03 -2.28069349E-03 -3.69275099E-03  5.90551563E-03  4.46562021E-02
  8.37515983E-03  1.17902849E-02  9.68715809E-03  6.17417762E-02  1.34325126E-02
  3.11067282E-02  1.30676493E-02  4.42642619E-02  9.92621582E-03  2.90729406E-02
  7.11968698E-03 -4.54119825E-03 -5.27186211E-04  1.77431158E-03  3.09410580E-04
 -1.21941510E-03  2.52962458E-03  2.61506532E-04 -1.39824434E-01 -2.14630894E-01
  3.68946845E-02 -8.14818511E-02  2.78750602E-02  5.97290152E-01  5.16725231E-02
 -1.13584992E-01  3.75079242E-02  5.51378709E-01  3.99358420E-03  6.41479278E-03
 -1.35796802E-02  2.99916725E-04 -1.44165048E-02 -1.54114799E-02 -1.41090885E-02
 -5.22157850E-04 -2.58419000E-02 -6.08256706E-02  8.51415562E-03 -1.91492161E-02
 -3.25383512E-02  4.55909366E-02  1.19287829E-02  1.44267901E-02 -9.29701104E-03
 -1.18446208E-02  2.16598106E-02  3.71099097E-03  6.16239705E-03 -1.25035549E-03
  6.02002890E-04  1.21047734E-03 -4.81590032E-04  9.20501808E-04  3.43045001E-03
 -1.07147128E-02 -2.89671071E-03  2.84915056E-03  4.76940834E-03  5.66400672E-02
 -7.82436562E-03 -1.17426823E-02  3.79845314E-02 -2.15593827E-02 -8.98277144E-03
  1.20379953E-02  1.77583329E-02  6.52826282E-04 -5.80710603E-04 -2.16292181E-03
  2.81675955E-03  1.52256647E-03 -1.81743421E-02 -4.31556172E-02 -6.55006941E-02
  4.64907383E-04 -1.56926431E-03 -1.56986488E-03  2.74424361E-02  6.94879253E-02
  5.94409083E-02  1.20834364E-03  2.67136254E-03  7.29375857E-04  3.41980897E-03
  2.22355953E-03  2.48972141E-02  7.25194368E-04  6.30426615E-04 -6.89459178E-04
 -2.32869320E-03 -1.02146153E-02  8.80362411E-03 -7.65311318E-04  2.20848562E-04
 -1.32299338E-03  4.86129718E-03  7.45490081E-03  2.58912786E-02  2.12798460E-02
  9.79457517E-03 -2.10553800E-02  4.27314637E-02  3.50689268E-02  1.59036215E-02
 -1.82764168E-02  2.78541657E-02 -4.15748458E-03  1.35124358E-05 -1.12853477E-02
  5.58953073E-03 -8.66298195E-03  2.32269684E-03 -1.44516558E-03 -2.22018329E-02
 -1.47656156E-02  1.33026213E-02 -2.16742003E-02 -8.53024278E-04 -1.46723074E-03
 -2.86782142E-02 -2.15052303E-02 -1.60282619E-03  6.69394175E-03 -4.19505866E-02
 -3.12528195E-02 -4.21374555E-03 -1.30671438E-02 -4.60016056E-02 -2.66298426E-02
  1.14614093E-02 -2.90427299E-02 -1.42625727E-02 -9.42659941E-03  2.21072406E-02
 -2.52833900E-05  4.25861181E-04  4.47531594E-04 -1.42031408E-04 -5.18683132E-05
 -3.99204841E-03 -7.07183683E-03  2.22936667E-01  1.82892723E-02 -6.30868173E-03
  2.23731167E-02  3.26993652E-01  2.73420660E-02 -7.96298714E-03  4.41441502E-02
  2.98451068E-01 -6.90209348E-03 -1.09859201E-02  3.44202046E-03 -6.18148590E-03
  2.32551460E-02  3.23769461E-02  6.72377505E-03 -2.83230353E-03  4.27523009E-02
  1.14947258E-02  9.29450944E-03 -2.67947023E-03  7.39107734E-03 -2.12876076E-02
  7.10654224E-04 -4.38845503E-05 -1.49582478E-02  1.18238966E-02  6.65161493E-03
  1.29194466E-02  4.87877528E-03  2.21105463E-03  6.76737433E-03  1.11631800E-02
 -9.87492886E-04  1.98139933E-02 -4.36388252E-03 -3.83917407E-02 -2.71655819E-03
  3.45913373E-02 -1.10839074E-02 -1.15558434E-02  1.72818049E-05  2.81241630E-02
  1.86617494E-02 -5.16651878E-04  2.47237258E-03  2.89516670E-04  9.62813448E-03
 -3.68050101E-03  1.78834248E-03 -1.62588095E-04 -3.39034155E-04 -2.10529095E-03
  3.32013479E-04  4.62707118E-03 -5.10546820E-03 -7.84726857E-04  1.70815433E-04
  2.45902675E-03  7.67971553E-03  2.54750375E-02  2.10875371E-02  2.25754402E-03
  8.96870755E-04  1.86197223E-03  5.25861321E-04 -2.94424846E-03  8.68326545E-03
  3.85553852E-04  1.79016493E-03 -6.93108012E-04  5.13818362E-03  5.40600424E-03
  1.81286619E-02 -5.46386002E-04  2.29366927E-03 -9.15889896E-04 -1.57701960E-02
 -2.47494086E-02  2.13038325E-02 -4.28679988E-02 -3.68497932E-02  6.88423376E-02
  3.25747620E-02 -6.17448968E-02 -5.60896278E-02  5.87067302E-02  2.84746861E-03
  1.93763033E-02 -5.61382706E-02  1.97610891E-02 -4.00504367E-03  1.39691838E-02
 -1.82194657E-02  1.22115999E-02 -1.48516654E-02  2.61256460E-02  4.96538039E-03
 -4.90031455E-03  3.70147842E-03  6.39089332E-03 -1.63781449E-02  4.83008812E-02
 -3.03604151E-03 -2.10198153E-02 -2.39037059E-02  7.04732666E-02 -2.21833723E-03
 -4.42643669E-02 -2.66299049E-02  7.38982648E-02 -2.09898960E-03 -6.87495506E-02
 -1.27532910E-02  2.20010155E-02 -4.77187756E-03 -1.31408858E-04  6.21626883E-04
 -1.90693119E-03  7.39986009E-04  4.64089522E-04  9.89475732E-03  1.81170799E-02
  2.05085347E-02  1.73350689E-01 -2.77227053E-02 -6.27442826E-02  3.06773991E-02
  2.52330120E-01 -4.21254275E-02 -9.32557664E-02  3.66454135E-02  2.08509538E-01
  1.20151418E-02  1.86998007E-02 -1.52235834E-02  2.46026516E-02 -6.74986394E-02
 -5.23246724E-02 -2.52136346E-02  3.59610634E-02 -1.09520890E-01 -9.44851532E-03
 -1.36253774E-02  2.29159495E-02 -5.12888965E-02 -3.83183597E-02 -9.46472540E-04
 -7.37801793E-03 -3.77333129E-03 -1.61244163E-02 -9.38876857E-03  4.71183132E-03
 -9.04172716E-04  2.07530021E-03 -3.19653434E-03 -5.63897166E-03  4.68209465E-03
 -2.03390578E-02  4.65389790E-03  2.08380001E-02  6.54205303E-03 -2.95092048E-02
  6.58354416E-03 -4.74685991E-03  2.39083687E-03 -1.81298693E-02 -1.74662507E-03
  3.49715976E-02 -1.34798231E-03 -1.10117385E-02  1.34128467E-03  4.24704837E-04
 -2.97126406E-03  5.59801467E-03 -5.03206498E-04  1.26190727E-03  9.62427179E-03
  1.15395275E-02  1.31169787E-02 -6.19869708E-06  9.98384451E-04 -3.87340128E-03
  7.24482851E-03  2.15418155E-03  2.02604024E-03 -1.81125354E-03  5.35240820E-04
 -3.41206342E-03 -2.46371317E-04  3.56312151E-03 -1.03327166E-03  1.43455383E-04
 -1.78736360E-03  6.36465516E-04 -1.36958981E-02 -2.19324937E-02 -2.34309103E-02
 -7.05756829E-04 -1.10630390E-03 -3.46134063E-05 -7.34592393E-03 -1.09218517E-02
  2.90179376E-03 -2.95149903E-02 -1.44505183E-02  2.99074570E-02  4.56661510E-03
 -4.80351254E-02 -2.12339922E-02  5.31223802E-03 -4.41283356E-03 -1.64463146E-03
  2.70667436E-03  2.33676358E-03  5.46484991E-04 -4.72408978E-03  5.99593955E-03
 -1.34685938E-02  7.28542691E-04  1.26904451E-02 -7.96306722E-03 -3.27143592E-03
  6.91580724E-05 -2.05195823E-04 -9.92550155E-03  4.06247157E-03 -1.25649447E-02
  1.25791393E-03 -1.41513913E-02  3.97945386E-03 -1.80659136E-02  9.92642105E-03
 -1.14614500E-02  2.09924273E-03 -1.84856613E-02  1.82232737E-03 -1.73585565E-03
  6.07342868E-03 -2.06235440E-03 -1.76172573E-04 -4.27879175E-04  1.33333933E-03
 -5.59899339E-04  4.90682658E-04 -2.70334465E-03 -5.16185077E-03 -1.19091158E-02
 -2.37019245E-02  1.18890064E-01  1.90554414E-02 -1.70848324E-02 -3.55329196E-02
  1.74716701E-01  3.33578414E-02 -1.84721941E-02 -4.02382144E-02  1.24523647E-01
  2.05738163E-02  2.49006340E-02 -1.38672861E-02  9.30007913E-03 -2.04303780E-02
 -4.36953705E-02 -2.14347768E-02  1.38559935E-02 -3.46799339E-02 -3.87695512E-02
 -1.21889149E-02  1.19894670E-02 -3.21045905E-02 -2.05595325E-02  1.88228311E-03
 -7.06942160E-03 -5.02986730E-03 -6.85557721E-03  7.71429948E-04 -1.80898857E-03
  3.78687429E-04  2.53462615E-04 -4.30029996E-03 -4.94069108E-03 -8.34687181E-03
  4.14750937E-03 -4.89482045E-03  8.87591573E-03 -1.14290020E-02  8.21726630E-03
 -8.20291479E-03  1.68042535E-02 -7.05855173E-03  1.93342320E-03  3.69367334E-03
  4.32966023E-02 -2.29522609E-03 -7.91817708E-03  1.09814055E-02 -1.45885140E-03
  3.01259010E-03  7.03589032E-03 -2.85373411E-04 -1.53323294E-04 -1.16933873E-02
 -1.77303799E-02 -1.39522322E-02  9.42418228E-04 -3.89014598E-04 -2.40836973E-03
  3.32006178E-03  5.89004255E-03  2.64108419E-03 -1.42429486E-03  5.67327846E-04
 -1.01842644E-03 -5.39464914E-03 -1.27658606E-02 -1.18589876E-02  4.57419828E-04
  6.21602821E-04 -4.39294609E-04  7.77672629E-03  8.34512009E-03  1.21968375E-03
  4.95584821E-04 -9.29301817E-04  3.34191574E-04  2.09276015E-02  2.71080057E-02
 -3.72896979E-03  1.04443892E-02  1.89273716E-02 -5.79354482E-02 -4.83171806E-03
  1.52997013E-02  2.95041757E-02 -4.99671986E-02 -9.59978166E-03  2.88833920E-02
  3.57100448E-02 -2.08077308E-02 -3.34615192E-03  6.42347826E-03  1.67695139E-02
 -1.18964752E-02 -1.24881395E-02  1.66774082E-02 -3.11836342E-03  5.72598941E-04
 -7.86870156E-03 -1.10611741E-02  1.84620954E-02  5.81923150E-02  8.42695434E-04
  2.78362438E-02  2.75855734E-02  8.30235053E-02  1.77906578E-03  2.90728283E-02
  2.90435314E-02  6.87492574E-02  1.82227509E-03 -9.30123296E-03  6.60157294E-03
  5.49641565E-03  6.95510735E-03  2.98822041E-03 -1.42152121E-04 -1.43443650E-03
  3.73204144E-03  2.32126032E-04 -3.20027241E-03 -7.60636723E-03  2.00945823E-02
 -2.91411741E-02  3.49872856E-02  3.29385775E-02  2.96382660E-02 -4.38702578E-02
  5.04123989E-02  7.55712849E-02  2.14119060E-02 -2.33915282E-02  4.04709872E-02
  8.36558850E-02 -1.40279363E-03 -1.53874976E-03 -1.57287543E-02 -1.70449818E-03
  3.80355744E-03  2.01443403E-03 -2.18073471E-02 -2.79471178E-03  5.40204766E-03
 -2.90099210E-03 -1.32417902E-02 -3.58051800E-03  2.77420800E-03 -6.74137622E-03
 -1.10182850E-04 -1.29017927E-03 -1.27386655E-03 -1.03880734E-03  3.59495564E-03
  5.44974860E-04  1.25382145E-03  1.03300325E-03  3.87784502E-04  5.52671125E-04
  1.34033842E-03  8.36554115E-04  9.66910178E-04 -2.25716862E-03  1.36301566E-03
  1.20019683E-03  1.49700664E-03  4.91230963E-03  1.05615430E-03  5.18113041E-04
  5.31325560E-03  1.02178036E-02  3.87113255E-05 -1.81691443E-03  3.01993263E-03
 -1.04067072E-04 -7.75506386E-04 -1.41977603E-03  6.30443046E-04  1.58624282E-03
 -1.18650589E-02 -1.84096717E-02 -1.25163171E-02  3.17277971E-04 -9.57326867E-04
 -6.01424556E-04  1.44575639E-02  2.34954605E-02  1.47322050E-02  8.61605490E-04
  9.02488778E-04  6.05982377E-04  3.03814931E-03  5.95105251E-03  6.75689860E-03
 -3.04724481E-05  4.06930379E-05  3.85236544E-05 -1.75558045E-03 -3.58975886E-03
 -6.25098209E-04 -6.50616253E-05  1.11770617E-04 -1.86691651E-04 -1.24478398E-03
 -1.45452089E-03 -8.02064856E-03 -2.80575911E-04 -1.95711078E-03  2.14785867E-03
 -1.20986166E-02 -4.40186319E-05 -2.63004042E-03  1.61512704E-03 -6.77952191E-03
 -5.05707353E-03 -5.36029573E-03 -1.93389240E-03 -2.06068289E-03 -3.21204556E-03
 -6.40027168E-04  1.10420458E-03 -3.48291403E-03 -3.75586848E-03  2.37715987E-03
 -3.26489015E-03  9.95144183E-04  1.43777421E-03 -1.02249625E-02 -1.09640792E-02
  1.12753956E-04 -3.62741991E-03 -1.51473005E-02 -1.58010022E-02 -9.43443425E-05
 -7.11971321E-03 -1.42627160E-02 -1.27533168E-02  1.73594891E-03 -6.60137171E-03
 -1.38303591E-03 -9.09113642E-04  3.10355378E-03 -3.42082809E-04 -2.13433175E-04
  8.98251292E-05 -8.61651745E-04  5.91403675E-04  1.26157345E-05  6.21913628E-05
  2.48714374E-02  5.73921382E-03 -4.92854210E-03 -6.32909708E-04  3.61968889E-02
  8.49040855E-03 -7.01606140E-03 -2.67509671E-03  3.65593940E-02  8.06474070E-03
 -6.74085650E-03 -3.68289012E-03  1.01077775E-02  2.30665553E-03  2.30142989E-03
 -4.09736322E-03 -1.25530210E-02 -3.53186144E-03 -2.22684819E-03 -5.94267610E-03
 -1.81031431E-02 -4.95870288E-03 -1.45167683E-03 -3.03957089E-03 -9.17690537E-03
 -6.63726772E-03 -2.93105847E-03  1.08749967E-03 -2.69586462E-03 -5.82363752E-04
  1.42068531E-04  7.72449149E-04  5.16618791E-04  2.18524424E-03  2.96414434E-04
  8.95595111E-04  2.29960938E-03 -1.84823744E-03  1.42815285E-02 -1.24177933E-03
 -9.53749117E-03 -2.91301870E-03  2.22229813E-02 -2.58101918E-03 -5.72678810E-03
 -2.24443337E-03  1.46570343E-02  1.30613058E-03  1.45980802E-02 -1.07531770E-03
 -1.73037573E-03  3.99056616E-03 -6.31721881E-04 -3.13440987E-04  2.08525329E-03
  1.17083598E-03 -2.87267630E-04  2.67085445E-03  3.42728685E-03 -1.38315753E-03
 -5.96230997E-04 -4.78044792E-04  3.08812877E-05  8.14401444E-03  1.27195695E-02
  5.98295168E-03  7.26083121E-04 -1.56144084E-04  1.28342207E-05  1.87040325E-03
  3.14847654E-03  2.33867133E-03 -1.55416528E-04  7.10637317E-04 -6.73008214E-05
  3.45631358E-03  3.57214571E-03  1.13412361E-04  3.14647983E-04  5.71688196E-04
  1.34364371E-04  5.80486219E-03  6.59920918E-03 -1.19498051E-03 -3.15913219E-03
  5.94504001E-03 -9.93628794E-03 -1.77399544E-03 -4.78290857E-03  8.61002901E-03
 -8.24925072E-03 -4.28899801E-03  7.88263989E-03  5.15993200E-03 -9.01292885E-03
 -1.71471123E-03  3.05266802E-03  4.71320181E-03 -1.26721465E-03 -3.28507563E-03
  6.81032260E-03  1.03704104E-03 -8.25249929E-04 -1.25576003E-03 -1.79816098E-03
 -7.62577397E-03  1.90889644E-02 -5.03383752E-03  4.85349385E-03 -1.10364532E-02
  2.74865353E-02 -6.97100023E-03  4.54127279E-03 -9.42662237E-03  2.20010470E-02
 -6.07335387E-03 -5.49638601E-03 -9.09092588E-04  2.17839188E-04  1.32885513E-03
  1.12755684E-03 -2.69404973E-05 -6.52655948E-04  9.88309533E-04  9.50351005E-04
 -3.14724788E-04 -3.23081730E-04  6.59512474E-03  8.15473264E-03  6.09983954E-04
  8.87015641E-04  9.69526603E-03  1.14278109E-02  4.37669749E-04  6.40823066E-03
  9.06347808E-03  1.39452806E-02  9.23111038E-04  1.63068137E-02  7.85931064E-04
  8.40392345E-03 -8.24440283E-03 -9.97994234E-03  7.09719937E-03 -5.35732009E-03
  3.57721118E-03  1.76864022E-02  1.04149489E-02 -7.69086638E-03  6.98183105E-03
  1.75609354E-02  5.86065881E-03 -2.36127560E-03  5.91461009E-03  1.04885316E-02
  5.64858309E-04  6.33166275E-04  3.72826072E-03  2.39425574E-03 -1.00730975E-03
 -3.79696819E-04  2.57660502E-04  1.94712682E-05  1.51025181E-03  2.36523756E-03
  5.19916773E-03  1.88715287E-03 -1.46433075E-03 -6.14409941E-03  7.30087513E-03
  2.82920023E-03 -2.92387649E-03 -1.05821578E-02  3.61855627E-03  4.53219375E-03
 -4.14184947E-03 -5.52212908E-03 -2.47870352E-04  1.19602974E-03 -2.32483262E-03
 -1.80933021E-03 -1.77647504E-03  1.22140482E-04  2.27751242E-04 -4.63114849E-04
  8.04032093E-03  1.13594697E-02  5.99374487E-03 -7.21576299E-04  4.84891585E-04
  8.48676264E-04 -1.51528457E-03 -3.71295739E-03 -3.51116631E-03  4.79500610E-04
 -3.68050563E-04  7.25574214E-05  4.32968167E-03  7.93243440E-03  4.50072034E-03
 -1.73198910E-04 -2.36071680E-04  1.06026734E-04 -3.80726672E-03 -6.23134369E-03
 -6.05165141E-03 -1.28135427E-04  5.37108935E-04 -3.39546351E-04  3.38090718E-03
  4.83432116E-03 -7.84083804E-04 -2.16019534E-03  3.43725757E-03 -1.23521404E-02
 -1.68696630E-03 -3.45651141E-03  5.15177139E-03 -7.05108575E-03 -1.53620322E-03
  2.45973895E-03  1.71093229E-03 -3.89146981E-03 -1.68554793E-04  3.19589232E-03
  1.45780443E-03  6.17317648E-04  3.46666074E-03  3.06415085E-03  1.16956875E-03
  1.45109795E-04  3.31102241E-03  3.91351922E-03 -1.66613075E-02  5.64045071E-03
 -7.00101467E-04 -6.72921506E-03 -2.44108734E-02  8.38474124E-03 -7.14699782E-04
 -5.26998942E-04 -2.21076495E-02  4.77212054E-03 -2.06231499E-03  6.95502250E-03
 -3.10363145E-03 -1.32882197E-03 -3.36190053E-03  2.27986681E-04  9.39113489E-05
  1.89207496E-06  8.67586226E-05  1.19269205E-03 -6.71004189E-04 -8.59732911E-04
 -1.14499504E-02  2.23350733E-03 -1.01966099E-02  1.88545967E-03 -1.67604333E-02
  3.21636734E-03 -1.54515612E-02 -2.07466603E-03 -1.53699474E-02  3.55612160E-03
 -7.81575626E-03 -5.99640260E-03 -2.48430028E-03  1.33459563E-03  5.58138885E-03
 -1.64881826E-03 -2.43618757E-03  1.65714143E-03 -1.47115257E-03  1.73551014E-03
  6.21750724E-03  2.55388808E-03 -2.22491048E-03  2.97154743E-03  2.43828915E-03
  1.54526931E-03 -1.46365948E-03  1.02701468E-03  4.78742364E-03  3.56732626E-04
  7.18331078E-04  7.43845810E-04  4.45011187E-04  3.31050198E-04 -6.20430960E-04
 -3.29659205E-05 -2.58610818E-04 -8.98968460E-05 -1.09550793E-04 -7.72852189E-05
  9.06487639E-05  4.30872097E-04  1.78302203E-04 -9.55763204E-05 -2.86429008E-05
  7.37482896E-04  6.67997297E-04 -1.23600940E-04 -2.70678020E-04  1.94561326E-04
 -3.04896163E-03 -2.23108657E-04  1.02826550E-03 -2.48631264E-04 -2.42985647E-05
 -6.24135026E-05  6.83210547E-05 -9.45064514E-05 -1.18206002E-04  1.42756361E-03
  1.68199512E-03 -5.11222496E-04 -1.88417330E-04  8.94988526E-05  2.58278360E-04
 -8.95256137E-05 -7.47470282E-05 -7.83729219E-04  1.87898244E-04 -1.49541914E-05
  9.92403314E-05 -1.73767552E-04 -4.11582068E-04 -2.48801193E-04  7.78595461E-06
  1.69979311E-05  5.10529895E-06 -6.13222791E-05 -8.78718346E-05  3.41051082E-05
  9.66673739E-06  6.64458384E-06  2.76834825E-06  8.20881761E-04  1.31865376E-03
 -1.63705382E-04  9.90055638E-04  3.84978428E-03 -3.77255579E-03 -2.52882732E-04
  1.57547653E-03  5.66702816E-03 -2.93683817E-03  2.85881585E-04 -7.60446518E-04
  3.54639327E-03 -9.73282143E-04  1.47484399E-04 -1.46084600E-04  5.49840687E-04
  2.64398993E-04  1.92494573E-04 -9.22033995E-04  3.40596095E-04  1.66624280E-04
 -1.47490612E-05 -7.21715449E-05 -1.23419822E-04  7.89154732E-04 -6.33221650E-04
  4.79363335E-04 -1.88956210E-04  1.23134324E-03 -1.00685966E-03  1.77432709E-03
  2.52955978E-05  1.31407334E-04 -1.76185779E-04  2.98825178E-03  3.42079476E-04
 -1.12755708E-03  2.27970574E-04  1.50585094E-04 -3.70267228E-05  1.02119727E-04
  1.70596819E-04  8.65987567E-05 -1.45755447E-03 -2.30729428E-03  1.31049834E-03
 -4.14736922E-03 -4.60843052E-03  6.62280161E-03  1.87322608E-03 -5.94154335E-03
 -6.79567797E-03  6.05036623E-03  1.49685987E-03 -4.22451926E-03 -4.39870228E-03
 -7.88212332E-04 -7.78110370E-06 -4.36005174E-05  6.36394674E-04  5.33474833E-04
 -9.28625444E-04 -1.40380125E-03 -3.19613464E-03 -6.29336913E-04  2.80724459E-03
  3.66930841E-03 -4.58542938E-03 -9.16839327E-04  4.52824828E-03  2.30883006E-03
 -3.67154605E-03 -2.82328067E-04  2.57552845E-03  2.86945317E-03 -5.88409062E-04
  4.52658203E-04  6.22679335E-04  4.87044384E-04  2.83025062E-04 -2.77023344E-04
  1.98131410E-05  2.55414970E-04  1.96590016E-05  5.25635660E-05 -5.16991051E-05
  1.61523437E-04  7.19437394E-05 -2.41754031E-04 -1.11331568E-04  1.81435208E-04
  1.08162856E-04 -4.58336057E-04  2.26318372E-04  4.28733665E-04 -3.12015210E-05
 -2.03630092E-03  2.25023304E-04  5.15685983E-04 -2.56883304E-04 -1.21497788E-04
  3.56775964E-05 -1.46362884E-04 -6.69275592E-05  2.60778567E-04 -2.37374189E-03
 -3.04040558E-03 -1.01701721E-03  1.67159195E-05 -1.44021097E-04 -5.72443851E-08
  2.53401641E-03  3.21657688E-03  3.42914669E-04  2.40131103E-04  1.52599821E-04
  2.01419125E-04  1.60214385E-04  3.77419141E-04  5.52770077E-04  1.02882014E-05
  3.42750351E-05  5.44387038E-06 -3.35451644E-05 -6.23579803E-05 -1.12132830E-04
  1.15838696E-05  9.14845285E-06  9.15319490E-06  5.81950723E-04  8.86000610E-04
  1.25299911E-03  1.53520598E-03  6.03997119E-04 -2.54855042E-03  1.92457794E-03
  2.40509843E-03  9.71626792E-04 -1.40841654E-03  1.43037853E-03  1.12138139E-03
  2.86703732E-04 -8.47944791E-04  2.44418767E-04  5.77299293E-04  1.91577764E-04
  3.53981345E-04  5.68679764E-04  1.03177606E-04  1.69302714E-04  3.13652751E-04
  6.19008663E-05  1.01583042E-04  4.08102292E-04  5.29387343E-04  3.19567212E-04
 -3.40315238E-04  6.09932993E-04  8.30563956E-04  4.85283242E-04 -3.09422323E-04
  4.25853522E-04  6.21628692E-04  4.27890982E-04  1.42141194E-04 -2.13443063E-04
 -2.69385024E-05 -9.39090245E-05  3.70253685E-05  5.13811578E-05 -3.73772804E-07
  7.18933867E-05 -4.00162757E-05 -3.49144995E-05 -2.56202979E-05 -1.90800043E-03
 -8.07215009E-05 -3.67729705E-03 -5.49546776E-05 -2.82818609E-03 -1.15403089E-04
 -5.45882357E-03 -3.99214063E-04 -2.35277107E-03  2.78244270E-04 -3.37782947E-03
 -7.60344200E-04  1.06594704E-04  4.33316320E-05  3.86289157E-04  1.06627731E-04
  3.49202756E-04  1.52919846E-03  2.36103680E-03 -1.11883946E-03 -2.51890119E-03
 -5.33471093E-03 -6.55553985E-03 -1.85824917E-03 -3.85396963E-03 -8.64786803E-03
 -3.20251283E-03 -9.26346768E-04 -2.55050163E-03 -4.39607007E-03 -7.79594220E-04
  2.48267353E-05 -1.59725242E-04 -9.58131488E-05 -9.83249670E-04 -6.40960963E-04
  2.32939090E-04  4.01921457E-04  7.18458405E-05  5.12617765E-04  7.87790454E-04
 -1.16205538E-04  2.48064983E-03 -2.84417716E-04 -2.00206182E-03 -1.31536880E-04
  3.71973690E-03 -4.74779927E-04 -2.22651907E-03 -1.84366526E-04  1.74691858E-03
 -1.04920799E-03  1.09602998E-03 -2.26259252E-04 -1.15567713E-04  8.25550160E-05
  3.13102304E-04 -5.13238152E-05  3.27210232E-04  4.29464521E-04  8.13536558E-05
  1.77918615E-03  2.49405522E-03  1.48895388E-03 -1.22139281E-04 -1.08471344E-04
 -2.00474595E-04  1.49617242E-03  1.82766857E-03  9.34253043E-04 -2.48167840E-06
 -1.25698149E-04 -2.38606307E-04  3.89849770E-04  9.41127570E-04  5.19644607E-04
 -4.77479456E-05  8.01195064E-05  6.15742825E-06  3.87194539E-04  5.85760437E-04
 -4.02720220E-04  5.85677590E-05  6.92054348E-05  4.97959251E-05 -2.10832222E-03
 -3.04086954E-03  1.10687103E-03 -3.17334547E-03 -1.61338306E-03  8.12864904E-03
  1.72114072E-03 -4.97602139E-03 -2.63095714E-03  3.63403472E-03  7.21500715E-04
 -1.81282772E-03 -4.82072670E-04  8.74266934E-05  3.21169132E-04 -9.90169554E-04
  4.87602140E-04 -9.73264081E-04  2.24627319E-04 -2.60207130E-06 -7.55767472E-04
 -3.59259312E-04 -1.86793587E-04 -2.90095591E-04  3.15518861E-04 -1.31519095E-03
 -6.77288006E-04  8.76240308E-04  4.89942767E-04 -2.00476369E-03 -9.91180174E-04
  1.21942652E-03  4.47531662E-04 -1.90693813E-03 -1.33335521E-03  1.43446896E-03
  8.98217424E-05 -6.52654275E-04 -1.90484339E-06 -1.02119069E-04 -3.75863729E-07
 -6.91313257E-05 -5.85015178E-05 -4.89044127E-05 -1.00775439E-03 -1.67374667E-03
 -3.66479497E-04 -1.41561003E-03  8.87396128E-03  5.14319753E-03 -5.53834833E-04
 -2.00624795E-03  1.31451095E-02  3.96108684E-03 -5.04561812E-04 -2.97327991E-03
  8.27799130E-03  9.27206626E-04 -2.81977203E-04  1.38565999E-04 -7.26894262E-04
 -2.48143730E-04 -2.79856153E-04  9.57190002E-04  1.87564356E-04  2.47443689E-04
 -9.23330487E-04 -5.50250528E-04 -6.35827876E-04 -6.13778339E-04 -1.48201181E-03
 -1.11078982E-03 -1.20399834E-03  1.51967256E-03 -1.45386322E-03  1.38187061E-05
  4.10677790E-04 -9.58502312E-04 -1.62350702E-04 -8.27951896E-04  9.11113134E-04
 -4.24895058E-04 -5.56621794E-04 -7.48269711E-04 -1.67598102E-04 -3.37061718E-06
 -2.16419959E-04 -3.36614274E-04  1.55116243E-04 -1.20728212E-04  1.27921921E-04
  1.34119088E-03  2.81322938E-04 -3.57046968E-04  3.56494955E-04 -8.79213792E-04
  1.41609312E-04 -1.75834430E-05 -1.28406477E-03  3.30842242E-03 -2.48405058E-05
 -7.35870449E-04 -2.66153336E-04 -2.60961092E-05 -2.01185504E-04  2.37740684E-04
  3.70677717E-05  1.19960867E-04 -1.09744097E-04 -2.15698045E-04  7.46089073E-04
  8.97799508E-06 -4.61902860E-05 -1.18602381E-04  3.18211140E-04 -8.06658762E-04
 -1.26013168E-03 -5.36866683E-05 -6.53969617E-05 -6.78527532E-05  2.37638384E-04
  7.08053683E-04 -5.41502738E-04 -3.20184796E-05 -6.41772666E-05  5.15042769E-05
 -3.06261581E-04 -4.42876230E-04 -1.49336962E-03  4.56252220E-05 -7.00052652E-05
  5.25290366E-05  1.87646976E-03  2.68858789E-03 -2.83256311E-03  2.03509392E-03
  3.81361919E-03 -6.56876769E-03 -4.40191826E-03  2.86634532E-03  5.71987690E-03
 -4.57000624E-03 -2.03036140E-03 -1.89224565E-04  4.16060786E-03 -2.27275404E-03
 -3.29171439E-04 -2.71631215E-04  1.55623470E-03 -6.01837170E-04  7.65679400E-04
 -5.91750722E-04 -1.08721597E-04  6.15827353E-04 -6.50728120E-06 -8.37717202E-05
 -3.25588030E-04  2.56891671E-04 -3.23930657E-04  5.40167352E-04 -4.90228950E-04
  3.76808169E-04 -5.27105594E-04  2.52960834E-03  1.42032297E-04 -7.39971172E-04
 -5.59894213E-04  3.73203000E-03  8.61654650E-04 -9.88301030E-04  8.67557324E-05
  1.70596813E-04 -7.18918048E-05  5.85006948E-05  9.30495406E-05  1.87707547E-04
  3.02633895E-04  4.31571742E-04 -4.16844156E-03 -9.24166918E-03  1.43429941E-04
 -8.79591330E-04 -6.14234986E-03 -1.35687914E-02  2.07532795E-04  1.88171951E-03
 -5.96129585E-03 -1.05518292E-02  1.27857667E-03  2.73864342E-03 -6.67165537E-04
  9.53639586E-05  3.62785286E-04  2.47329556E-04  8.15862863E-05 -3.41612048E-06
  7.84270604E-04  3.97851226E-04  5.76966032E-04 -6.92924935E-05 -1.77548365E-04
 -1.37673441E-03 -1.22684412E-03  1.00841515E-04 -4.06342549E-04 -2.37842624E-03
 -3.15103427E-03  8.40024857E-04 -1.14145018E-03 -2.11750353E-03  5.02663892E-03
  5.68059136E-04  1.19787260E-03 -3.99043533E-05 -8.29328794E-04  8.74894638E-04
 -1.03618305E-04  2.22355129E-04 -1.31196909E-04 -3.79914176E-05 -6.54101017E-05
  7.39975281E-05  7.10397302E-05  2.54799571E-04 -7.17638036E-06  5.89759058E-05
  1.44076608E-04  4.25632914E-04  3.12155190E-03 -2.73230090E-04 -7.94947481E-04
  1.62617303E-03 -2.88345209E-03 -5.22302997E-04  1.14288201E-03  6.83925733E-04
  8.05716036E-05  7.46859619E-05  8.85792413E-05  1.28379397E-04  3.85410616E-05
 -2.94373985E-04 -1.35963861E-03 -2.87784620E-03 -5.61844732E-07 -4.45910948E-05
 -8.73257092E-05  8.03924195E-04  2.37412073E-03  1.83747960E-03  1.15633907E-06
  7.46554260E-05 -1.37409463E-05  1.16720138E-04 -1.84671850E-04  7.84502668E-04
  3.57544932E-05  2.49750103E-05 -2.97870734E-05 -1.30538896E-04 -4.54122909E-04
  2.95761734E-04 -2.78161843E-05 -1.00811689E-05 -5.14665833E-05  1.20395357E-03
  1.72702943E-03  2.95552751E-03  2.72353634E-03  2.36255021E-03 -4.25486364E-03
  4.71806381E-03  4.22276644E-03  3.58864601E-03 -2.99685985E-03  3.27368746E-03
  4.84977537E-04  2.02163023E-03 -1.53474696E-03  8.09040800E-04 -1.91727697E-04
  8.31012582E-04 -3.72873348E-04 -6.19771164E-04 -8.61614222E-04  5.81702682E-04
 -7.15134752E-04 -2.37137763E-05 -7.72689924E-05  3.23887531E-04 -6.62939925E-06
 -1.89005200E-04  5.10175767E-04  5.05913368E-04  6.42755450E-06 -3.98623499E-04
  2.61568378E-04  5.18623518E-05 -4.64090609E-04  4.90671480E-04  2.32184087E-04
 -5.91397411E-04 -9.50356137E-04  1.19267174E-03  8.66000192E-05  4.00164102E-05
  4.89034937E-05  1.87707591E-04 -1.08591927E-04  1.05968554E-04  1.22639648E-04
  1.04236612E-02 -2.77305059E-03 -2.15349137E-04 -1.41779836E-04  1.53223486E-02
 -4.05454944E-03 -2.43350781E-04  2.74331675E-03  1.33553330E-02 -2.26577716E-03
 -4.57647307E-04  2.63119557E-03  8.74505125E-04  4.65392591E-04 -6.35529307E-04
  1.89846410E-04 -6.29674750E-05 -2.21566985E-05 -5.05177861E-05  8.16796123E-04
  2.37354750E-04  4.44348279E-04 -1.73084524E-04  1.75189548E-04 -1.27301484E-03
 -1.80432934E-03 -6.23363390E-04 -1.33896065E-04 -2.85366240E-03  3.59245385E-04
 -3.73332692E-03  1.84856809E-03  1.12869262E-03 -8.72683949E-03 -9.55661539E-04
 -2.39053378E-04 -2.58644784E-03 -4.33991463E-04 -1.74520296E-04  2.26710610E-04
  1.37949325E-04  1.22507079E-04  2.37357631E-04  4.44340706E-04  1.73075514E-04
 -1.75208923E-04 -1.27300201E-03 -1.80435891E-03  6.23450334E-04  1.34013406E-04
 -2.85373586E-03  3.60225867E-04  3.73331349E-03 -1.84879903E-03  1.12900803E-03
 -8.72757372E-03  9.55625245E-04  2.39232769E-04 -2.58644346E-03 -4.34032759E-04
  1.74502441E-04 -2.26773336E-04  1.38030571E-04  1.22491486E-04  2.12500968E-04
  1.22348484E-03  2.12386643E-03 -4.71192408E-06 -2.94546442E-05 -3.47995200E-05
  3.16946118E-04 -1.48960936E-03  1.89151868E-04 -1.79253240E-04 -2.31887833E-04
 -2.49089584E-04  3.16959716E-04 -1.48991914E-03  1.89332546E-04  1.79356658E-04
  2.31942452E-04 -2.49162515E-04  2.12499860E-04  1.22332463E-03  2.12396442E-03
  4.68234206E-06  2.94605088E-05 -3.48637939E-05  4.28474800E-03  6.19377957E-03
 -1.06407842E-08 -2.90359814E-09 -1.30809082E-02 -1.08896074E-02 -5.72839410E-09
  1.47739207E-08 -1.56171056E-02  2.82975827E-02  1.14146854E-08 -7.32879797E-08
  2.23302872E-02  1.37123007E-02 -1.82305431E-08  1.24720020E-08 -1.05407395E-02
 -6.45631061E-03  9.97403754E-10 -6.85154064E-09 -9.09769977E-04 -3.65863882E-04
 -6.07301555E-04 -9.27183648E-04  2.91364959E-04 -5.52376255E-04  3.01061920E-03
  2.27433895E-03  4.24825006E-04 -3.87566615E-04  4.02668818E-03  4.10765565E-03
  2.33962664E-04 -1.57185124E-03  8.83768734E-04 -7.47288211E-04 -6.58018532E-04
  1.85587213E-03 -2.29374774E-03 -4.15458231E-04  5.18703815E-05 -4.34821587E-05
 -2.34975862E-04 -1.29555361E-04 -6.07300828E-04 -9.27179069E-04 -2.91380188E-04
  5.52359254E-04  3.01057625E-03  2.27430552E-03 -4.24816546E-04  3.87570106E-04
  4.02676798E-03  4.10785039E-03 -2.34018947E-04  1.57186013E-03  8.83594950E-04
 -7.47114539E-04  6.57993154E-04 -1.85584917E-03 -2.29383247E-03 -4.15466719E-04
 -5.18644914E-05  4.34987487E-05 -2.34968668E-04 -1.29556493E-04  6.39500183E-01
  4.01217047E-04  6.86930297E-04 -2.93904166E-04  2.79728832E-04 -2.01852204E-03
 -2.52414818E-03 -8.64440113E-04 -1.04637358E-04 -4.29826392E-03  3.83418896E-04
 -4.34518930E-03  2.29519851E-03  1.09181286E-03 -1.29443153E-02 -1.18949309E-03
 -3.63572790E-04 -3.81461758E-03 -6.59105988E-04 -2.84470396E-04  2.70442092E-04
  1.85398250E-04  1.59087832E-04  4.01221113E-04  6.86926034E-04  2.93907956E-04
 -2.79760557E-04 -2.01851499E-03 -2.52419888E-03  8.64465161E-04  1.04800769E-04
 -4.29833422E-03  3.84546093E-04  4.34511880E-03 -2.29542196E-03  1.09221986E-03
 -1.29454942E-02  1.18944275E-03  3.63859391E-04 -3.81462406E-03 -6.59103409E-04
  2.84403330E-04 -2.70608545E-04  1.85482409E-04  1.59001082E-04  3.73175547E-04
  1.54078509E-03  2.75209958E-03 -3.14640785E-06 -3.06572741E-05 -6.43729440E-05
  4.35560828E-04 -1.60195385E-03  4.93494534E-04 -2.14791860E-04 -2.54764544E-04
 -2.93098311E-04  4.35580253E-04 -1.60224089E-03  4.93766759E-04  2.14879664E-04
  2.54785535E-04 -2.93124330E-04  3.73171644E-04  1.54052211E-03  2.75223897E-03
  3.08064848E-06  3.06470448E-05 -6.44794092E-05  6.78589519E-03  9.53920380E-03
 -1.54149685E-08 -2.14949310E-09 -2.10650175E-02 -1.66574437E-02 -1.56797383E-08
  1.92858072E-08 -2.34726855E-02  4.14730839E-02  1.40600766E-08 -6.81832626E-08
  2.79605220E-02  2.10949548E-02 -1.77315984E-08  3.25054256E-08 -1.58707090E-02
 -9.36285052E-03  1.38473030E-09 -8.73287524E-09 -1.28132404E-03 -5.35246096E-04
 -8.96043406E-04 -1.41803794E-03  4.99190821E-04 -1.01645899E-03  4.75834285E-03
  3.63931265E-03  7.41826728E-04 -1.06471634E-03  6.53500651E-03  5.30025742E-03
  4.57942968E-04 -2.03178524E-03  2.05591534E-03 -2.20993577E-03 -8.87022745E-04
  2.82591325E-03 -3.20378008E-03 -5.91944279E-04  1.07487313E-04 -2.21428535E-04
 -3.66451637E-04 -2.12999851E-04 -8.96041892E-04 -1.41803158E-03 -4.99206965E-04
  1.01644112E-03  4.75831338E-03  3.63926306E-03 -7.41830423E-04  1.06471378E-03
  6.53507859E-03  5.30053822E-03 -4.57985200E-04  2.03183702E-03  2.05570483E-03
 -2.20965911E-03  8.86957262E-04 -2.82589331E-03 -3.20391028E-03 -5.91946536E-04
 -1.07484395E-04  2.21439732E-04 -3.66448519E-04 -2.13002445E-04  5.68603382E-01
  5.22570141E-01 -5.45661397E-04 -8.74718867E-04  2.26961102E-03 -2.50856487E-03
  5.03185244E-03  9.21003400E-04  2.40851196E-03 -4.71933846E-03  8.01138963E-03
  2.53625227E-02 -1.97304628E-03 -1.70552902E-03  2.31856445E-02  8.15627773E-02
 -3.17407583E-03  1.85695710E-02  1.59997358E-02  1.42651670E-03 -3.87926296E-03
 -2.00767110E-03 -1.34121698E-03  5.11692926E-04  5.45638798E-04  8.74683636E-04
  2.26962787E-03 -2.50851287E-03 -5.03178844E-03 -9.20877931E-04  2.40853708E-03
 -4.71920909E-03 -8.01130460E-03 -2.53622215E-02 -1.97314494E-03 -1.70527609E-03
 -2.31857871E-02 -8.15626245E-02 -3.17399421E-03  1.85696889E-02 -1.59997316E-02
 -1.42657385E-03 -3.87946826E-03 -2.00776102E-03  1.34114807E-03 -5.11851411E-04
  2.23987583E-03  5.25012265E-03  1.68884460E-02  2.58837331E-05  2.15530628E-04
  1.24977502E-04 -4.83779940E-03 -1.37973856E-02 -1.64069120E-02 -2.90910876E-04
 -7.44800654E-04 -6.19393236E-05  4.83781780E-03  1.37973853E-02  1.64070064E-02
 -2.90935941E-04 -7.44810719E-04  6.20085125E-05 -2.23982884E-03 -5.25026727E-03
 -1.68883842E-02  2.58482924E-05  2.15464664E-04 -1.25024802E-04  1.26692351E-08
  2.04520694E-08  6.79351305E-02  6.84689199E-03 -1.28083522E-07 -8.43263920E-08
  1.03761524E-01  1.00661706E-02 -1.65751928E-07 -7.11167236E-08  7.01255537E-02
  1.34227992E-03 -2.57377962E-07 -1.99088199E-07  1.84203484E-02  6.20726838E-03
  6.80387531E-08 -6.65555688E-08  2.87389681E-02 -3.21510092E-03  2.13299648E-08
 -2.50474929E-08 -2.20199084E-03 -3.56293410E-03 -2.85042957E-02 -1.13413734E-02
  2.26748956E-03  1.04453193E-02 -4.12609968E-02 -1.55503326E-02  3.13233037E-03
  2.57554896E-02 -4.36769582E-02 -2.12480868E-02 -4.90053337E-04  4.06097238E-02
 -1.64996318E-02 -1.04830071E-02 -1.00709144E-02 -5.64435967E-04  2.50597096E-03
  1.27432237E-03  2.74667338E-04 -4.11764019E-04  2.20200810E-03  3.56296489E-03
 -2.85042249E-02 -1.13413714E-02 -2.26729538E-03 -1.04454189E-02 -4.12609079E-02
 -1.55503417E-02 -3.13208192E-03 -2.57556065E-02 -4.36768856E-02 -2.12480281E-02
  4.90356750E-04 -4.06098708E-02 -1.64994082E-02 -1.04829564E-02  1.00711165E-02
  5.64426186E-04  2.50598799E-03  1.27433104E-03 -2.74654256E-04  4.11779893E-04
 -3.11630734E-09 -4.73784109E-09  1.34113238E-01  1.95914459E-03  3.22638567E-03
 -1.50438732E-03  3.37580626E-03 -1.05483441E-02 -1.12515070E-02 -3.20198224E-03
  5.86460087E-03 -1.60610837E-02 -2.51119536E-03 -5.93284753E-03  1.32520732E-02
 -1.61769874E-02  3.03574932E-03 -1.27019699E-03 -4.29188509E-03  2.66732298E-03
  4.79332637E-04 -2.43701247E-03  2.63699771E-03  1.35292226E-04  6.97865311E-04
 -1.95915594E-03 -3.22641326E-03 -1.50440292E-03  3.37583284E-03  1.05483560E-02
  1.12515002E-02 -3.20222166E-03  5.86478210E-03  1.60610431E-02  2.51265751E-03
 -5.93357017E-03  1.32523947E-02  1.61771860E-02 -3.03621491E-03 -1.27031329E-03
 -4.29183857E-03 -2.66742862E-03 -4.79233963E-04 -2.43675693E-03  2.63706445E-03
 -1.35177396E-04 -6.97981832E-04  4.45616018E-03  8.64975562E-03  1.17725547E-02
 -2.85611351E-04  2.94224139E-04 -9.65158506E-04 -2.19418269E-04 -3.45779847E-03
 -5.45303257E-03 -3.33381114E-04 -1.65200507E-04 -9.43495614E-04  2.19482277E-04
  3.45775718E-03  5.45318204E-03 -3.33468985E-04 -1.65082833E-04  9.43410444E-04
 -4.45612723E-03 -8.65063904E-03 -1.17722725E-02 -2.85718449E-04  2.94329031E-04
  9.64977522E-04 -1.00696591E-08 -1.45771840E-08  6.41963673E-03  4.00465318E-02
  9.98525947E-09  2.15085372E-08  1.02081551E-02  5.79250022E-02 -3.41866159E-09
  2.59176421E-07 -3.32226316E-03  7.66354604E-02 -2.38228237E-07  6.03269441E-07
 -5.65484370E-04  2.72066330E-02 -3.49104434E-07  1.55965089E-08 -3.28106802E-03
  4.20956140E-02 -7.23312182E-09  4.14556040E-08  6.83772106E-03  1.11098331E-02
 -1.17247481E-02  9.81937135E-03 -1.82333035E-02 -3.51517838E-02 -1.62190132E-02
  1.12036301E-02 -2.39792340E-02 -6.13241825E-02 -1.98263592E-02  1.83300723E-02
 -3.38771104E-02 -6.53522571E-02 -1.16635021E-02  1.68464672E-02 -4.17663276E-03
  2.37939268E-03  8.14310412E-04 -1.34480454E-03 -9.11232929E-04 -4.68302849E-04
 -6.83771027E-03 -1.11098199E-02 -1.17247606E-02  9.81936258E-03  1.82334123E-02
  3.51518129E-02 -1.62190626E-02  1.12035992E-02  2.39793170E-02  6.13236684E-02
 -1.98263336E-02  1.83299153E-02  3.38775311E-02  6.53510701E-02 -1.16635876E-02
  1.68463004E-02  4.17713628E-03 -2.37940043E-03  8.14285783E-04 -1.34480258E-03
  9.11243314E-04  4.68303794E-04  3.56362968E-09  5.76271636E-09 -7.82988052E-03
  1.68115665E-01  2.11999042E-03  3.47479129E-03 -1.63991832E-03  1.46633696E-04
 -8.53329614E-03 -1.11214129E-02 -2.96705638E-03  5.09757676E-04 -1.40450594E-02
 -1.18457943E-02 -4.06171840E-03  1.35336220E-03 -1.08903915E-02  1.05502590E-02
 -1.24864884E-03  1.56433138E-03  2.79713349E-03  1.53229455E-04 -8.61464607E-04
  8.83618447E-04  4.62330765E-04  4.33202526E-04  2.11998658E-03  3.47478837E-03
  1.63995805E-03 -1.46625143E-04 -8.53328499E-03 -1.11213446E-02  2.96695277E-03
 -5.09948825E-04 -1.40450242E-02 -1.18467761E-02  4.06187508E-03 -1.35310628E-03
 -1.08904994E-02  1.05527465E-02  1.24874407E-03 -1.56499089E-03  2.79714659E-03
  1.53142783E-04  8.61679471E-04 -8.83307082E-04  4.62251453E-04  4.33276187E-04
  1.80064444E-03  3.93119082E-03  2.72874197E-03 -1.57721128E-04  6.26058397E-05
 -4.24740621E-04  1.08540708E-03  1.31135842E-03  1.46310551E-04 -7.32154038E-05
 -6.80706277E-05 -5.76957784E-04  1.08535139E-03  1.31170552E-03  1.45903389E-04
  7.31097660E-05  6.80134851E-05 -5.76992273E-04  1.80064809E-03  3.93141962E-03
  2.72859480E-03  1.57807127E-04 -6.26252646E-05 -4.24815631E-04  3.02044794E-02
  4.74388943E-02 -1.24779801E-07  1.32307240E-08 -8.63383811E-02 -1.46956095E-01
 -1.83254798E-07 -1.84291390E-08 -1.20535838E-01 -9.16736390E-02 -5.14984687E-08
  4.37705374E-09 -4.32812380E-02 -2.77903025E-02  1.74685890E-09 -4.77411285E-08
  1.27358083E-02 -1.27051725E-02 -3.59216226E-08  3.33290448E-08 -2.97266680E-03
 -1.35179987E-03 -3.92534027E-03 -6.36400044E-03  2.47941770E-03 -6.57071171E-03
  1.14075302E-02  1.91799745E-02  3.75802167E-03 -1.00882871E-02  1.62943081E-02
  2.51941943E-02  3.64070559E-03 -7.72955422E-03  1.39974012E-02  6.71320367E-03
  8.98224576E-05  7.67258298E-04  9.11674827E-04 -2.52208587E-03  1.14911655E-04
  5.00580028E-05 -1.26205057E-03 -7.85599730E-04 -3.92534068E-03 -6.36400057E-03
 -2.47941114E-03  6.57071792E-03  1.14075868E-02  1.91800244E-02 -3.75800242E-03
  1.00882895E-02  1.62943633E-02  2.51939760E-02 -3.64075397E-03  7.72937006E-03
  1.39975501E-02  6.71300553E-03 -8.98205786E-05 -7.67240693E-04  9.11806155E-04
 -2.52209149E-03 -1.14927746E-04 -5.00506133E-05 -1.26203851E-03 -7.85598028E-04
 -1.18564903E-02 -1.85651630E-02  3.02823693E-08  2.26268278E-08  1.32681998E-01
 -1.40656549E-03 -2.03703026E-03  9.73567995E-04 -8.24387967E-04  5.49861714E-03
  6.00612492E-03  2.12880422E-03 -9.56672355E-05  1.10689599E-02 -7.26070886E-04
  7.11903834E-03 -4.30818123E-03 -1.23342353E-03  3.46337126E-02  2.37914967E-03
  1.00695746E-03  1.01109630E-02  1.73204771E-03  8.38171264E-04 -6.28756038E-04
 -4.25452122E-04 -3.62616158E-04 -1.40657895E-03 -2.03704736E-03 -9.73641519E-04
  8.24482920E-04  5.49864451E-03  6.00628627E-03 -2.12850350E-03  9.52705201E-05
  1.10690139E-02 -7.27879807E-04 -7.11867074E-03  4.30834646E-03 -1.23426639E-03
  3.46371723E-02 -2.37902783E-03 -1.00779352E-03  1.01110268E-02  1.73181243E-03
 -8.37843963E-04  6.29462959E-04 -4.25546758E-04 -3.62157308E-04 -1.09661549E-03
 -2.97474453E-03 -5.94849144E-03 -2.03843575E-05  5.20467374E-05  2.04001806E-04
 -1.07241398E-03  1.88598799E-03 -2.27367562E-03  3.70551747E-04  3.45180051E-04
  4.74080862E-04 -1.07246726E-03  1.88612698E-03 -2.27441794E-03 -3.70550074E-04
 -3.45021564E-04  4.73855160E-04 -1.09659599E-03 -2.97394808E-03 -5.94883407E-03
  2.06393673E-05 -5.19542277E-05  2.04320024E-04 -1.73256082E-02 -2.36084139E-02
  4.11544923E-08 -1.70993163E-09  6.00711841E-02  3.91879980E-02  7.06338277E-08
 -4.11825587E-08  6.12745293E-02 -1.11178055E-01 -2.23470855E-08  3.23873772E-08
 -5.42807454E-02 -5.93932013E-02  1.57127717E-08 -1.37628180E-07  4.32596330E-02
  2.31887670E-02 -8.02988007E-09  1.62271183E-08  3.03727353E-03  1.38146039E-03
  1.86681778E-03  3.15059533E-03 -1.70523636E-03  4.77194290E-03 -1.33573657E-02
 -8.42004515E-03 -2.56237628E-03  6.56637368E-03 -1.89328584E-02 -8.21408008E-03
 -1.63423906E-03  5.61517346E-03 -7.67088486E-03  1.10339056E-02  2.15670199E-03
 -7.87740483E-03  7.80875628E-03  1.49626884E-03 -3.96313962E-04  1.15783685E-03
  1.11125523E-03  6.77771685E-04  1.86680797E-03  3.15057499E-03  1.70528407E-03
 -4.77192422E-03 -1.33574062E-02 -8.41990409E-03  2.56248500E-03 -6.56634128E-03
 -1.89328756E-02 -8.21478257E-03  1.63423935E-03 -5.61545250E-03 -7.67049617E-03
  1.10331093E-02 -2.15642625E-03  7.87740320E-03  7.80911313E-03  1.49623778E-03
  3.96326500E-04 -1.15781779E-03  1.11127339E-03  6.77784143E-04 -1.31172575E-01
 -2.22230151E-01  7.21930383E-09 -2.18759118E-08  5.53012202E-02  6.82840615E-01
 -8.53457460E-04 -1.32148047E-03  3.32684223E-03 -3.57875524E-03  7.35795522E-03
  1.40781565E-03  3.55211839E-03 -6.72187280E-03  1.17354380E-02  3.62969929E-02
 -2.78773004E-03 -2.58690251E-03  3.34390872E-02  1.20365445E-01 -4.62679798E-03
  2.74953900E-02  2.32243293E-02  2.07420427E-03 -5.51260482E-03 -2.88282784E-03
 -1.93265208E-03  7.50679254E-04  8.53424800E-04  1.32142970E-03  3.32686870E-03
 -3.57868329E-03 -7.35786497E-03 -1.40763534E-03  3.55215684E-03 -6.72168693E-03
 -1.17353215E-02 -3.62965518E-02 -2.78786658E-03 -2.58653858E-03 -3.34392894E-02
 -1.20365235E-01 -4.62667765E-03  2.74955600E-02 -2.32243249E-02 -2.07428999E-03
 -5.51290396E-03 -2.88296105E-03  1.93255284E-03 -7.50910781E-04  3.16595161E-03
  7.49506435E-03  2.42025137E-02  3.36984255E-05  3.20186382E-04  1.93522417E-04
 -7.00647513E-03 -1.97889471E-02 -2.38428786E-02 -4.13074307E-04 -1.06395655E-03
 -7.49150197E-05  7.00650501E-03  1.97889462E-02  2.38430230E-02 -4.13110143E-04
 -1.06397105E-03  7.50170679E-05 -3.16588356E-03 -7.49528124E-03 -2.42024173E-02
  3.36451975E-05  3.20091071E-04 -1.93592939E-04  1.67380229E-08  2.66658384E-08
  1.00448213E-01  1.01181478E-02 -1.89734060E-07 -1.11879676E-07  1.53469613E-01
  1.49394158E-02 -2.46235568E-07 -9.52551087E-08  1.03493728E-01  2.33840488E-03
 -3.75693286E-07 -2.81704370E-07  2.71289235E-02  9.19932234E-03  9.48232361E-08
 -9.52375794E-08  4.17537735E-02 -4.56936338E-03  3.18885722E-08 -3.71547499E-08
 -3.20708061E-03 -5.14870976E-03 -4.04127559E-02 -1.57529301E-02  3.37556528E-03
  1.49752533E-02 -5.84633171E-02 -2.15240256E-02  4.66827052E-03  3.71473901E-02
 -6.22717373E-02 -2.99445095E-02 -4.76651648E-04  5.88893022E-02 -2.41509507E-02
 -1.52141463E-02 -1.45666156E-02 -8.17778967E-04  3.66964964E-03  1.85094574E-03
  4.94121495E-04 -6.98902396E-04  3.20710828E-03  5.14875987E-03 -4.04126449E-02
 -1.57529140E-02 -3.37528484E-03 -1.49754179E-02 -5.84631763E-02 -2.15240190E-02
 -4.66791300E-03 -3.71475809E-02 -6.22716208E-02 -2.99444086E-02  4.77088889E-04
 -5.88895219E-02 -2.41506220E-02 -1.52140742E-02  1.45669071E-02  8.17764075E-04
  3.66967451E-03  1.85095811E-03 -4.94103665E-04  6.98925340E-04 -6.14353657E-09
 -7.70836165E-09  1.96228535E-01 -1.10753628E-02  4.12797238E-08  6.93530498E-09
  2.87149310E-01  3.05528043E-03  4.98844385E-03 -2.25379168E-03  4.81793187E-03
 -1.58364855E-02 -1.71077382E-02 -4.75101505E-03  8.30591934E-03 -2.42406432E-02
 -4.09960925E-03 -8.67620717E-03  1.89989461E-02 -2.37861597E-02  4.53049466E-03
 -1.86942414E-03 -6.20417459E-03  3.91754556E-03  4.46917477E-04 -3.56226691E-03
  3.78136646E-03  1.72382036E-04  9.76777102E-04 -3.05529705E-03 -4.98848385E-03
 -2.25381721E-03  4.81797175E-03  1.58365035E-02  1.71077274E-02 -4.75136694E-03
  8.30618444E-03  2.42405860E-02  4.10172917E-03 -8.67726089E-03  1.89994108E-02
  2.37864475E-02 -4.53116532E-03 -1.86959518E-03 -6.20410746E-03 -3.91769816E-03
 -4.46773934E-04 -3.56189460E-03  3.78146492E-03 -1.72215595E-04 -9.76946985E-04
  6.54266435E-03  1.25481064E-02  1.71034856E-02 -4.06906399E-04  4.02139650E-04
 -1.44191992E-03 -2.72471182E-04 -5.01072917E-03 -7.88417521E-03 -5.06609640E-04
 -2.55413355E-04 -1.39719658E-03  2.72561798E-04  5.01066291E-03  7.88438578E-03
 -5.06737823E-04 -2.55242142E-04  1.39707192E-03 -6.54261595E-03 -1.25493829E-02
 -1.71030769E-02 -4.07062047E-04  4.02292613E-04  1.44165803E-03 -1.40266793E-08
 -1.91264353E-08  9.40106858E-03  5.94327103E-02  1.77360957E-08  2.22640828E-08
  1.49787184E-02  8.60013567E-02 -3.01517913E-10  3.72037367E-07 -4.38777167E-03
  1.11169111E-01 -3.40401858E-07  8.70380744E-07 -6.58798650E-04  3.92967543E-02
 -5.03428103E-07  2.19817556E-08 -4.63289940E-03  6.06161176E-02 -1.03712689E-08
  6.03114268E-08  9.61855967E-03  1.56690382E-02 -1.62644269E-02  1.24746466E-02
 -2.67814557E-02 -4.98147011E-02 -2.24278962E-02  1.36497532E-02 -3.53144109E-02
 -8.84715931E-02 -2.78962554E-02  2.44448282E-02 -4.95711848E-02 -9.49974117E-02
 -1.69108202E-02  2.42303297E-02 -5.83424400E-03  3.44252279E-03  1.17169206E-03
 -1.92140911E-03 -1.39587308E-03 -7.74410400E-04 -9.61855060E-03 -1.56690249E-02
 -1.62644464E-02  1.24746258E-02  2.67816074E-02  4.98147452E-02 -2.24279693E-02
  1.36496958E-02  3.53145229E-02  8.84708546E-02 -2.78962232E-02  2.44445920E-02
  4.95717893E-02  9.49956969E-02 -1.69109473E-02  2.42300877E-02  5.83497279E-03
 -3.44253327E-03  1.17165599E-03 -1.92140691E-03  1.39588845E-03  7.74412215E-04
  3.38852651E-09  6.88444829E-09 -1.10618236E-02  2.44301251E-01  3.24279590E-08
 -3.18206387E-08 -1.56345035E-02  3.55065501E-01  2.41435899E-03  3.97074778E-03
 -1.98344719E-03  8.63096734E-04 -9.84359309E-03 -1.30982080E-02 -3.60128124E-03
  1.76601204E-03 -1.62122124E-02 -1.49149548E-02 -5.56700271E-03  2.29740467E-03
 -1.30381464E-02  1.39345999E-02 -2.03451684E-03  2.16936523E-03  3.72078933E-03
  6.47282747E-04 -1.05993523E-03  1.54657451E-03  4.86536416E-04  5.91330503E-04
  2.41436547E-03  3.97075355E-03  1.98349903E-03 -8.63082554E-04 -9.84358257E-03
 -1.30981171E-02  3.60112237E-03 -1.76626794E-03 -1.62121767E-02 -1.49162633E-02
  5.56721330E-03 -2.29705511E-03 -1.30382819E-02  1.39381281E-02  2.03465174E-03
 -2.17029860E-03  3.72082546E-03  6.47162590E-04  1.06024378E-03 -1.54614148E-03
  4.86427322E-04  5.91429703E-04  2.12247552E-03  5.14583891E-03  4.16900216E-03
 -1.86552280E-04  8.65618678E-05 -5.00555234E-04  1.17583443E-03  1.37662670E-03
  8.06900363E-05 -6.41126927E-05 -7.29095769E-05 -7.12619880E-04  1.17576108E-03
  1.37710182E-03  8.01102807E-05  6.39625404E-05  7.28285254E-05 -7.12669543E-04
  2.12248412E-03  5.14614599E-03  4.16882227E-03  1.86665179E-04 -8.65870967E-05
 -5.00666820E-04  4.57465664E-02  6.95295474E-02 -1.77375169E-07  2.24533356E-08
 -1.22045381E-01 -2.07372435E-01 -2.60433265E-07 -1.93607734E-08 -1.70256599E-01
 -1.26906066E-01 -7.40962162E-08  4.10137706E-09 -6.26679349E-02 -3.78074040E-02
 -3.27202277E-09 -6.95584704E-08  1.65023730E-02 -1.67339960E-02 -4.92408246E-08
  4.52760242E-08 -3.62989732E-03 -1.63557867E-03 -4.23140539E-03 -7.12357575E-03
  3.97584874E-03 -1.19610152E-02  1.28964490E-02  2.23189948E-02  5.97408936E-03
 -1.80742729E-02  1.82833933E-02  2.97770058E-02  5.46054433E-03 -1.39771213E-02
  1.65738150E-02  6.55275631E-03 -1.99299368E-04  1.59219557E-03  1.40000853E-03
 -3.55027822E-03  6.34971778E-05  3.87224248E-04 -1.93683891E-03 -1.20219995E-03
 -4.23141199E-03 -7.12358100E-03 -3.97584627E-03  1.19610300E-02  1.28965141E-02
  2.23190617E-02 -5.97406910E-03  1.80742825E-02  1.82834528E-02  2.97767143E-02
 -5.46061447E-03  1.39768745E-02  1.65739968E-02  6.55250167E-03  1.99308025E-04
 -1.59217089E-03  1.40018217E-03 -3.55028613E-03 -6.35170017E-05 -3.87214348E-04
 -1.93682155E-03 -1.20219986E-03 -1.49648074E-02 -2.40403208E-02  3.76662521E-08
  2.92477253E-08  1.85847375E-01  7.39394379E-02  5.11470553E-08  4.17212399E-08
  2.60695657E-01  4.12735220E-03  4.74761593E-03 -1.42063926E-03 -3.62504820E-03
  3.79823629E-03 -8.08707439E-03 -1.54723742E-03 -4.26895831E-03  7.59308019E-03
 -1.11400045E-02  1.97004874E-03 -6.17746190E-03 -2.60428503E-03  3.31446960E-02
 -9.69484329E-07  2.04041897E-03  9.74546791E-03  2.92488519E-03  6.22394011E-04
  1.84068766E-03  4.81997258E-04  3.37924657E-04  4.12737458E-03  4.74762793E-03
  1.42059302E-03  3.62513356E-03  3.79826176E-03 -8.08687438E-03  1.54734799E-03
  4.26852216E-03  7.59312114E-03 -1.11422630E-02 -1.96967121E-03  6.17783517E-03
 -2.60515136E-03  3.31496514E-02  1.13822156E-06 -2.04167267E-03  9.74553817E-03
  2.92462230E-03 -6.21978132E-04 -1.83987319E-03  4.81875422E-04  3.38327910E-04
 -2.00528326E-03 -2.11413060E-03 -1.37086771E-03  1.39571453E-04 -3.86447139E-04
 -7.43921256E-05  4.88279044E-04  4.57204924E-03  1.62474103E-03  2.96385651E-04
  6.63750988E-05  2.40967491E-04  4.88208816E-04  4.57246530E-03  1.62384368E-03
 -2.96473276E-04 -6.62973270E-05  2.40755820E-04 -2.00525565E-03 -2.11339297E-03
 -1.37131118E-03 -1.39318020E-04  3.86520249E-04 -7.42024489E-05 -2.28841081E-03
  5.49094445E-03 -6.90231801E-08 -7.68549318E-09 -2.29585268E-02 -6.72771368E-02
 -9.85530919E-08 -7.75569163E-08 -5.13729342E-02 -1.46422138E-01 -7.51547514E-08
  5.10858625E-08 -9.19595506E-02 -6.52757222E-02 -5.33835271E-09 -1.36925322E-07
  4.02289887E-02  1.34560088E-02  1.93121757E-08  7.32684966E-08  2.03896265E-03
 -4.71664715E-05  4.00024427E-03  5.59488865E-03 -5.70580119E-04 -1.64706262E-02
 -9.46814761E-03 -1.26333718E-02 -8.94190882E-04 -2.44900773E-02 -1.35431397E-02
 -1.34930521E-02 -1.81749696E-03 -1.80602963E-02 -4.04486522E-03  1.64145358E-03
 -5.67598358E-04 -4.54962225E-03  7.01771966E-03 -1.22508524E-03 -4.10600616E-04
  1.45623188E-03 -1.08158851E-03 -4.06601162E-04  4.00028845E-03  5.59493803E-03
  5.70259864E-04  1.64706947E-02 -9.46812628E-03 -1.26333492E-02  8.93770972E-04
  2.44901671E-02 -1.35430990E-02 -1.34939215E-02  1.81698516E-03  1.80599677E-02
 -4.04442182E-03  1.64065392E-03  5.67772479E-04  4.54963866E-03  7.01813698E-03
 -1.22512125E-03  4.10609466E-04 -1.45620923E-03 -1.08155677E-03 -4.06616968E-04
 -1.41507604E-01 -2.16906507E-01  1.58335635E-07  7.64857900E-08  1.45631802E-01
  5.96696442E-01  2.25906672E-07  1.08658862E-07  2.02118856E-01  6.01644900E-01
 -5.91837492E-04 -1.02513453E-03  4.37789147E-03 -3.23891247E-03  7.29884731E-03
  7.87375503E-04  5.17861555E-03 -6.18952065E-03  1.15930014E-02  3.52756775E-02
 -1.48637683E-03 -1.03993303E-03  3.18377405E-02  9.53280469E-02 -3.87160576E-03
  2.11520070E-02  2.08113716E-02  2.29032772E-03 -5.65157991E-03 -2.77889179E-03
 -1.86717398E-03  6.73001083E-04  5.91808121E-04  1.02509004E-03  4.37792275E-03
 -3.23881684E-03 -7.29877406E-03 -7.87221870E-04  5.17866294E-03 -6.18932437E-03
 -1.15928957E-02 -3.52752792E-02 -1.48653763E-03 -1.03956357E-03 -3.18379486E-02
 -9.53277950E-02 -3.87151066E-03  2.11521641E-02 -2.08113578E-02 -2.29039641E-03
 -5.65183860E-03 -2.77900111E-03  1.86709151E-03 -6.73197406E-04  3.63445505E-03
  7.98935162E-03  2.37792614E-02  7.34648549E-05  3.24370678E-04  1.91576538E-04
 -7.83080630E-03 -2.09682466E-02 -2.16076041E-02 -5.11371510E-04 -1.11660872E-03
 -1.48460320E-04  7.83084406E-03  2.09683019E-02  2.16077337E-02 -5.11408542E-04
 -1.11662043E-03  1.48538949E-04 -3.63438362E-03 -7.98951708E-03 -2.37792186E-02
  7.34293206E-05  3.24284515E-04 -1.91633271E-04  6.21261791E-09  7.00879986E-09
  7.77494979E-02  7.70585472E-03 -1.23426284E-07 -3.85313344E-08  1.18425704E-01
  1.10284392E-02 -1.56269893E-07 -5.09310175E-08  8.09070172E-02  9.62135793E-04
 -3.37270791E-07 -2.75415864E-07  2.15606493E-02  7.80250204E-03  9.44361458E-08
 -8.65177994E-08  3.68372305E-02 -3.70265293E-03  2.61680103E-08 -3.33444692E-08
 -2.49734039E-03 -4.21546584E-03 -4.30800680E-02 -1.64065192E-02  3.72321070E-03
  1.28205368E-02 -6.25583666E-02 -2.27233258E-02  5.31131157E-03  3.32383558E-02
 -6.39936107E-02 -2.96004879E-02 -7.45565752E-04  5.25046054E-02 -2.06566398E-02
 -1.32484320E-02 -1.38231691E-02 -7.31597390E-04  3.06943811E-03  1.48862935E-03
 -7.98925327E-05  1.03138712E-04  2.49736991E-03  4.21551573E-03 -4.30799682E-02
 -1.64065296E-02 -3.72292012E-03 -1.28206917E-02 -6.25582390E-02 -2.27233599E-02
 -5.31092800E-03 -3.32385550E-02 -6.39934930E-02 -2.96004375E-02  7.46006789E-04
 -5.25048221E-02 -2.06563515E-02 -1.32483558E-02  1.38234502E-02  7.31586062E-04
  3.06945896E-03  1.48864576E-03  7.99122092E-05 -1.03116346E-04 -2.47678919E-09
 -3.64353101E-09  1.64823226E-01 -9.77038933E-03 -5.39621332E-09  9.37339813E-11
  2.40975882E-01 -1.38538788E-02 -1.45578490E-08  1.67763516E-07  2.03681922E-01
  2.59449719E-03  4.42440140E-03 -1.59575547E-03  4.14280493E-03 -1.67552733E-02
 -1.58221573E-02 -3.72493992E-03  7.26678912E-03 -2.56949524E-02 -1.99647856E-03
 -7.05429273E-03  1.64547589E-02 -2.25399440E-02 -2.44600760E-04 -1.58037264E-03
 -6.26096854E-03  2.92535065E-03 -1.26034615E-04 -3.69056892E-03  3.86692023E-03
  2.03719876E-04  9.22150223E-04 -2.59451170E-03 -4.42443477E-03 -1.59579236E-03
  4.14286385E-03  1.67552923E-02  1.58221406E-02 -3.72525978E-03  7.26705001E-03
  2.56949125E-02  1.99829495E-03 -7.05523244E-03  1.64551904E-02  2.25401737E-02
  2.44051155E-04 -1.58052133E-03 -6.26090784E-03 -2.92547683E-03  1.26164050E-04
 -3.69024239E-03  3.86700735E-03 -2.03578105E-04 -9.22292225E-04  7.58439114E-03
  1.35747458E-02  1.66044093E-02 -4.63149917E-04  4.26067371E-04 -1.29689365E-03
 -1.72237161E-05 -4.46333048E-03 -6.57389419E-03 -4.52724193E-04 -2.82574158E-04
 -1.36775941E-03  1.73040932E-05  4.46327128E-03  6.57404763E-03 -4.52837120E-04
 -2.82428843E-04  1.36765027E-03 -7.58433849E-03 -1.35758132E-02 -1.66040450E-02
 -4.63282049E-04  4.26199104E-04  1.29667290E-03 -9.07337637E-09 -1.47107979E-08
  7.53145640E-03  4.49610838E-02 -2.54721737E-10  2.37202505E-08  1.19747171E-02
  6.44231567E-02 -2.24521349E-08  3.21372242E-07 -5.33260648E-03  9.32933091E-02
 -3.09311517E-07  7.28427280E-07 -8.51258823E-04  3.28771812E-02 -4.28435472E-07
  1.85458835E-08 -4.10052081E-03  5.30241791E-02 -1.12295193E-08  5.56626024E-08
  7.95726380E-03  1.33609657E-02 -1.60456399E-02  1.21667585E-02 -2.89033360E-02
 -4.38031161E-02 -2.22976002E-02  1.37820329E-02 -3.89844238E-02 -7.56855458E-02
 -2.64941278E-02  2.18774498E-02 -4.86358078E-02 -8.16297292E-02 -1.47470658E-02
  2.11168409E-02 -5.07460705E-03  3.11747637E-03  7.63803689E-04 -1.17223637E-03
 -1.17198410E-03 -4.47450577E-04 -7.95724922E-03 -1.33609458E-02 -1.60456790E-02
  1.21667553E-02  2.89034678E-02  4.38031370E-02 -2.22976926E-02  1.37820016E-02
  3.89845245E-02  7.56848839E-02 -2.64941396E-02  2.18772593E-02  4.86363284E-02
  8.16282435E-02 -1.47471915E-02  2.11166359E-02  5.07524528E-03 -3.11748362E-03
  7.63770132E-04 -1.17223378E-03  1.17199588E-03  4.47450687E-04  1.79326037E-08
  2.16535370E-08 -1.03535751E-02  2.08730105E-01  3.81023782E-08 -4.52465976E-08
 -1.47130558E-02  3.03322653E-01  5.01883071E-08  9.15742418E-08 -1.28157075E-02
  2.59877167E-01  6.12502022E-04  1.80134130E-03 -9.70008533E-04  1.95822854E-04
 -9.75113686E-03 -8.22178644E-03 -2.01951116E-03  5.15258672E-04 -1.58106851E-02
 -9.27801887E-03 -2.49531724E-03  1.29545849E-03 -1.19336197E-02  1.07443704E-02
 -3.93747396E-04  1.20207561E-03  2.78722464E-03 -5.61934250E-04 -9.78678346E-04
 -7.42995108E-06  3.37961784E-04  2.16429372E-04  6.12494390E-04  1.80133673E-03
  9.70038857E-04 -1.95813793E-04 -9.75112954E-03 -8.22173836E-03  2.01946095E-03
 -5.15432094E-04 -1.58106508E-02 -9.27884879E-03  2.49546303E-03 -1.29526320E-03
 -1.19337083E-02  1.07462911E-02  3.93824649E-04 -1.20258232E-03  2.78722767E-03
 -5.62008613E-04  9.78853915E-04  7.69062106E-06  3.37891670E-04  2.16510433E-04
  2.81393226E-03  4.58691407E-03  1.51367480E-03 -2.62331718E-04  1.95403849E-04
 -3.81635940E-04  9.50062598E-04  8.40470271E-04 -9.61966063E-04 -5.81318570E-05
 -2.24196334E-05 -5.83788082E-04  9.50003834E-04  8.40721940E-04 -9.62304644E-04
  5.80567702E-05  2.23856367E-05 -5.83820675E-04  2.81393857E-03  4.58715620E-03
  1.51355920E-03  2.62415439E-04 -1.95420661E-04 -3.81673744E-04  2.76160513E-02
  3.99663364E-02 -1.02608510E-07  1.92236030E-08 -6.06227109E-02 -1.12301524E-01
 -1.49670560E-07 -9.55968674E-11 -8.52298991E-02 -7.79074930E-02 -4.77741482E-08
  8.20204651E-09 -2.93910111E-02 -2.53382355E-02  7.65383188E-09 -4.01389190E-08
  1.34772329E-02 -1.06655157E-02 -4.90555988E-08  2.02154527E-08 -2.98494442E-03
 -1.00942517E-03 -4.42123571E-03 -7.02812191E-03  2.13436133E-03  1.31432690E-03
  1.23396132E-02  2.08289219E-02  3.25182341E-03  1.43834345E-03  1.77711577E-02
  2.78762932E-02  3.87530413E-03  1.12521906E-03  1.47761126E-02  1.08899077E-02
  1.14591057E-03 -4.79819802E-04  9.41566360E-04 -1.70976845E-03  1.95125830E-04
 -2.74649182E-04 -4.91653812E-04 -4.07936764E-04 -4.42125354E-03 -7.02814452E-03
 -2.13423724E-03 -1.31433196E-03  1.23396502E-02  2.08290102E-02 -3.25163816E-03
 -1.43835234E-03  1.77711898E-02  2.78761494E-02 -3.87518992E-03 -1.12537179E-03
  1.47762443E-02  1.08897398E-02 -1.14588343E-03  4.79839151E-04  9.41675441E-04
 -1.70977213E-03 -1.95143114E-04  2.74653122E-04 -4.91646281E-04 -4.07925859E-04
 -1.06448603E-02 -1.97825202E-02 -3.75337796E-08  1.21025868E-08  1.02408204E-01
  6.87237037E-02 -5.72796001E-08  1.78473790E-08  1.42808478E-01  1.31217612E-01
 -8.13279620E-08  2.03160628E-08  8.10798858E-02  3.41757402E-03  3.42798341E-03
 -6.35986712E-03  6.58069219E-03  5.17567218E-03 -4.38249475E-03 -8.84312523E-03
  1.01401518E-02  8.09419288E-03 -2.61306231E-03 -7.27437798E-03  4.27517711E-03
  6.64863633E-03 -2.16658674E-03 -3.33020216E-03  1.33852028E-03 -2.79146210E-04
  1.66203576E-03  4.70413884E-04  3.99423899E-03 -1.21600391E-04  1.47439592E-03
  3.41766424E-03  3.42804887E-03  6.35977325E-03 -6.58072398E-03  5.17569126E-03
 -4.38240348E-03  8.84287836E-03 -1.01402605E-02  8.09418806E-03 -2.61335866E-03
  7.27434503E-03 -4.27512105E-03  6.64844181E-03 -2.16483321E-03  3.33024621E-03
 -1.33898616E-03 -2.79098786E-04  1.66198465E-03 -4.70297959E-04 -3.99408457E-03
 -1.21588715E-04  1.47441645E-03 -7.51519083E-03 -8.63544910E-03  1.23932117E-03
  6.46099780E-04 -3.86674306E-04 -3.45080002E-04  2.59611105E-03  5.24393552E-03
  5.82845875E-03  2.37089776E-05  3.86641541E-04  2.67980435E-04  2.59609410E-03
  5.24408737E-03  5.82824179E-03 -2.37669177E-05 -3.86663400E-04  2.67938695E-04
 -7.51513653E-03 -8.63542398E-03  1.23925922E-03 -6.46091653E-04  3.86694855E-04
 -3.45130645E-04  7.96937260E-03  1.08170371E-02 -1.07555017E-07 -1.32799296E-09
 -5.31021678E-02 -3.25786111E-02 -1.65353649E-07 -2.71155070E-08 -7.70768824E-02
 -1.65877586E-02 -6.49224251E-08 -5.10790199E-08 -5.14156924E-02 -2.96569521E-03
 -3.97289515E-08 -6.38820701E-08 -2.79844786E-03  2.48779760E-03  6.58961090E-08
  3.22460661E-09  8.94878842E-04 -1.13713466E-03  7.09632060E-03  1.05672117E-02
  1.30429699E-03 -3.34333720E-02 -1.74125045E-03 -2.89404876E-02  1.78015640E-03
 -4.86234386E-02 -2.48939735E-03 -3.71816715E-02 -1.81560429E-03 -3.50216795E-02
 -1.93520683E-03 -2.07217522E-02 -4.61504143E-03  5.12392000E-03 -5.63090709E-04
 -2.61386106E-03 -2.42488545E-04  9.41726179E-04 -2.75658067E-03 -1.32685561E-03
  7.09630636E-03  1.05671869E-02 -1.30469827E-03  3.34331630E-02 -1.74121320E-03
 -2.89403892E-02 -1.78071299E-03  4.86231160E-02 -2.48933617E-03 -3.71817481E-02
  1.81505158E-03  3.50212694E-02 -1.93515678E-03 -2.07219396E-02  4.61503558E-03
 -5.12397214E-03 -5.63033277E-04 -2.61386195E-03  2.42496094E-04 -9.41707575E-04
 -2.75655035E-03 -1.32689114E-03 -1.19320520E-02 -1.81571559E-02  1.76944941E-07
 -4.57059738E-08  6.43134998E-02  4.98658334E-02  2.56789029E-07 -6.83931580E-08
  9.19639381E-02  9.87381973E-02  2.13442265E-07 -4.80004557E-08  4.66144079E-02
  5.21443551E-02  1.58529704E-04  1.39702313E-04  2.43051702E-03 -4.95988855E-04
  1.39926059E-03 -8.56730193E-04  3.27052552E-03 -1.05820701E-03  2.19206472E-03
  9.14235023E-03  1.07605351E-03  1.32206751E-03  7.01043779E-03  1.06986363E-03
 -3.31143218E-04 -5.06020006E-04  3.29981195E-03  7.28874578E-04 -1.83514896E-03
 -5.31838759E-04 -4.52245048E-04  1.37895933E-04 -1.58532809E-04 -1.39706628E-04
  2.43052142E-03 -4.95971472E-04 -1.39923671E-03  8.56742799E-04  3.27053264E-03
 -1.05819047E-03 -2.19201498E-03 -9.14227704E-03  1.07596563E-03  1.32215375E-03
 -7.01047679E-03 -1.06977215E-03 -3.31140539E-04 -5.05990883E-04 -3.29980380E-03
 -7.28873937E-04 -1.83518577E-03 -5.31856252E-04  4.52236481E-04 -1.37916157E-04
  1.82292197E-03  3.19839990E-03  6.58039305E-03  4.85321555E-05  1.11419208E-04
  3.94785311E-05 -3.09532969E-03 -7.20885925E-03 -3.81280334E-03 -2.61348621E-04
 -3.83479965E-04 -1.46376952E-04  3.09533479E-03  7.20891799E-03  3.81283687E-03
 -2.61358898E-04 -3.83481851E-04  1.46376092E-04 -1.82291157E-03 -3.19841446E-03
 -6.58043290E-03  4.85370635E-05  1.11403803E-04 -3.94808261E-05 -1.60410860E-08
 -2.22945064E-08 -3.61237252E-04 -1.22662098E-03 -1.33121278E-08  5.06352252E-08
 -1.01689595E-03 -2.32392314E-03 -1.64461593E-08  4.55712106E-08  4.87610064E-04
 -1.58268665E-03 -9.84079741E-08 -5.63883335E-08  5.71373841E-04  6.39733303E-04
  1.04588110E-08 -1.09593923E-08  5.50664396E-03 -1.32736307E-04  6.12822833E-09
 -9.99838894E-09 -6.26315172E-04 -1.01242500E-03 -1.49488612E-02 -4.70784440E-03
  3.97793312E-04  2.82122993E-03 -2.19197162E-02 -6.78491884E-03  6.58833691E-04
  6.83942815E-03 -1.99600450E-02 -7.44246649E-03 -1.43384156E-03  8.47483073E-03
 -2.44670493E-03 -1.72653670E-03 -3.13077967E-03 -7.53944129E-05  2.25919673E-04
  1.35704590E-04 -5.62008831E-04  8.42195105E-04  6.26338279E-04  1.01246171E-03
 -1.49487982E-02 -4.70778539E-03 -3.97720025E-04 -2.82134000E-03 -2.19196249E-02
 -6.78484091E-03 -6.58726856E-04 -6.83959139E-03 -1.99599434E-02 -7.44240565E-03
  1.43394915E-03 -8.47495149E-03 -2.44664900E-03 -1.72652458E-03  3.13084847E-03
  7.53908853E-05  2.25920387E-04  1.35709431E-04  5.62008104E-04 -8.42189872E-04
  1.96821189E-08  2.53287919E-08  1.54785450E-02 -1.91054249E-03 -1.84229093E-08
 -5.66598779E-08  2.23751141E-02 -2.79842457E-03 -2.50659358E-08 -1.58750732E-08
  2.06129441E-02 -2.17099699E-03 -3.23491389E-08  5.46461039E-08  4.09064116E-03
  7.21372230E-04  8.50363940E-04  1.28667293E-03  4.31424318E-04 -4.62426334E-03
 -2.02791620E-03  1.54049106E-03  9.23818701E-04 -7.01055968E-03  3.60318873E-03
  4.71125623E-04  2.70736222E-03 -3.65610484E-03 -5.92839684E-03 -9.95593541E-05
 -2.28172661E-03  1.80451037E-04 -2.20911232E-04 -1.37314827E-03  1.07773325E-03
  5.11131390E-05  2.47072830E-04 -7.21369778E-04 -8.50364190E-04  1.28664273E-03
  4.31424524E-04  4.62426564E-03  2.02791154E-03  1.54041743E-03  9.23835763E-04
  7.01055827E-03 -3.60294815E-03  4.70939794E-04  2.70743350E-03  3.65610692E-03
  5.92837700E-03 -9.95827779E-05 -2.28171554E-03 -1.80456850E-04  2.20930354E-04
 -1.37310284E-03  1.07774527E-03 -5.10975060E-05 -2.47090011E-04  3.63966875E-03
  5.56641643E-03  5.02354114E-03 -1.89388698E-04  1.99495494E-04 -1.45849954E-04
 -6.42619391E-04 -2.27192786E-03 -1.16155420E-03 -1.13787142E-04 -1.76438330E-04
 -3.48120834E-04  6.42617804E-04  2.27191147E-03  1.16154713E-03 -1.13803568E-04
 -1.76422188E-04  3.48102376E-04 -3.63964705E-03 -5.56653154E-03 -5.02349339E-03
 -1.89402506E-04  1.99509175E-04  1.45823887E-04 -2.90224369E-10  4.36397789E-10
 -1.41416603E-03 -3.34804136E-04 -1.42384554E-08 -1.07702435E-08 -2.27757784E-03
 -1.24507315E-03 -2.47640615E-08  1.38449476E-08 -3.88255269E-03  9.49696933E-03
 -7.67792607E-08  5.89527165E-08 -7.93473725E-04  3.58275845E-03 -4.39211733E-08
  7.00159858E-10 -1.62658795E-04  7.70544213E-03 -2.59341712E-09  8.36734641E-09
  3.29681298E-04  7.80464907E-04 -6.86589253E-03  3.47393475E-03 -8.18096077E-03
 -3.48365871E-03 -9.90410631E-03  4.49697391E-03 -1.15300422E-02 -6.01000179E-03
 -9.46644744E-03  4.26985223E-03 -1.11231596E-02 -9.34312259E-03 -2.33452983E-03
  2.99593165E-03 -1.36282525E-03  5.49593861E-04 -1.34371356E-04  1.94200312E-04
 -2.02332478E-04  3.74485544E-04 -3.29673246E-04 -7.80450818E-04 -6.86589494E-03
  3.47394877E-03  8.18100060E-03  3.48362189E-03 -9.90411170E-03  4.49698724E-03
  1.15300909E-02  6.00986767E-03 -9.46645202E-03  4.26983936E-03  1.11232622E-02
  9.34291179E-03 -2.33455624E-03  2.99591070E-03  1.36293375E-03 -5.49593538E-04
 -1.34378479E-04  1.94201127E-04  2.02332608E-04 -3.74485413E-04 -1.98291282E-09
 -1.19844320E-08 -2.08814463E-03  2.50739218E-02  3.69142791E-08  6.28465019E-08
 -3.08941015E-03  3.63613882E-02  5.09471270E-08  1.01811139E-07 -2.07963153E-03
  3.18871885E-02  2.60053459E-08  2.31549646E-08  4.84984174E-04  4.80768935E-03
 -1.41755678E-03 -1.38415063E-03  3.49615124E-03 -2.86518138E-03 -2.19748279E-03
  1.20021834E-03  4.91757766E-03 -4.20479337E-03 -3.30888391E-03 -1.76987338E-05
  3.52166196E-03 -2.19437048E-03 -2.88058347E-03  7.68844182E-04  8.23111112E-04
 -2.82718069E-04  5.61190278E-05  1.39670959E-05 -3.54844416E-04 -6.19191975E-04
  1.19446678E-04 -6.31750262E-04 -1.41760052E-03 -1.38418813E-03 -3.49612842E-03
  2.86521292E-03 -2.19748927E-03  1.20021952E-03 -4.91753492E-03  4.20484295E-03
 -3.30888962E-03 -1.76916709E-05 -3.52164339E-03  2.19441088E-03 -2.88051872E-03
  7.68671606E-04 -8.23112325E-04  2.82764540E-04  5.61272010E-05  1.39709280E-05
  3.54845676E-04  6.19196606E-04  1.19429523E-04 -6.31751505E-04  4.25067921E-03
  5.84567086E-03  1.68335071E-03 -3.06049457E-04  1.48374717E-04  2.25999883E-04
 -1.55154482E-03 -2.56637912E-03 -2.10406535E-03  5.22743600E-05 -2.11679661E-04
 -1.44589035E-04 -1.55155918E-03 -2.56641268E-03 -2.10406909E-03 -5.22683119E-05
  2.11680722E-04 -1.44585216E-04  4.25067730E-03  5.84569322E-03  1.68336216E-03
  3.06050848E-04 -1.48380854E-04  2.26006642E-04 -2.90007441E-03 -1.92710427E-03
  2.38373878E-08  6.24324127E-09  2.05947494E-03 -2.39030610E-03  3.78219452E-08
  1.18167528E-08  3.18709083E-03 -1.53662692E-03  8.89215391E-09  5.38781129E-08
  5.27655333E-03 -4.19129047E-04  4.75306080E-09  2.73228476E-08  8.45282763E-04
 -1.22799913E-03 -2.92981095E-08  3.05166909E-08 -5.17201104E-04  2.06047848E-04
 -1.83043368E-03 -2.79942080E-03  8.11384763E-04  4.47227776E-03  6.38498748E-04
  7.85795523E-03  1.21318061E-03  6.42687826E-03  8.94360100E-04  8.78837337E-03
  1.83913150E-03  4.65772607E-03  5.51095200E-04  3.30857203E-03  1.31594013E-03
 -9.13407277E-04  2.49846687E-04  3.16597399E-04  1.28819922E-04 -2.32418149E-04
  3.07973100E-04  9.97814016E-05 -1.83040876E-03 -2.79938397E-03 -8.11278708E-04
 -4.47210617E-03  6.38505188E-04  7.85785832E-03 -1.21302982E-03 -6.42663003E-03
  8.94364493E-04  8.78833266E-03 -1.83899265E-03 -4.65748659E-03  5.51115869E-04
  3.30869055E-03 -1.31594876E-03  9.13457514E-04  2.49848473E-04  3.16591607E-04
 -1.28822657E-04  2.32410609E-04  3.07962562E-04  9.97897197E-05  2.71318657E-03
  3.19684591E-03 -6.27078535E-08  9.90890336E-08 -1.59913028E-03 -5.31559604E-03
 -9.04988161E-08  1.43502574E-07 -2.56844721E-03 -7.17883754E-03 -8.36544273E-08
  1.22013529E-07 -7.36937577E-04 -4.76275413E-03 -2.09906381E-08  1.20902303E-08
  1.02113169E-03  2.94514351E-06 -4.32967261E-05  6.01730830E-05 -1.97792352E-04
  1.22525437E-04  4.22984228E-04  1.23183206E-04 -3.32062957E-04  2.49306082E-04
  7.20301817E-04  5.11001761E-04 -3.28752936E-04  2.94779426E-04 -4.39375817E-04
  2.60629473E-04 -1.43267208E-04 -1.18208357E-04 -1.64116634E-04  3.04657890E-05
 -1.78773022E-04  1.99424491E-06 -3.95259899E-05  2.94200950E-06 -4.32994464E-05
 -6.01766820E-05  1.97791643E-04  1.22526635E-04  4.22980825E-04 -1.23161140E-04
  3.32073564E-04  2.49307500E-04  7.20360876E-04 -5.11009323E-04  3.28728866E-04
  2.94771621E-04 -4.39622477E-04 -2.60638878E-04  1.43332651E-04 -1.18216196E-04
 -1.64111540E-04 -3.04873866E-05  1.78750543E-04  2.00140517E-06 -3.95257963E-05
 -1.82341463E-05 -2.70261608E-04 -4.55281441E-04  2.69140490E-06 -2.30597862E-06
  1.30943733E-05  1.75131639E-05  9.24169828E-05  2.56605755E-05  2.06314962E-06
  9.07809618E-06  3.18837983E-05  1.75169679E-05  9.23842259E-05  2.56989138E-05
 -2.05018944E-06 -9.06865975E-06  3.18842615E-05 -1.82358079E-05 -2.70271992E-04
 -4.55280859E-04 -2.69471656E-06  2.30925625E-06  1.31100540E-05 -5.37206940E-03
 -7.33315667E-03  1.71236029E-08 -3.47484663E-09  1.07017424E-02  1.84817557E-02
  2.53572829E-08 -1.79234553E-09  1.44770355E-02  8.50185785E-03  7.35133161E-09
  1.07736911E-09  4.31718566E-03  1.95466580E-03  2.35366218E-09  4.32965817E-09
 -3.52974251E-04  1.42191207E-03  4.32101914E-09 -2.43931559E-09  1.50512234E-04
  6.12155249E-05  1.28770678E-04  2.70459345E-04 -3.96899809E-04  1.47074184E-03
 -1.18418833E-04 -9.90225497E-04 -5.89271654E-04  2.16731312E-03 -1.01091667E-04
 -1.43045956E-03 -4.72694906E-04  1.79236387E-03 -3.78680697E-04  2.54144911E-04
  1.29250031E-04 -3.34094405E-04 -6.39359868E-05  2.80673717E-04  2.57610710E-05
 -1.22219542E-04  1.91951927E-04  1.17799049E-04  1.28769366E-04  2.70456906E-04
  3.96900622E-04 -1.47074482E-03 -1.18419141E-04 -9.90221114E-04  5.89271484E-04
 -2.16731581E-03 -1.01089324E-04 -1.43044677E-03  4.72697921E-04 -1.79235336E-03
 -3.78679719E-04  2.54144248E-04 -1.29249632E-04  3.34091989E-04 -6.39403341E-05
  2.80673983E-04 -2.57601849E-05  1.22219419E-04  1.91950715E-04  1.17799810E-04
 -1.06654627E-03 -1.94289221E-03  2.17103898E-09 -1.17328964E-09 -1.38695035E-02
  6.06789060E-03  3.40134595E-09 -1.64778221E-09 -1.96185743E-02 -5.90482241E-03
  7.74941213E-09 -2.74163814E-09 -1.00751606E-02 -6.85893968E-03  1.51923814E-09
 -2.59097734E-09  1.87507646E-04  1.71249757E-03  6.50173860E-05  1.06109800E-04
  1.22871190E-04  1.00573284E-04 -2.06413518E-04 -3.19640220E-04  2.30672613E-04
  1.45633444E-04 -3.76132034E-04 -8.22074827E-04  3.10262902E-04  4.02633035E-04
 -9.36424066E-04 -9.57259792E-03  2.86404608E-04 -2.36556851E-03 -1.07755189E-03
 -4.28961393E-05  3.94375223E-05  4.24571874E-05  4.46327465E-05 -4.91294597E-05
 -6.50159711E-05 -1.06107546E-04  1.22873121E-04  1.00573152E-04  2.06409229E-04
  3.19631834E-04  2.30676452E-04  1.45623495E-04  3.76131154E-04  8.22050119E-04
  3.10259348E-04  4.02622237E-04  9.36426621E-04  9.57260824E-03  2.86395328E-04
 -2.36557535E-03  1.07755440E-03  4.29027858E-05  3.94526854E-05  4.24652489E-05
 -4.46274761E-05  4.91442596E-05  3.26058481E-05 -9.00168879E-05 -5.39891332E-04
  1.65597512E-05 -1.89634481E-05 -1.63765209E-05 -3.36951385E-05  5.21819842E-05
  1.08900481E-03 -2.23442186E-05  6.46729820E-07 -2.22941304E-05  3.36956878E-05
 -5.21653138E-05 -1.08901096E-03 -2.23437928E-05  6.47004518E-07  2.22856963E-05
 -3.26099277E-05  9.00352120E-05  5.39869640E-04  1.65659509E-05 -1.89596081E-05
  1.63826638E-05 -5.45153457E-09 -7.54248653E-09 -8.52395131E-03 -5.59581302E-04
  1.79354114E-08  2.00340421E-08 -1.31273153E-02 -9.27032716E-04  2.36573720E-08
  1.21306116E-08 -8.34957997E-03 -8.01713476E-04  1.26886542E-08  4.07068036E-09
 -2.07493443E-03 -7.38307002E-04 -5.39421433E-10  4.34644384E-09 -2.04204317E-03
 -2.67992664E-05 -1.83197407E-09  7.58556875E-10 -3.09339682E-05 -2.52161928E-05
 -3.19035711E-05 -5.98504804E-04  1.22757082E-04 -3.66620661E-05 -1.17550922E-04
 -9.64110529E-04  1.98387114E-04 -1.03809805E-03  6.38688235E-04 -2.33822276E-04
  1.81121875E-05 -2.58127654E-03  1.50445721E-03  6.91726449E-04  5.30104577E-04
  2.67234376E-05 -2.36317331E-04 -1.30953026E-04 -2.10389301E-04  2.35666453E-04
  3.09333062E-05  2.52149344E-05 -3.19032444E-05 -5.98504959E-04 -1.22760164E-04
  3.66654254E-05 -1.17548816E-04 -9.64111158E-04 -1.98386788E-04  1.03809701E-03
  6.38694385E-04 -2.33830002E-04 -1.81208364E-05  2.58128081E-03  1.50444208E-03
  6.91725033E-04 -5.30115151E-04 -2.67226549E-05 -2.36319029E-04 -1.30952536E-04
  2.10388669E-04 -2.35666908E-04  4.13133001E-10 -3.95413955E-10 -1.23981429E-02
 -7.71460223E-05 -8.31458933E-09  4.52270859E-09 -1.82141713E-02 -1.36980464E-04
 -1.14103094E-08 -1.00646085E-08 -1.48381375E-02 -4.68141467E-06 -1.74654796E-09
 -1.04610507E-08 -8.55907035E-04  2.30923383E-04  2.07638772E-09  5.77557278E-10
  1.30187896E-03 -1.69251409E-04 -2.94475880E-04  1.92113597E-04 -3.65935753E-05
  4.18849897E-04  9.98153368E-04  3.02382524E-04  4.03469230E-05  7.60492681E-04
  8.48206925E-04  5.11663466E-04 -5.22237388E-04  8.00689938E-04 -1.67677122E-03
  1.17168185E-04 -2.22307693E-05 -3.95782010E-04  1.17061795E-04  1.60684357E-05
  7.64670350E-05  2.80507552E-05  2.62616810E-05  1.69252627E-04  2.94478109E-04
  1.92110240E-04 -3.65940176E-05 -4.18851612E-04 -9.98152433E-04  3.02393831E-04
  4.03357871E-05 -7.60490990E-04 -8.48302957E-04  5.11703911E-04 -5.22251568E-04
 -8.00709532E-04  1.67680632E-03  1.17176556E-04 -2.22324224E-05  3.95790255E-04
 -1.17067775E-04  1.60511725E-05  7.64625811E-05 -2.80594612E-05 -2.62523677E-05
  4.32211516E-05  7.94331224E-05 -2.80247799E-04 -1.03170343E-05  2.85215381E-05
  8.62680638E-05 -1.00326419E-06  1.66728640E-04  4.13400638E-04  3.43238466E-05
  1.47382546E-05  4.69377532E-05  9.98035186E-07 -1.66725814E-04 -4.13414067E-04
  3.43302656E-05  1.47292042E-05 -4.69314041E-05 -4.32202931E-05 -7.93722446E-05
  2.80231916E-04 -1.03094608E-05  2.85131194E-05 -8.62553965E-05  1.79621910E-09
  2.46378109E-09 -5.33577115E-04 -6.48353166E-03 -4.28166114E-09 -5.17407733E-09
 -9.01579064E-04 -9.63251674E-03 -4.34146016E-09 -2.28921207E-08 -7.08388210E-04
 -5.75954007E-03  1.10315543E-08 -4.20852480E-08 -2.30314498E-04 -1.88525963E-03
  2.24916861E-08 -1.38731949E-09 -1.01254216E-05 -1.85638114E-03  1.29470019E-12
 -1.74204528E-09  1.80099783E-04  1.75134524E-04 -7.31352852E-04  2.16342712E-03
 -4.08955035E-04  3.10509397E-05 -1.14643237E-03  3.37444233E-03 -7.27050569E-04
  3.11998884E-03 -4.59282472E-04  1.89632747E-03  7.36067930E-04  4.48976062E-03
  6.97195838E-04 -7.47275721E-04  1.34991761E-05 -8.81401718E-05 -1.19938718E-04
  2.18789070E-04  1.75719451E-04  2.15848754E-04 -1.80099607E-04 -1.75134336E-04
 -7.31349971E-04  2.16342811E-03  4.08954636E-04 -3.10543672E-05 -1.14642618E-03
  3.37444493E-03  7.27054525E-04 -3.11995703E-03 -4.59282816E-04  1.89633857E-03
 -7.36088005E-04 -4.48968388E-03  6.97198975E-04 -7.47262178E-04 -1.35261777E-05
  8.81410238E-05 -1.19937678E-04  2.18789494E-04 -1.75719941E-04 -2.15848942E-04
 -9.71447935E-10 -7.27890103E-10 -6.68499361E-05 -1.20556099E-02  2.57145202E-09
 -3.48998043E-10 -1.28588599E-04 -1.76034766E-02  3.65745693E-09 -1.04636124E-09
  5.21527345E-06 -1.47330846E-02  1.41842305E-09  5.41744619E-09  2.12202115E-04
 -1.44343917E-03 -6.04916400E-09 -3.29316813E-10  5.78002900E-05  1.07939865E-03
  2.35761776E-06  4.00631914E-06  3.50917238E-06 -1.59299890E-04  1.05697945E-04
 -2.50242428E-05  1.89924125E-05 -2.30916710E-04  1.78874046E-04 -2.00364690E-05
  3.49565004E-05 -1.73338666E-04  1.02784695E-04  3.55735489E-05  4.46656594E-06
 -2.77736108E-06  1.53472850E-05  3.63638646E-05  2.60804644E-05  3.46969808E-05
  2.11149686E-05  4.04284608E-07  2.35768434E-06  4.00647447E-06 -3.50915089E-06
  1.59300206E-04  1.05698060E-04 -2.50246828E-05 -1.89914336E-05  2.30916553E-04
  1.78873905E-04 -2.00379606E-05 -3.49548978E-05  1.73339527E-04  1.02783034E-04
  3.55954838E-05 -4.46570764E-06  2.77239614E-06  1.53497311E-05  3.63635145E-05
 -2.60791009E-05 -3.46951116E-05  2.11146968E-05  4.04965941E-07  7.34163730E-06
  1.24850477E-05  1.31989271E-05 -1.91731755E-06 -1.07519355E-05  6.69518740E-06
  5.04611691E-05  1.22161937E-04  1.16542633E-04  9.56559724E-06 -4.12767380E-06
  6.96441079E-06  5.04602369E-05  1.22159768E-04  1.16538380E-04 -9.56555380E-06
  4.12809307E-06  6.96352580E-06  7.34229767E-06  1.24868100E-05  1.32005434E-05
  1.91762362E-06  1.07523473E-05  6.69592697E-06 -1.15306885E-04 -2.01460687E-04
 -5.07985971E-09 -1.56857433E-09  8.14374721E-06  5.97138009E-04 -7.84447328E-09
 -2.41982692E-09 -7.02364066E-05  1.22380159E-04 -5.30813274E-09 -1.63644576E-09
 -4.23788285E-04 -3.84342281E-05 -1.64861173E-09 -1.21784476E-09 -2.50517213E-06
  1.45827429E-04 -1.11009550E-09 -2.33076364E-10  4.88687710E-05 -3.16026734E-05
  2.40288117E-05  5.21928968E-05 -1.63360401E-04 -3.62669528E-04 -1.84908090E-04
 -2.03510442E-04 -2.40401568E-04 -5.28568933E-04 -2.67341035E-04 -3.88942723E-04
 -2.63906999E-04 -4.00581827E-04 -2.11455771E-04 -2.58388220E-04 -7.09747621E-05
 -1.40265662E-05  2.21556342E-05 -3.78829387E-06 -1.77284501E-06  6.27700238E-06
 -2.57915889E-05 -2.93043677E-07  2.40290422E-05  5.21932580E-05  1.63359216E-04
  3.62671721E-04 -1.84910188E-04 -2.03511394E-04  2.40399969E-04  5.28572057E-04
 -2.67343758E-04 -3.88945146E-04  2.63906374E-04  4.00584248E-04 -2.11458328E-04
 -2.58388080E-04  7.09773953E-05  1.40271812E-05  2.21551184E-05 -3.78841260E-06
  1.77268552E-06 -6.27710598E-06 -2.57914810E-05 -2.93538309E-07 -3.48635782E-04
 -5.58612684E-04 -7.16864852E-09 -2.61751874E-09  6.80169435E-05  1.60578900E-03
 -1.05007548E-08 -3.87441815E-09  1.05854093E-04  1.46193594E-03 -8.58627306E-09
 -3.23141069E-09  7.24503281E-05  2.69423225E-04 -3.87417556E-10 -3.39549347E-11
 -3.80656887E-05  1.56820941E-05  7.76433477E-10  2.62526307E-10  6.57808028E-06
 -1.01923306E-05 -1.39601534E-05  6.59368086E-05 -5.01948852E-05  5.88260943E-05
  3.50981059E-05  8.65069995E-05 -6.76376905E-05  1.05414198E-04 -2.99059961E-06
  2.89289578E-05 -4.39939149E-05  2.48313417E-05 -3.42069204E-05 -2.93209481E-05
 -5.77511356E-06 -1.16044168E-05  3.65071428E-05 -3.20016270E-05  2.43153335E-06
 -1.04483189E-05 -7.02256504E-06 -1.01915901E-05 -1.39591214E-05 -6.59372926E-05
  5.01949206E-05  5.88257726E-05  3.50951231E-05 -8.65070990E-05  6.76379351E-05
  1.05413052E-04 -2.98854267E-06 -2.89294080E-05  4.39909575E-05  2.48324118E-05
 -3.42118215E-05  2.93206890E-05  5.77664081E-06 -1.16034875E-05  3.65067444E-05
  3.20023353E-05 -2.43086569E-06 -1.04482345E-05 -7.02205884E-06  6.28507965E-05
  1.33473118E-04  1.22082546E-04 -3.01955275E-06  9.85644490E-07  9.28474198E-06
 -7.34837896E-05 -1.34954612E-04 -1.30880453E-04  8.04630443E-07 -6.62287237E-06
  1.66375970E-06 -7.34847856E-05 -1.34957351E-04 -1.30880880E-04 -8.04022701E-07
  6.62331502E-06  1.66339204E-06  6.28506001E-05  1.33472483E-04  1.22083205E-04
  3.01908556E-06 -9.85409589E-07  9.28481173E-06 -6.06453429E-05 -1.07055559E-04
  1.47419515E-09 -3.95911457E-09 -1.14388727E-05  3.26949676E-04  2.24875176E-09
 -5.86969271E-09 -5.91664455E-05  1.09182974E-04  1.11578563E-09 -3.22332134E-09
 -1.61601997E-04  3.54401952E-05  2.51972801E-10 -1.08339839E-09 -1.03046912E-05
  6.70767548E-05  2.53778595E-10 -9.93890577E-10 -2.90345864E-05  6.74003891E-05
  1.51351426E-05  3.25388720E-05  3.91167157E-04 -6.49993385E-05 -6.37255313E-05
 -1.27118676E-04  5.72819397E-04 -9.39508889E-05 -9.08062274E-05 -2.01358289E-04
  5.24094888E-04 -3.63799643E-05 -7.56903134E-05 -8.44700531E-05  7.25932378E-05
  2.89770807E-05 -2.32930149E-06 -2.96048334E-06 -4.24186147E-06  1.44645973E-06
  1.02016388E-06 -2.38871015E-05  1.51349044E-05  3.25386760E-05 -3.91166819E-04
  6.50023787E-05 -6.37222458E-05 -1.27119108E-04 -5.72818893E-04  9.39555075E-05
 -9.08011349E-05 -2.01362020E-04 -5.24094042E-04  3.63824800E-05 -7.56877894E-05
 -8.44754744E-05 -7.25923926E-05 -2.89777302E-05 -2.32882270E-06 -2.96045295E-06
  4.24180436E-06 -1.44595984E-06  1.01996826E-06 -2.38872201E-05 -1.52950718E-04
 -2.46192744E-04  1.39215027E-09 -6.27882553E-09  3.14618384E-05  7.11650359E-04
  2.03286883E-09 -9.16771817E-09  4.90610947E-05  6.29101340E-04  1.57372102E-09
 -7.55089818E-09  4.04261288E-05  9.15341650E-05 -3.35667866E-11 -6.45436991E-10
 -5.80986030E-06  6.91120354E-06 -1.65169604E-10  5.82937499E-10  1.78927628E-06
  2.72988741E-06
