[Molden Format]
[Title]
 Molden file created by orca_2mkl for BaseName=EC

[Atoms] AU
C    1   6          0.0000286889        -1.4462349993        -2.4584018227 
C    2   6         -0.0000399123         1.4462341237        -2.4584029256 
H    3   1          1.4617540922        -2.2803482971        -3.6428639891 
H    4   1         -1.8417447319        -2.2420425772        -2.9500512255 
H    5   1          1.8417421915         2.2420318378        -2.9500340294 
H    6   1         -1.4617515576         2.2803556914        -3.6428766453 
C    7   6          0.0000031620         0.0000010029         1.6102729389 
O    8   8         -0.5380744566         2.0394866575         0.1370113151 
O    9   8          0.5380778736        -2.0394840530         0.1370097798 
O   10   8          0.0000046501         0.0000006133         3.8557683423 
[GTO]
  1 0
s   6 1.0 
     4563.2400000000         0.7782017567
      682.0240000000         1.4486948054
      154.9730000000         2.3830893322
       44.4553000000         3.2000890123
       13.0290000000         3.0130044376
        1.8277300000         0.2475986326
s   3 1.0 
       20.9642000000         0.8006285193
        4.8033100000         2.1274198914
        1.4593300000        -0.0028679106
p   3 1.0 
       20.9642000000         2.5735922152
        4.8033100000         2.4082482228
        1.4593300000         1.8652813335
s   1 1.0 
        0.4834560000         0.4132166458
p   1 1.0 
        0.4834560000         0.5746273343
s   1 1.0 
        0.1455850000         0.1679761277
p   1 1.0 
        0.1455850000         0.1281846070
s   1 1.0 
        0.0438000000         0.0682363322
p   1 1.0 
        0.0438000000         0.0285616127
d   1 1.0 
        0.6260000000         1.2559581449

  2 0
s   6 1.0 
     4563.2400000000         0.7782017567
      682.0240000000         1.4486948054
      154.9730000000         2.3830893322
       44.4553000000         3.2000890123
       13.0290000000         3.0130044376
        1.8277300000         0.2475986326
s   3 1.0 
       20.9642000000         0.8006285193
        4.8033100000         2.1274198914
        1.4593300000        -0.0028679106
p   3 1.0 
       20.9642000000         2.5735922152
        4.8033100000         2.4082482228
        1.4593300000         1.8652813335
s   1 1.0 
        0.4834560000         0.4132166458
p   1 1.0 
        0.4834560000         0.5746273343
s   1 1.0 
        0.1455850000         0.1679761277
p   1 1.0 
        0.1455850000         0.1281846070
s   1 1.0 
        0.0438000000         0.0682363322
p   1 1.0 
        0.0438000000         0.0285616127
d   1 1.0 
        0.6260000000         1.2559581449

  3 0
s   3 1.0 
       33.8650000000         0.2550693200
        5.0947900000         0.4601086622
        1.1587900000         0.6783214465
s   1 1.0 
        0.3258400000         0.3073713539
s   1 1.0 
        0.1027410000         0.1293355558
p   1 1.0 
        0.7500000000         0.9948707607

  4 0
s   3 1.0 
       33.8650000000         0.2550693200
        5.0947900000         0.4601086622
        1.1587900000         0.6783214465
s   1 1.0 
        0.3258400000         0.3073713539
s   1 1.0 
        0.1027410000         0.1293355558
p   1 1.0 
        0.7500000000         0.9948707607

  5 0
s   3 1.0 
       33.8650000000         0.2550693200
        5.0947900000         0.4601086622
        1.1587900000         0.6783214465
s   1 1.0 
        0.3258400000         0.3073713539
s   1 1.0 
        0.1027410000         0.1293355558
p   1 1.0 
        0.7500000000         0.9948707607

  6 0
s   3 1.0 
       33.8650000000         0.2550693200
        5.0947900000         0.4601086622
        1.1587900000         0.6783214465
s   1 1.0 
        0.3258400000         0.3073713539
s   1 1.0 
        0.1027410000         0.1293355558
p   1 1.0 
        0.7500000000         0.9948707607

  7 0
s   6 1.0 
     4563.2400000000         0.7782017567
      682.0240000000         1.4486948054
      154.9730000000         2.3830893322
       44.4553000000         3.2000890123
       13.0290000000         3.0130044376
        1.8277300000         0.2475986326
s   3 1.0 
       20.9642000000         0.8006285193
        4.8033100000         2.1274198914
        1.4593300000        -0.0028679106
p   3 1.0 
       20.9642000000         2.5735922152
        4.8033100000         2.4082482228
        1.4593300000         1.8652813335
s   1 1.0 
        0.4834560000         0.4132166458
p   1 1.0 
        0.4834560000         0.5746273343
s   1 1.0 
        0.1455850000         0.1679761277
p   1 1.0 
        0.1455850000         0.1281846070
s   1 1.0 
        0.0438000000         0.0682363322
p   1 1.0 
        0.0438000000         0.0285616127
d   1 1.0 
        0.6260000000         1.2559581449

  8 0
s   6 1.0 
     8588.5000000000         1.2050128859
     1297.2300000000         2.2162047744
      299.2960000000         3.6274524983
       87.3771000000         4.8884523076
       25.6789000000         4.8357205177
        3.7400400000         0.5382294948
s   3 1.0 
       42.1175000000         1.3419577961
        9.6283700000         3.5871143115
        2.8533200000        -0.0051234679
p   3 1.0 
       42.1175000000         5.5840175343
        9.6283700000         5.7333656931
        2.8533200000         4.3329547351
s   1 1.0 
        0.9056610000         0.6616591794
p   1 1.0 
        0.9056610000         1.2593521004
s   1 1.0 
        0.2556110000         0.2562092156
p   1 1.0 
        0.2556110000         0.2590684413
s   1 1.0 
        0.0845000000         0.1116998588
p   1 1.0 
        0.0845000000         0.0649398041
d   1 1.0 
        1.2920000000         4.4635405283

  9 0
s   6 1.0 
     8588.5000000000         1.2050128859
     1297.2300000000         2.2162047744
      299.2960000000         3.6274524983
       87.3771000000         4.8884523076
       25.6789000000         4.8357205177
        3.7400400000         0.5382294948
s   3 1.0 
       42.1175000000         1.3419577961
        9.6283700000         3.5871143115
        2.8533200000        -0.0051234679
p   3 1.0 
       42.1175000000         5.5840175343
        9.6283700000         5.7333656931
        2.8533200000         4.3329547351
s   1 1.0 
        0.9056610000         0.6616591794
p   1 1.0 
        0.9056610000         1.2593521004
s   1 1.0 
        0.2556110000         0.2562092156
p   1 1.0 
        0.2556110000         0.2590684413
s   1 1.0 
        0.0845000000         0.1116998588
p   1 1.0 
        0.0845000000         0.0649398041
d   1 1.0 
        1.2920000000         4.4635405283

 10 0
s   6 1.0 
     8588.5000000000         1.2050128859
     1297.2300000000         2.2162047744
      299.2960000000         3.6274524983
       87.3771000000         4.8884523076
       25.6789000000         4.8357205177
        3.7400400000         0.5382294948
s   3 1.0 
       42.1175000000         1.3419577961
        9.6283700000         3.5871143115
        2.8533200000        -0.0051234679
p   3 1.0 
       42.1175000000         5.5840175343
        9.6283700000         5.7333656931
        2.8533200000         4.3329547351
s   1 1.0 
        0.9056610000         0.6616591794
p   1 1.0 
        0.9056610000         1.2593521004
s   1 1.0 
        0.2556110000         0.2562092156
p   1 1.0 
        0.2556110000         0.2590684413
s   1 1.0 
        0.0845000000         0.1116998588
p   1 1.0 
        0.0845000000         0.0649398041
d   1 1.0 
        1.2920000000         4.4635405283

[5D]
[7F]
[9G]
[MO]
 Sym=     1a
 Ene= -1.91891246003822E+01
 Spin= Alpha
 Occup= 2.000000
  1      -0.000014090697
  2       0.000056687992
  3      -0.000036973299
  4       0.000026406272
  5      -0.000100048456
  6       0.000060669320
  7       0.000062570531
  8       0.000084845025
  9      -0.000100474951
 10      -0.005661900749
 11      -0.000133985040
 12      -0.002097011098
 13      -0.001198707722
 14       0.015810049429
 15       0.000053165302
 16       0.003408402482
 17       0.002247388802
 18       0.000170929202
 19       0.000031266115
 20      -0.000127961766
 21      -0.000088851657
 22      -0.000073950737
 23       0.000014161257
 24      -0.000056957267
 25      -0.000037049117
 26       0.000026469541
 27       0.000100322748
 28      -0.000060192343
 29       0.000061926137
 30       0.000086539708
 31       0.000102346830
 32       0.005681217350
 33      -0.000141426716
 34      -0.002093075841
 35       0.001204176337
 36      -0.015803023138
 37       0.000054824202
 38       0.003405813741
 39      -0.002246123500
 40      -0.000170258282
 41       0.000031811204
 42      -0.000128430788
 43       0.000089174403
 44       0.000073959138
 45      -0.000071342215
 46       0.000928455214
 47      -0.000395841787
 48      -0.000042689353
 49       0.000143508408
 50       0.000222057128
 51      -0.000013149312
 52       0.001051629572
 53      -0.000787785497
 54       0.000178084997
 55       0.000113007013
 56       0.000158852090
 57       0.000013223880
 58      -0.001052893683
 59       0.000787466932
 60       0.000178690537
 61       0.000113133295
 62      -0.000159223567
 63       0.000071643783
 64      -0.000934435706
 65       0.000394485374
 66      -0.000043410485
 67       0.000143757866
 68      -0.000223110659
 69       0.000000037701
 70      -0.000000147351
 71      -0.000090766979
 72       0.000268017459
 73      -0.000000433801
 74       0.000001074840
 75       0.000086237989
 76       0.000009553742
 77      -0.000000282579
 78       0.000013412241
 79      -0.001130394325
 80       0.003145595388
 81      -0.000016146758
 82      -0.000012228984
 83       0.000125256325
 84       0.001194248499
 85       0.000003079838
 86       0.000001348013
 87      -0.000052998597
 88       0.000390236912
 89       0.000000075957
 90       0.000000058318
 91       0.391098797022
 92       0.333182149711
 93       0.000294724767
 94      -0.000805973392
 95      -0.000337478996
 96       0.009944960710
 97       0.000067575621
 98      -0.000173648691
 99       0.000127331454
100      -0.008517712712
101      -0.000443322334
102       0.001106136463
103       0.000292188069
104       0.003300181252
105       0.000172456159
106      -0.000051575445
107      -0.001326276467
108      -0.000063228083
109       0.000021064611
110      -0.000051047150
111      -0.000035148370
112      -0.000002022567
113      -0.388597413351
114      -0.331050956660
115       0.000292602079
116      -0.000800411493
117       0.000335464993
118      -0.009882297102
119       0.000068042509
120      -0.000174111798
121      -0.000127285457
122       0.008460636842
123      -0.000440409272
124       0.001094737155
125      -0.000287164280
126      -0.003298242916
127       0.000173342118
128      -0.000054357643
129       0.001332615689
130       0.000063230561
131       0.000020925227
132      -0.000050859651
133       0.000035606192
134       0.000002312041
135      -0.000000315363
136      -0.000000099357
137       0.000013307854
138       0.000012923994
139      -0.000000214107
140      -0.000001263233
141      -0.000051871920
142      -0.000031711977
143       0.000001136363
144       0.000004150943
145       0.000314056036
146      -0.000700854367
147      -0.000000995261
148       0.000005161389
149       0.000014500460
150      -0.000402603702
151      -0.000000880733
152      -0.000000320671
153      -0.000034281342
154       0.000164198345
155      -0.000000065612
156      -0.000000039382
 Sym=     1a
 Ene= -1.91891069229702E+01
 Spin= Alpha
 Occup= 2.000000
  1      -0.000011033217
  2       0.000042646066
  3      -0.000010380896
  4       0.000009975837
  5      -0.000043519196
  6      -0.000075459437
  7      -0.000105300660
  8       0.000264897783
  9      -0.000290338048
 10      -0.003033491250
 11      -0.001179449447
 12       0.000608676975
 13      -0.000853272847
 14      -0.001042958177
 15       0.000257450014
 16      -0.000391397953
 17      -0.000190160769
 18      -0.000104396522
 19       0.000086865119
 20      -0.000074124867
 21      -0.000050813228
 22      -0.000000988073
 23      -0.000010943634
 24       0.000042282548
 25       0.000010133071
 26      -0.000009806528
 27      -0.000042878766
 28      -0.000075850536
 29       0.000105726666
 30      -0.000264356363
 31      -0.000289674100
 32      -0.002997120908
 33       0.001178536647
 34      -0.000622123379
 35      -0.000845557531
 36      -0.001144395086
 37      -0.000257112067
 38       0.000413258578
 39      -0.000204588571
 40      -0.000105496009
 41      -0.000086673267
 42       0.000073306588
 43      -0.000050245400
 44      -0.000000503583
 45      -0.000047727969
 46       0.000946901430
 47       0.000214070784
 48      -0.000114704678
 49       0.000041475096
 50       0.000166954552
 51      -0.000012271008
 52       0.000194228574
 53       0.000041957824
 54       0.000094089404
 55       0.000019501539
 56       0.000058769234
 57      -0.000012191504
 58       0.000187480870
 59       0.000047033705
 60      -0.000092938089
 61      -0.000018779435
 62       0.000057743749
 63      -0.000047270156
 64       0.000940956219
 65       0.000216583461
 66       0.000114440299
 67      -0.000040563015
 68       0.000165543722
 69      -0.000011730842
 70       0.000045728768
 71      -0.000000290817
 72       0.000000858841
 73       0.000135371688
 74      -0.000334179513
 75       0.000000275854
 76       0.000000032957
 77       0.000087381734
 78      -0.004177736227
 79      -0.000003617733
 80       0.000010090411
 81       0.005040950893
 82       0.003808376992
 83       0.000000401840
 84       0.000003835747
 85      -0.000956997315
 86      -0.000420306148
 87      -0.000000170499
 88       0.000001249349
 89      -0.000024098073
 90      -0.000017970069
 91      -0.388600485221
 92      -0.331089989533
 93      -0.000331320986
 94       0.000863801873
 95       0.000315265676
 96      -0.009734809025
 97       0.000073743948
 98      -0.000072459052
 99      -0.000008879239
100       0.008870533259
101       0.000450629483
102      -0.001773116940
103      -0.000781963855
104      -0.000289290351
105       0.000136059777
106      -0.000432797814
107      -0.000996355306
108      -0.000000557833
109      -0.000021317795
110       0.000029172284
111      -0.000071469541
112      -0.000045024002
113      -0.391101849222
114      -0.333220932650
115       0.000333207904
116      -0.000868956169
117       0.000317405690
118      -0.009798418673
119      -0.000073308103
120       0.000071346279
121      -0.000009678776
122       0.008925011010
123      -0.000453471976
124       0.001780178369
125      -0.000783834597
126      -0.000310460380
127      -0.000134954550
128       0.000432459817
129      -0.000987813308
130      -0.000000152630
131       0.000021453439
132      -0.000029498122
133      -0.000071243178
134      -0.000045010611
135       0.000098959339
136       0.000031467574
137       0.000000042286
138       0.000000039842
139       0.000066105351
140       0.000394585693
141      -0.000000166076
142      -0.000000100059
143      -0.000353858299
144      -0.001298540967
145       0.000001006132
146      -0.000002249372
147       0.000311292658
148      -0.001609209718
149       0.000000045801
150      -0.000001290525
151       0.000273573376
152       0.000099980494
153      -0.000000109812
154       0.000000526458
155       0.000020453386
156       0.000012318922
 Sym=     1a
 Ene= -1.91180313899269E+01
 Spin= Alpha
 Occup= 2.000000
  1      -0.000006708505
  2       0.000035652075
  3       0.000024493139
  4       0.000009081594
  5       0.000025281692
  6      -0.000385106258
  7      -0.000152074190
  8      -0.000119099798
  9      -0.000244575378
 10       0.000298255669
 11      -0.001961804340
 12       0.000793077629
 13       0.000944534042
 14      -0.001391748023
 15      -0.000421911052
 16      -0.000030653455
 17      -0.000436012686
 18      -0.000033177352
 19       0.000005158043
 20       0.000133660855
 21       0.000041373599
 22       0.000046398371
 23      -0.000006706563
 24       0.000035643671
 25      -0.000024515110
 26      -0.000009080928
 27       0.000025297827
 28      -0.000385103057
 29       0.000152213133
 30       0.000119131003
 31      -0.000244633504
 32       0.000298799652
 33       0.001961862867
 34      -0.000793256737
 35       0.000944653437
 36      -0.001391759879
 37       0.000421901030
 38       0.000030658276
 39      -0.000435996189
 40      -0.000033260063
 41      -0.000005112649
 42      -0.000133582967
 43       0.000041429941
 44       0.000046472352
 45      -0.000041986888
 46       0.000510241406
 47       0.000815360114
 48      -0.000004037992
 49      -0.000021468618
 50       0.000014177738
 51       0.000086229252
 52      -0.000943218838
 53      -0.000209759178
 54      -0.000085240135
 55      -0.000140402038
 56      -0.000124214379
 57       0.000086232557
 58      -0.000943474296
 59      -0.000209735734
 60       0.000085335033
 61       0.000140482815
 62      -0.000124324159
 63      -0.000041984394
 64       0.000510246397
 65       0.000815382474
 66       0.000004059278
 67       0.000021492669
 68       0.000014182238
 69      -0.000035560429
 70       0.000141415874
 71      -0.000000001500
 72      -0.000000002858
 73       0.000437182803
 74       0.000400920698
 75       0.000000008513
 76       0.000000005772
 77      -0.001470059694
 78       0.005543302422
 79       0.000000005118
 80      -0.000000059311
 81       0.009453357161
 82       0.001347847850
 83      -0.000000014142
 84      -0.000000014740
 85      -0.001387699048
 86      -0.001072525309
 87       0.000000000748
 88      -0.000000002681
 89      -0.000205820366
 90      -0.000060644773
 91       0.000072959081
 92       0.000096701543
 93       0.000003359983
 94      -0.000052719645
 95       0.000050646650
 96      -0.000231487489
 97      -0.000013381656
 98       0.000230826123
 99      -0.000136831800
100       0.001146328991
101      -0.000071637725
102      -0.000783290487
103      -0.000844451987
104       0.001007826918
105      -0.000219531034
106       0.000213818846
107      -0.000593878290
108      -0.000089346115
109      -0.000028110913
110       0.000178582231
111      -0.000024637699
112      -0.000001104719
113       0.000072962272
114       0.000096705960
115      -0.000003371402
116       0.000052708786
117       0.000050598454
118      -0.000231493567
119       0.000013400491
120      -0.000230815716
121      -0.000136765054
122       0.001146367412
123       0.000071577952
124       0.000783246675
125      -0.000844535392
126       0.001007830480
127       0.000219560575
128      -0.000213798461
129      -0.000593885616
130      -0.000089359795
131       0.000028118896
132      -0.000178563696
133      -0.000024627548
134      -0.000001103936
135       0.551302761848
136       0.469679509321
137      -0.000000000005
138       0.000000000584
139      -0.001265812250
140       0.014233243726
141      -0.000000002100
142      -0.000000000844
143      -0.000955658667
144      -0.012661477591
145       0.000000000276
146       0.000000009312
147       0.002699734523
148      -0.001388870299
149       0.000000007866
150       0.000000010610
151       0.001379114283
152       0.000358378694
153       0.000000001302
154      -0.000000001068
155       0.000000880130
156       0.000001828227
 Sym=     1a
 Ene= -1.03527941866557E+01
 Spin= Alpha
 Occup= 2.000000
  1      -0.000004963023
  2      -0.000019141075
  3       0.000021176980
  4      -0.000064816918
  5      -0.000108353776
  6      -0.000101527198
  7      -0.000149946191
  8       0.000184351141
  9       0.000402588903
 10      -0.000416728850
 11      -0.002124459705
 12       0.000046604020
 13       0.000035492060
 14       0.007124998005
 15      -0.000040824093
 16      -0.000167366751
 17       0.002056351466
 18       0.000181374861
 19       0.000067631764
 20       0.000144784309
 21       0.000026167796
 22       0.000089671883
 23      -0.000004973088
 24      -0.000019140708
 25      -0.000021178147
 26       0.000064818898
 27      -0.000108352826
 28      -0.000101544799
 29       0.000149952892
 30      -0.000184350734
 31       0.000402584269
 32      -0.000416529870
 33       0.002124485170
 34      -0.000046670255
 35       0.000035557595
 36       0.007124986813
 37       0.000040839478
 38       0.000167376946
 39       0.002056386204
 40       0.000181373724
 41      -0.000067629123
 42      -0.000144784421
 43       0.000026171344
 44       0.000089676278
 45      -0.000047173441
 46       0.000841611942
 47      -0.000608334952
 48      -0.000061520347
 49       0.000014271430
 50       0.000113436854
 51       0.000096916795
 52      -0.000864637173
 53      -0.001764640311
 54      -0.000052342370
 55      -0.000145113162
 56      -0.000174544605
 57       0.000096933270
 58      -0.000864702904
 59      -0.001764637426
 60       0.000052353090
 61       0.000145118696
 62      -0.000174550346
 63      -0.000047174327
 64       0.000841603906
 65      -0.000608296519
 66       0.000061511457
 67      -0.000014269743
 68       0.000113444069
 69       0.563062823860
 70       0.463308478167
 71       0.000000000488
 72      -0.000000000028
 73      -0.000821824281
 74       0.018746827711
 75       0.000000001871
 76       0.000000001139
 77       0.002557453696
 78      -0.011336792621
 79       0.000000002117
 80      -0.000000017009
 81       0.005883237433
 82      -0.016146412589
 83       0.000000010376
 84      -0.000000005091
 85       0.007298246433
 86       0.002301066815
 87       0.000000004377
 88      -0.000000000192
 89      -0.000450039788
 90      -0.000191148569
 91      -0.000031671867
 92      -0.000073317187
 93       0.000054978996
 94      -0.000207840947
 95       0.000081151464
 96       0.000695034733
 97      -0.000054758626
 98       0.000273526868
 99       0.000016922906
100      -0.001051278360
101      -0.000409071052
102       0.000477062342
103      -0.000716044512
104       0.007082795028
105       0.000593049183
106      -0.002999785241
107       0.000588435852
108       0.000012683266
109      -0.000041514135
110       0.000335086731
111       0.000330238960
112       0.000211554302
113      -0.000031671535
114      -0.000073317590
115      -0.000054979059
116       0.000207840417
117       0.000081151288
118       0.000695030094
119       0.000054760312
120      -0.000273525630
121       0.000016923526
122      -0.001051235897
123       0.000409057124
124      -0.000477060283
125      -0.000716069693
126       0.007082801743
127      -0.000593035431
128       0.002999775281
129       0.000588417755
130       0.000012682891
131       0.000041514649
132      -0.000335087294
133       0.000330239476
134       0.000211553356
135      -0.000112697949
136      -0.000063948273
137      -0.000000000102
138       0.000000000263
139      -0.000543765833
140       0.000375335102
141       0.000000000280
142      -0.000000000953
143       0.001947635182
144      -0.007554880022
145       0.000000004354
146       0.000000002337
147       0.003855248847
148       0.001769775780
149      -0.000000003502
150      -0.000000000555
151      -0.003135646954
152      -0.001161820398
153      -0.000000001114
154       0.000000000302
155       0.000033457293
156       0.000017635952
 Sym=     1a
 Ene= -1.02634255207393E+01
 Spin= Alpha
 Occup= 2.000000
  1      -0.398111513429
  2      -0.327569512409
  3      -0.000150739189
  4      -0.000378186105
  5      -0.000692476815
  6      -0.013690133800
  7       0.000185984227
  8       0.001610586701
  9       0.001221152475
 10       0.007933174724
 11      -0.000987434025
 12       0.000050171209
 13       0.001829863740
 14       0.002928954851
 15      -0.000299039147
 16      -0.000449491533
 17       0.000322330051
 18       0.000241242750
 19       0.000426460349
 20      -0.000624911233
 21      -0.001068429965
 22      -0.000013460256
 23      -0.398111194693
 24      -0.327569250030
 25       0.000150746837
 26       0.000378186153
 27      -0.000692473769
 28      -0.013690134033
 29      -0.000186007694
 30      -0.001610585876
 31       0.001221146049
 32       0.007933280450
 33       0.000987465786
 34      -0.000050207488
 35       0.001829922505
 36       0.002928892300
 37       0.000299048443
 38       0.000449507854
 39       0.000322348016
 40       0.000241235992
 41      -0.000426477452
 42       0.000624912046
 43      -0.001068424780
 44      -0.000013454363
 45       0.000018963346
 46       0.003124314399
 47      -0.001862551646
 48      -0.001421992410
 49       0.000681063269
 50       0.001033070400
 51       0.000062627190
 52       0.002105346736
 53      -0.002903397212
 54       0.001570125938
 55       0.000510029151
 56       0.000241911712
 57       0.000062632016
 58       0.002105306755
 59      -0.002903388313
 60      -0.001570126216
 61      -0.000510014211
 62       0.000241893681
 63       0.000018962053
 64       0.003124322488
 65      -0.001862522619
 66       0.001421980806
 67      -0.000681075674
 68       0.001033080830
 69      -0.000005336276
 70      -0.000002266902
 71       0.000000000117
 72       0.000000002419
 73      -0.000159863323
 74       0.000242492376
 75       0.000000001219
 76      -0.000000000104
 77       0.000568837855
 78       0.003564087043
 79       0.000000002766
 80      -0.000000006162
 81       0.003775490934
 82       0.000207471098
 83      -0.000000002685
 84       0.000000000457
 85      -0.000798248018
 86      -0.000194083130
 87      -0.000000001001
 88      -0.000000001227
 89       0.000021763657
 90       0.000020391788
 91       0.000015483973
 92       0.000050007241
 93      -0.000035588482
 94       0.000039264046
 95       0.000073551494
 96      -0.000436812673
 97       0.000057644471
 98      -0.000084562125
 99       0.000136115524
100       0.000927146423
101      -0.000101837946
102      -0.000002014432
103      -0.000701762305
104      -0.004421095947
105      -0.000437673898
106       0.000322933081
107       0.002473095248
108       0.000154070091
109      -0.000062989929
110       0.000052397823
111      -0.000000776962
112      -0.000036577633
113       0.000015486510
114       0.000050004171
115       0.000035588340
116      -0.000039266324
117       0.000073553085
118      -0.000436819724
119      -0.000057638417
120       0.000084563234
121       0.000136115053
122       0.000927186191
123       0.000101823616
124       0.000002020048
125      -0.000701781977
126      -0.004421090592
127       0.000437694655
128      -0.000322937407
129       0.002473086021
130       0.000154071886
131       0.000062989884
132      -0.000052397556
133      -0.000000776918
134      -0.000036577091
135      -0.000004343963
136      -0.000040085734
137      -0.000000000078
138      -0.000000000085
139       0.000003459145
140       0.000468055799
141       0.000000000069
142       0.000000000087
143      -0.000045863158
144      -0.002943384195
145       0.000000000795
146       0.000000001289
147       0.001240012466
148      -0.003437757875
149      -0.000000000052
150      -0.000000002459
151       0.001406652042
152      -0.000049917604
153      -0.000000000071
154      -0.000000000280
155      -0.000000832080
156       0.000003934238
 Sym=     1a
 Ene= -1.02632010798712E+01
 Spin= Alpha
 Occup= 2.000000
  1      -0.398125252486
  2      -0.327607739235
  3      -0.000146955356
  4       0.000302974844
  5      -0.000720343081
  6      -0.013280685076
  7       0.000235661864
  8       0.000018553517
  9       0.001163004898
 10       0.013830472548
 11       0.000468204992
 12       0.001963722465
 13       0.001602440009
 14       0.028414776646
 15       0.000095501887
 16       0.005775198856
 17       0.001900585374
 18       0.000705197092
 19       0.000246329218
 20      -0.000442226903
 21       0.000011248959
 22      -0.000116864351
 23       0.398125571209
 24       0.327608001412
 25      -0.000146963482
 26       0.000302974987
 27       0.000720340469
 28       0.013280699000
 29       0.000235686304
 30       0.000018553121
 31      -0.001162998073
 32      -0.013830477020
 33       0.000468044037
 34       0.001963730850
 35      -0.001602467001
 36      -0.028414717030
 37       0.000095467579
 38       0.005775191934
 39      -0.001900574281
 40      -0.000705194201
 41       0.000246343154
 42      -0.000442227737
 43      -0.000011249993
 44       0.000116853322
 45      -0.000077823583
 46       0.001552144688
 47      -0.003002709301
 48      -0.001038831468
 49       0.000450017381
 50       0.000677645199
 51      -0.000106992511
 52       0.001711683371
 53      -0.003039299203
 54       0.001258360013
 55       0.000463394072
 56       0.000201318810
 57       0.000106987717
 58      -0.001711627569
 59       0.003039342716
 60       0.001258361685
 61       0.000463387889
 62      -0.000201301371
 63       0.000077828588
 64      -0.001552197596
 65       0.003002663120
 66      -0.001038824973
 67       0.000450022858
 68      -0.000677660879
 69       0.000000010159
 70      -0.000000003746
 71       0.000040080071
 72      -0.000039751280
 73      -0.000000012873
 74       0.000000000848
 75      -0.000166607919
 76       0.000168047511
 77       0.000000023588
 78      -0.000000028094
 79       0.000703347432
 80      -0.000452276851
 81      -0.000000066599
 82      -0.000000072111
 83      -0.000035398753
 84       0.002529809652
 85       0.000000022919
 86       0.000000003762
 87      -0.000039025534
 88      -0.000181979035
 89       0.000000001564
 90      -0.000000001642
 91      -0.000017658652
 92      -0.000059000717
 93       0.000016848289
 94      -0.000029767376
 95      -0.000057782785
 96       0.000433634965
 97       0.000020259951
 98      -0.000007303558
 99      -0.000175911250
100       0.000143039065
101      -0.000037998516
102       0.000056137187
103      -0.000097461356
104       0.007714887131
105       0.000602549378
106      -0.001815636971
107      -0.002479640735
108      -0.000085675128
109       0.000031770074
110      -0.000043982151
111       0.000067546243
112       0.000036837801
113       0.000017661615
114       0.000058996089
115       0.000016846164
116      -0.000029766697
117       0.000057781952
118      -0.000433632664
119       0.000020267985
120      -0.000007301251
121       0.000175910879
122      -0.000143058540
123      -0.000038021949
124       0.000056134081
125       0.000097474131
126      -0.007714910879
127       0.000602569249
128      -0.001815638408
129       0.002479648159
130       0.000085674600
131       0.000031770051
132      -0.000043980574
133      -0.000067547148
134      -0.000036838399
135       0.000000000021
136       0.000000000654
137      -0.000015386126
138       0.000009225600
139      -0.000000000845
140      -0.000000005769
141       0.000057739704
142      -0.000037619972
143       0.000000006146
144       0.000000019762
145      -0.000159852706
146       0.000264695124
147      -0.000000005202
148       0.000000063762
149      -0.000203750871
150      -0.000520957852
151      -0.000000026047
152      -0.000000002099
153      -0.000001366516
154      -0.000029739594
155      -0.000000000053
156       0.000000000104
 Sym=     1a
 Ene= -1.17052933812743E+00
 Spin= Alpha
 Occup= 2.000000
  1       0.023572893343
  2       0.036090461361
  3      -0.003272402396
  4      -0.003096947239
  5      -0.024828875550
  6      -0.090701437873
  7      -0.006232826589
  8      -0.010028630068
  9      -0.043257211630
 10      -0.019739894556
 11       0.002942653775
 12      -0.005493168092
 13      -0.002152014226
 14       0.011062483113
 15      -0.000702558835
 16       0.002161829978
 17       0.003002947586
 18      -0.011947254682
 19      -0.003974103045
 20       0.001096146436
 21       0.003767390102
 22       0.000719183236
 23       0.023572883641
 24       0.036090445770
 25       0.003272253556
 26       0.003096925575
 27      -0.024828888075
 28      -0.090701391114
 29       0.006232318533
 30       0.010028612115
 31      -0.043257234881
 32      -0.019740017119
 33      -0.002942633943
 34       0.005493388208
 35      -0.002151912340
 36       0.011063647576
 37       0.000702645276
 38      -0.002162129745
 39       0.003003050792
 40      -0.011947228441
 41       0.003974015217
 42      -0.001096239052
 43       0.003767384755
 44       0.000719022790
 45      -0.006677636607
 46      -0.013583477116
 47       0.000942330487
 48       0.002550356766
 49      -0.001517075484
 50      -0.003326363336
 51      -0.007818609989
 52      -0.012872125522
 53       0.001207996723
 54      -0.003995015781
 55      -0.001790364962
 56      -0.001776944429
 57      -0.007818729965
 58      -0.012872005951
 59       0.001207808409
 60       0.003994945118
 61       0.001790298329
 62      -0.001776782429
 63      -0.006677498467
 64      -0.013583638735
 65       0.000942488487
 66      -0.002550338913
 67       0.001517037353
 68      -0.003326586862
 69       0.064665780153
 70       0.099152301878
 71       0.000000024100
 72       0.000000019161
 73       0.015634022750
 74      -0.261653950594
 75       0.000000047046
 76       0.000000011790
 77       0.036020850993
 78      -0.066582765042
 79       0.000000013260
 80      -0.000000014057
 81       0.009074604049
 82      -0.049594411838
 83       0.000000018802
 84      -0.000000025416
 85       0.016608179864
 86      -0.016012689321
 87      -0.000000045598
 88      -0.000000013402
 89       0.013463096054
 90       0.007424323221
 91       0.066828399583
 92       0.106797105950
 93      -0.012399857129
 94       0.037183727377
 95       0.002255308792
 96      -0.307593422552
 97      -0.020019532564
 98       0.059392447019
 99       0.003651324536
100      -0.219082724590
101      -0.009241312126
102       0.028025862025
103       0.007374349595
104       0.034705903548
105       0.002512145707
106      -0.008890822717
107       0.004322881377
108      -0.002099298481
109       0.000286457450
110       0.002611210175
111       0.005373669775
112       0.003650225449
113       0.066828439628
114       0.106797180688
115       0.012399949319
116      -0.037183729890
117       0.002255339669
118      -0.307593635765
119       0.020019689063
120      -0.059392421960
121       0.003651263145
122      -0.219082816105
123       0.009241410009
124      -0.028025864239
125       0.007374297999
126       0.034706109602
127      -0.002512194326
128       0.008890833479
129       0.004322788470
130      -0.002099285401
131      -0.000286499366
132      -0.002611236880
133       0.005373652532
134       0.003650234064
135       0.033769169940
136       0.053755069391
137       0.000000019756
138      -0.000000003513
139       0.030438627507
140      -0.152670107306
141       0.000000032492
142       0.000000001108
143       0.044332710824
144      -0.097459758500
145       0.000000010687
146       0.000000001504
147       0.017471243224
148       0.004973289693
149       0.000000000638
150      -0.000000004013
151      -0.001701648243
152      -0.006660217367
153      -0.000000009021
154       0.000000000813
155      -0.000624324902
156      -0.000300988725
 Sym=     1a
 Ene= -1.05851149185607E+00
 Spin= Alpha
 Occup= 2.000000
  1       0.022774289972
  2       0.035103789881
  3      -0.006833599349
  4       0.012850977071
  5      -0.029049519779
  6      -0.092020123011
  7      -0.011436671519
  8       0.018347605854
  9      -0.051997013741
 10       0.003065712857
 11      -0.001500017470
 12       0.017685994704
 13       0.000035497612
 14      -0.159372376444
 15      -0.000737409349
 16      -0.034344066279
 17      -0.018377188244
 18      -0.017663266519
 19      -0.005515978951
 20       0.005648884582
 21      -0.001308986369
 22       0.000900246011
 23      -0.022774165756
 24      -0.035103606084
 25      -0.006833351069
 26       0.012851051777
 27       0.029049460005
 28       0.092019671639
 29      -0.011436351187
 30       0.018347760551
 31       0.051996860858
 32      -0.003065592589
 33      -0.001500741615
 34       0.017686163009
 35      -0.000035606548
 36       0.159372238713
 37      -0.000737472409
 38      -0.034344023476
 39       0.018377189173
 40       0.017663256242
 41      -0.005515770873
 42       0.005648927929
 43       0.001309010082
 44      -0.000900193667
 45      -0.009198692887
 46      -0.018173115419
 47       0.007651622718
 48       0.002763848431
 49      -0.001907930856
 50      -0.003859810196
 51      -0.008754441135
 52      -0.018340056884
 53       0.009699470422
 54      -0.004182397050
 55      -0.001665659912
 56      -0.001942541727
 57       0.008754501916
 58       0.018340217847
 59      -0.009699219985
 60      -0.004182408186
 61      -0.001665619529
 62       0.001942420453
 63       0.009198585559
 64       0.018172554730
 65      -0.007651771046
 66       0.002763758883
 67      -0.001907876062
 68       0.003859784764
 69      -0.000000163727
 70      -0.000000245015
 71      -0.018225680353
 72       0.072306876615
 73       0.000000445120
 74       0.000000664864
 75      -0.026859899429
 76       0.106025477638
 77       0.000000558748
 78       0.000000094184
 79       0.004424068106
 80      -0.010684287503
 81      -0.000000204137
 82       0.000000187466
 83      -0.001296237625
 84      -0.009565865109
 85      -0.000000067908
 86       0.000000061194
 87       0.007400313597
 88      -0.031182778054
 89       0.000000016338
 90      -0.000000031333
 91      -0.083373594816
 92      -0.133562200151
 93       0.011203512121
 94      -0.026735355765
 95      -0.008594955026
 96       0.388459525785
 97       0.017856107547
 98      -0.042350156692
 99      -0.016103617974
100       0.301521766724
101       0.009728888953
102      -0.024046752225
103      -0.011090577382
104      -0.028240893594
105      -0.001634331292
106       0.001436656601
107       0.013648224252
108       0.004649338520
109      -0.000820520429
110      -0.001887529388
111      -0.002798461834
112      -0.002324747151
113       0.083373756742
114       0.133562456173
115       0.011203664714
116      -0.026735401432
117       0.008595019511
118      -0.388460262281
119       0.017856343160
120      -0.042350207988
121       0.016103766597
122      -0.301522486088
123       0.009728973731
124      -0.024046827106
125       0.011090715650
126       0.028240772469
127      -0.001634536441
128       0.001436705029
129      -0.013648033048
130      -0.004649335607
131      -0.000820594249
132      -0.001887531583
133       0.002798457125
134       0.002324772940
135      -0.000000354215
136      -0.000000565877
137      -0.002069929064
138       0.007950634338
139      -0.000000263467
140       0.000001616788
141      -0.003355424268
142       0.014118978173
143      -0.000000383802
144       0.000001182190
145      -0.003168959223
146       0.009660680126
147      -0.000000148773
148      -0.000000077745
149       0.000545142761
150       0.001085953500
151       0.000000036864
152       0.000000057057
153       0.001221808943
154      -0.005037536862
155       0.000000004118
156      -0.000000001891
 Sym=     1a
 Ene= -1.05419530335450E+00
 Spin= Alpha
 Occup= 2.000000
  1       0.017783528008
  2       0.027308453358
  3      -0.002372087798
  4      -0.002811007638
  5      -0.015738853509
  6      -0.068792805463
  7      -0.003950804834
  8      -0.006490011493
  9      -0.025756482178
 10      -0.026038217976
 11       0.009462340662
 12      -0.007328899948
 13      -0.008413457048
 14       0.015053978554
 15       0.003089747879
 16       0.001187181702
 17       0.004402639902
 18      -0.006099458036
 19      -0.002502830300
 20       0.000569250329
 21       0.002353190565
 22       0.000350265336
 23       0.017783688172
 24       0.027308694401
 25       0.002371933751
 26       0.002810944568
 27      -0.015739061060
 28      -0.068793367128
 29       0.003951023079
 30       0.006489706969
 31      -0.025756868676
 32      -0.026038897114
 33      -0.009462157765
 34       0.007328726103
 35      -0.008414138485
 36       0.015053094512
 37      -0.003089725507
 38      -0.001186961990
 39       0.004402494006
 40      -0.006099699533
 41       0.002502839445
 42      -0.000569065125
 43       0.002353208395
 44       0.000350506314
 45      -0.006279963914
 46      -0.011899857772
 47      -0.004055680792
 48       0.001834159453
 49      -0.001052435290
 50      -0.002021553852
 51      -0.007098006194
 52      -0.006328571897
 53       0.002328718604
 54      -0.002386861815
 55      -0.000770886892
 56      -0.000714259279
 57      -0.007098172306
 58      -0.006328943668
 59       0.002328597233
 60       0.002387019347
 61       0.000771076038
 62      -0.000714361352
 63      -0.006279920489
 64      -0.011899618759
 65      -0.004055801839
 66      -0.001834040093
 67       0.001052541507
 68      -0.002021303198
 69      -0.043087082504
 70      -0.064825889953
 71       0.000000159029
 72      -0.000000266460
 73       0.122528011966
 74       0.179940615571
 75       0.000000237650
 76      -0.000000392901
 77       0.152500812277
 78       0.019755328273
 79      -0.000000061232
 80       0.000000079676
 81      -0.017208171534
 82      -0.027174439438
 83       0.000000017591
 84      -0.000000016930
 85       0.027615178623
 86       0.021003061298
 87      -0.000000014767
 88       0.000000108572
 89       0.003575160453
 90       0.001575988791
 91       0.028241285749
 92       0.045203753871
 93      -0.004849890472
 94       0.011663764799
 95       0.019378981687
 96      -0.129702059086
 97      -0.007961739416
 98       0.018472923724
 99       0.030381133160
100      -0.109501878324
101      -0.004287904483
102       0.015888398044
103       0.017759976728
104       0.016479338607
105       0.003352584028
106      -0.008340566992
107       0.001670019406
108       0.000219896973
109       0.001196646212
110      -0.002131250219
111       0.002691228230
112       0.001813100791
113       0.028240714788
114       0.045202833684
115       0.004849900367
116      -0.011663590521
117       0.019378904074
118      -0.129699337941
119       0.007961763429
120      -0.018472612672
121       0.030380994563
122      -0.109500205435
123       0.004287863223
124      -0.015888324806
125       0.017760166103
126       0.016478661739
127      -0.003352432690
128       0.008340550578
129       0.001670309320
130       0.000219923653
131      -0.001196658672
132       0.002131259382
133       0.002691206913
134       0.001813099278
135      -0.100814538171
136      -0.161183786497
137      -0.000000039381
138      -0.000000009154
139      -0.075948651045
140       0.462036581314
141      -0.000000053793
142      -0.000000022500
143      -0.110790979761
144       0.319106500203
145      -0.000000000592
146      -0.000000033905
147      -0.037552937160
148      -0.017706424435
149      -0.000000017568
150       0.000000024438
151      -0.004014112922
152       0.017661856947
153       0.000000011184
154       0.000000011912
155       0.001065697654
156       0.000474652633
 Sym=     1a
 Ene= -7.98190556093899E-01
 Spin= Alpha
 Occup= 2.000000
  1      -0.074732196698
  2      -0.116387306805
  3       0.000284019302
  4       0.025486483321
  5      -0.011711729516
  6       0.313458016697
  7       0.003058561596
  8       0.045001132887
  9      -0.006493096718
 10       0.189868113293
 11      -0.000184624961
 12       0.011944880016
 13      -0.002130428916
 14       0.025365416616
 15      -0.000393147143
 16      -0.004285456478
 17       0.004903515029
 18      -0.004009112000
 19       0.000979979900
 20      -0.001816307905
 21      -0.007435226598
 22      -0.000580945553
 23      -0.074732182896
 24      -0.116387284133
 25      -0.000283679754
 26      -0.025486467988
 27      -0.011711631871
 28       0.313457953064
 29      -0.003058144775
 30      -0.045001230756
 31      -0.006493003711
 32       0.189868067666
 33       0.000184922893
 34      -0.011944911583
 35      -0.002130328738
 36       0.025367575315
 37       0.000393227950
 38       0.004284910340
 39       0.004903697807
 40      -0.004009130370
 41      -0.000979839377
 42       0.001816401822
 43      -0.007435281164
 44      -0.000580905162
 45       0.053440251768
 46       0.062182064814
 47      -0.005131435026
 48      -0.008689929535
 49       0.006081699732
 50       0.005564034835
 51       0.050751108625
 52       0.059256214640
 53      -0.007663756346
 54       0.010193743393
 55       0.005660786883
 56       0.001543806819
 57       0.050751211563
 58       0.059256315362
 59      -0.007663929295
 60      -0.010193832969
 61      -0.005660737367
 62       0.001543690145
 63       0.053440102680
 64       0.062182070407
 65      -0.005131448049
 66       0.008689884487
 67      -0.006081712238
 68       0.005564110241
 69       0.031499480709
 70       0.050100707289
 71       0.000000021173
 72       0.000000024180
 73       0.058689142998
 74      -0.147899731013
 75       0.000000033928
 76       0.000000033689
 77       0.087777763180
 78      -0.071286041148
 79       0.000000013055
 80       0.000000025840
 81       0.026233700773
 82      -0.028928234041
 83      -0.000000008061
 84      -0.000000056015
 85       0.008048645007
 86       0.013462266909
 87       0.000000007814
 88      -0.000000023714
 89       0.013301193721
 90       0.008059392901
 91       0.018773536398
 92       0.030380208929
 93      -0.002050328110
 94       0.023480848366
 95      -0.063342287928
 96      -0.092669336389
 97      -0.003314377629
 98       0.036318988901
 99      -0.095285249160
100      -0.074509133568
101      -0.001213376539
102       0.015502710838
103      -0.045196194627
104      -0.009916836182
105      -0.000452919759
106      -0.003239299780
107       0.015342243173
108       0.006189689827
109      -0.003000036260
110       0.007926634568
111       0.003259548830
112       0.001606432539
113       0.018773561745
114       0.030380244906
115       0.002050081142
116      -0.023480803022
117      -0.063342454947
118      -0.092669462558
119       0.003314070287
120      -0.036319041558
121      -0.095285407959
122      -0.074509255129
123       0.001213168275
124      -0.015502713927
125      -0.045196254839
126      -0.009916611471
127       0.000453041666
128       0.003239366749
129       0.015342241296
130       0.006189654519
131       0.003000051767
132      -0.007926634774
133       0.003259574386
134       0.001606406712
135      -0.024544507286
136      -0.039453244437
137      -0.000000004471
138      -0.000000010572
139      -0.003109166122
140       0.115158933683
141      -0.000000008646
142      -0.000000011992
143      -0.000826985454
144       0.085940427837
145      -0.000000005007
146      -0.000000019783
147       0.002101798732
148      -0.004543288175
149      -0.000000013845
150       0.000000009669
151       0.001814628778
152       0.000633069435
153       0.000000001563
154      -0.000000001294
155       0.000179961523
156       0.000076280013
 Sym=     1a
 Ene= -6.92870045431799E-01
 Spin= Alpha
 Occup= 2.000000
  1       0.059802793626
  2       0.093666158341
  3      -0.002584312896
  4       0.050159214616
  5      -0.003917792143
  6      -0.257890820416
  7      -0.006518995786
  8       0.076279513925
  9      -0.017248208313
 10      -0.170466450604
 11       0.001409979583
 12       0.027946126293
 13       0.001837126811
 14      -0.121919037293
 15      -0.000743718896
 16      -0.020371074659
 17      -0.015029663720
 18      -0.009055887778
 19      -0.001309855975
 20       0.003745556493
 21      -0.008195498601
 22       0.001615780403
 23      -0.059802850394
 24      -0.093666247882
 25      -0.002583876131
 26       0.050159169699
 27       0.003917823407
 28       0.257891068329
 29      -0.006518303491
 30       0.076279464187
 31       0.017248279171
 32       0.170466576942
 33       0.001410140872
 34       0.027946116799
 35      -0.001837162459
 36       0.121919031039
 37      -0.000743741483
 38      -0.020371041392
 39       0.015029695452
 40       0.009055912667
 41      -0.001309748087
 42       0.003745548767
 43       0.008195421210
 44      -0.001615674927
 45      -0.061324263353
 46      -0.076264821929
 47      -0.002387115491
 48       0.008625911096
 49      -0.002718615070
 50      -0.006243573030
 51      -0.058511195327
 52      -0.072448738287
 53       0.002048396864
 54      -0.010610824752
 55      -0.002228325061
 56      -0.002251487693
 57       0.058511289000
 58       0.072448735222
 59      -0.002048283594
 60      -0.010610814544
 61      -0.002228318349
 62       0.002251402658
 63       0.061324301322
 64       0.076264945212
 65       0.002386962710
 66       0.008625840316
 67      -0.002718698321
 68       0.006243721238
 69      -0.000000014114
 70      -0.000000016465
 71       0.033676714157
 72      -0.100606237806
 73      -0.000000073565
 74       0.000000043268
 75       0.051230207708
 76      -0.152734922723
 77      -0.000000090491
 78      -0.000000035437
 79       0.012634958423
 80      -0.023025754183
 81      -0.000000080653
 82       0.000000039146
 83       0.004906474470
 84      -0.019392843412
 85      -0.000000054071
 86       0.000000038481
 87      -0.006667618819
 88       0.015607882525
 89       0.000000004897
 90       0.000000016271
 91       0.012560559797
 92       0.020363676780
 93       0.006031540492
 94       0.034824214974
 95      -0.104047117613
 96      -0.062417556460
 97       0.009104129226
 98       0.050812731632
 99      -0.153869397932
100      -0.052528029690
101       0.007523396214
102       0.027899811175
103      -0.092050211327
104      -0.029073858083
105      -0.004316832674
106       0.000873544667
107       0.016479914126
108       0.005489851433
109      -0.004223928770
110       0.008025452342
111       0.003454581583
112       0.000487147527
113      -0.012560491373
114      -0.020363563583
115       0.006031774690
116       0.034824338066
117       0.104047105840
118       0.062417181158
119       0.009104477437
120       0.050812951695
121       0.153869383554
122       0.052527778308
123       0.007523588704
124       0.027899927936
125       0.092050173660
126       0.029073791951
127      -0.004316968621
128       0.000873551231
129      -0.016479883083
130      -0.005489860608
131      -0.004223991713
132       0.008025432871
133      -0.003454599427
134      -0.000487145465
135      -0.000000008097
136      -0.000000013292
137       0.009808219402
138      -0.029273659016
139       0.000000001142
140       0.000000043165
141       0.014959893540
142      -0.043170879394
143       0.000000000392
144       0.000000058281
145       0.008820608209
146      -0.027648483859
147      -0.000000021439
148       0.000000058372
149      -0.001562360490
150       0.002741779377
151       0.000000000568
152       0.000000002952
153      -0.002499144549
154       0.006752301336
155      -0.000000000555
156       0.000000004861
 Sym=     1a
 Ene= -6.19667922611079E-01
 Spin= Alpha
 Occup= 2.000000
  1      -0.017249146273
  2      -0.026463864818
  3      -0.018052861813
  4       0.068650987538
  5      -0.056070361266
  6       0.069883387888
  7      -0.027116691879
  8       0.103986728397
  9      -0.086990438492
 10       0.060181406071
 11      -0.012593573307
 12       0.049996567345
 13      -0.027947147242
 14      -0.046645851996
 15      -0.007896114068
 16       0.002953342385
 17      -0.015247558446
 18      -0.012227795834
 19      -0.007759299711
 20       0.014041990723
 21      -0.004228352156
 22       0.004554418625
 23      -0.017249076755
 24      -0.026463765153
 25       0.018052199641
 26      -0.068651177529
 27      -0.056070334162
 28       0.069883055953
 29       0.027115525739
 30      -0.103986658738
 31      -0.086990616032
 32       0.060182778235
 33       0.012593068862
 34      -0.049996999572
 35      -0.027946983087
 36      -0.046646476907
 37       0.007896056986
 38      -0.002953228008
 39      -0.015247366119
 40      -0.012227767645
 41       0.007759264292
 42      -0.014042242999
 43      -0.004228183476
 44       0.004554185601
 45       0.012181514708
 46       0.014177782090
 47       0.009491337097
 48      -0.000964071534
 49       0.003554075074
 50      -0.001481827534
 51       0.019215788898
 52       0.022702208553
 53       0.010195184220
 54       0.001483412549
 55       0.004449695708
 56      -0.001602373488
 57       0.019215300574
 58       0.022701234714
 59       0.010195269707
 60      -0.001483306495
 61      -0.004449623797
 62      -0.001602413574
 63       0.012181875128
 64       0.014177465400
 65       0.009491808274
 66       0.000963830880
 67      -0.003554016177
 68      -0.001481912415
 69      -0.057863541334
 70      -0.092003332262
 71      -0.000000086664
 72       0.000000031911
 73      -0.069837155609
 74       0.271797326638
 75      -0.000000133233
 76       0.000000068274
 77      -0.106649903727
 78       0.210303890454
 79      -0.000000130055
 80       0.000000028211
 81      -0.094829698876
 82       0.081645996523
 83      -0.000000133611
 84      -0.000000014223
 85      -0.044650817409
 86       0.004901838101
 87       0.000000031467
 88       0.000000008244
 89      -0.008362572404
 90      -0.005796147719
 91       0.035413463536
 92       0.057508519267
 93       0.017461799399
 94      -0.098346381417
 95       0.084099100892
 96      -0.175187369354
 97       0.024469053287
 98      -0.142251401303
 99       0.124806135725
100      -0.198425589030
101       0.014706690652
102      -0.086115797037
103       0.075754532040
104      -0.066682871740
105      -0.007103454050
106       0.026798505506
107      -0.014167704293
108      -0.009489409991
109       0.002776103692
110      -0.004209293121
111      -0.008059644135
112      -0.004585754434
113       0.035413490510
114       0.057508555433
115      -0.017461629859
116       0.098346518531
117       0.084099077232
118      -0.175187532304
119      -0.024468724437
120       0.142251494475
121       0.124806134978
122      -0.198425410529
123      -0.014706602001
124       0.086115959264
125       0.075754333576
126      -0.066682324666
127       0.007103377739
128      -0.026798435987
129      -0.014167871579
130      -0.009489383012
131      -0.002776148102
132       0.004209290126
133      -0.008059631052
134      -0.004585790204
135       0.025670008074
136       0.041750640672
137      -0.000000039744
138       0.000000021955
139      -0.026874419887
140      -0.126879677718
141      -0.000000040157
142       0.000000019532
143      -0.035116207389
144      -0.105941517292
145      -0.000000041341
146       0.000000015572
147      -0.030455155082
148       0.043306372942
149       0.000000057439
150      -0.000000003812
151      -0.009426761095
152       0.001331459179
153       0.000000006078
154      -0.000000001921
155       0.000047565526
156       0.000042904018
 Sym=     1a
 Ene= -5.58629200927853E-01
 Spin= Alpha
 Occup= 2.000000
  1      -0.012109180520
  2      -0.018863041179
  3      -0.113734421512
  4      -0.012004419027
  5      -0.017328346528
  6       0.046476439693
  7      -0.168108789940
  8      -0.017970140941
  9      -0.026193414279
 10       0.102751429087
 11      -0.112998711795
 12       0.008595850649
 13       0.010046831743
 14      -0.126995620307
 15      -0.008776118860
 16      -0.033925396379
 17      -0.002384267048
 18      -0.004994551426
 19      -0.007486567919
 20       0.003446455108
 21       0.004018963315
 22       0.000576068650
 23       0.012108963947
 24       0.018862700346
 25      -0.113734313367
 26      -0.012003521749
 27       0.017327839707
 28      -0.046475359967
 29      -0.168108615274
 30      -0.017969102557
 31       0.026192925843
 32      -0.102750909100
 33      -0.112999181262
 34       0.008596811047
 35      -0.010047919985
 36       0.126995415942
 37      -0.008776250777
 38      -0.033924985455
 39       0.002383970456
 40       0.004994753796
 41      -0.007486752995
 42       0.003446523533
 43      -0.004019230364
 44      -0.000575965896
 45      -0.033508896733
 46      -0.040096014003
 47       0.012890515758
 48      -0.000638852773
 49      -0.004251811994
 50      -0.004559462875
 51       0.090948131542
 52       0.096835697544
 53       0.021378846573
 54       0.006348591494
 55       0.004346114327
 56       0.000761615381
 57      -0.090947855415
 58      -0.096834885654
 59      -0.021378746926
 60       0.006348513319
 61       0.004346002061
 62      -0.000761525405
 63       0.033508804870
 64       0.040096114674
 65      -0.012891067801
 66      -0.000638827438
 67      -0.004251879400
 68       0.004559601193
 69       0.000000060479
 70       0.000000097761
 71      -0.054188692069
 72      -0.070184540933
 73       0.000000254426
 74      -0.000000309520
 75      -0.084447399781
 76      -0.109611838850
 77       0.000000376843
 78      -0.000000024508
 79      -0.057483027427
 80      -0.032966498408
 81      -0.000000124064
 82       0.000000198382
 83      -0.017976676485
 84      -0.016109462311
 85       0.000000000721
 86      -0.000000176520
 87       0.009855893171
 88       0.006663424098
 89      -0.000000044787
 90      -0.000000037408
 91      -0.007277943245
 92      -0.011740762783
 93      -0.089201572394
 94       0.000264151845
 95      -0.054255463348
 96       0.034115869534
 97      -0.132274916879
 98      -0.000371338912
 99      -0.079058953003
100       0.055494103911
101      -0.100607474178
102      -0.009728908701
103      -0.062762769107
104       0.003334162530
105       0.017788025335
106       0.009149497812
107       0.001291714659
108       0.002895840809
109       0.002286594190
110       0.005006732689
111      -0.004303584735
112       0.008421585354
113       0.007277624234
114       0.011740254413
115      -0.089201119573
116       0.000263215207
117       0.054256121009
118      -0.034114322941
119      -0.132274257743
120      -0.000372722268
121       0.079059971704
122      -0.055492055730
123      -0.100606970707
124      -0.009729916022
125       0.062763206385
126      -0.003333580589
127       0.017787950822
128       0.009149595722
129      -0.001291626281
130      -0.002895857024
131       0.002286500952
132       0.005006819663
133       0.004303687633
134      -0.008421499207
135       0.000000050958
136       0.000000080342
137      -0.025938509476
138      -0.033003956623
139      -0.000000065003
140      -0.000000226009
141      -0.040152549340
142      -0.048868598300
143      -0.000000132369
144      -0.000000199204
145      -0.024531725393
146      -0.034005216442
147      -0.000000038142
148      -0.000000029838
149       0.009337699922
150       0.004316798398
151      -0.000000043861
152       0.000000015389
153       0.005667895046
154       0.006039916339
155       0.000000002047
156       0.000000001319
 Sym=     1a
 Ene= -5.31422738091575E-01
 Spin= Alpha
 Occup= 2.000000
  1      -0.002962406646
  2      -0.004374548284
  3       0.004373871979
  4      -0.071382256130
  5      -0.096300243422
  6       0.009855097614
  7       0.003480308361
  8      -0.106424058896
  9      -0.151274050816
 10       0.003801893169
 11       0.011687701661
 12      -0.062459879444
 13      -0.090894765131
 14       0.025412077177
 15       0.012609267437
 16      -0.004198759028
 17       0.004162086652
 18      -0.015354934011
 19      -0.006589766127
 20      -0.009148412452
 21       0.009711676978
 22      -0.002098119346
 23      -0.002962649135
 24      -0.004374921289
 25      -0.004373908240
 26       0.071382468773
 27      -0.096301033067
 28       0.009856098120
 29      -0.003480121687
 30       0.106424324781
 31      -0.151275065067
 32       0.003802678017
 33      -0.011687697631
 34       0.062460056506
 35      -0.090895244145
 36       0.025406628233
 37      -0.012609391312
 38       0.004200132820
 39       0.004161480377
 40      -0.015354905930
 41       0.006589709812
 42       0.009148010305
 43       0.009711641660
 44      -0.002098206334
 45       0.068800187795
 46       0.085602289009
 47       0.007937081773
 48      -0.007169125878
 49       0.000817506647
 50       0.000571556538
 51       0.038895330035
 52       0.050615520833
 53       0.010871359905
 54       0.004241645854
 55      -0.001536650422
 56      -0.003548272068
 57       0.038895045249
 58       0.050615076727
 59       0.010871890259
 60      -0.004241519170
 61       0.001536721895
 62      -0.003548263093
 63       0.068801325459
 64       0.085604120340
 65       0.007937445195
 66       0.007169303743
 67      -0.000817679330
 68       0.000571775509
 69      -0.017233312928
 70      -0.027521683235
 71       0.000000651625
 72       0.000000602261
 73       0.043054437222
 74       0.098079607449
 75       0.000001006776
 76       0.000000979946
 77       0.063114635077
 78       0.046662352357
 79       0.000000664045
 80       0.000000463296
 81       0.089285713345
 82      -0.020032731173
 83       0.000000325415
 84       0.000000273010
 85       0.026309594562
 86      -0.035574836685
 87      -0.000000132282
 88      -0.000000032270
 89      -0.013211961141
 90      -0.008699320474
 91      -0.018437095578
 92      -0.030027126338
 93      -0.024447397787
 94       0.075571884558
 95       0.086290908420
 96       0.091862556614
 97      -0.035257461071
 98       0.109038376529
 99       0.126756415181
100       0.116440567474
101      -0.023771599043
102       0.083204291287
103       0.079180638700
104       0.074539440782
105       0.009384317512
106      -0.024703319081
107      -0.000442879481
108       0.002244188741
109       0.003466312348
110      -0.011530023378
111       0.005246730084
112       0.003977097350
113      -0.018437228694
114      -0.030027333462
115       0.024449181633
116      -0.075571894608
117       0.086290035092
118       0.091863181695
119       0.035259953213
120      -0.109038301658
121       0.126755071202
122       0.116441492541
123       0.023773665239
124      -0.083204017785
125       0.079179794369
126       0.074539564361
127      -0.009384565295
128       0.024703351117
129      -0.000442984790
130       0.002244203566
131      -0.003466361333
132       0.011529919798
133       0.005246634684
134       0.003977308771
135       0.029756700640
136       0.047763022774
137       0.000000295895
138       0.000000362707
139      -0.065822328650
140      -0.137711115442
141       0.000000448275
142       0.000000536876
143      -0.102274576967
144      -0.195366755929
145       0.000000330326
146       0.000000363565
147      -0.037854849583
148      -0.104537485875
149      -0.000000138741
150      -0.000000113832
151       0.016376381535
152       0.008735946734
153      -0.000000057230
154      -0.000000060560
155      -0.000761914443
156      -0.000394225056
 Sym=     1a
 Ene= -5.18497888948539E-01
 Spin= Alpha
 Occup= 2.000000
  1       0.027588430177
  2       0.043201995909
  3      -0.024114771295
  4       0.027487097161
  5       0.095250554771
  6      -0.121106261911
  7      -0.034309045002
  8       0.036820547457
  9       0.140944761055
 10      -0.092574846612
 11      -0.030750828421
 12       0.030651369955
 13       0.089744815450
 14      -0.073187553887
 15      -0.001954479982
 16      -0.021900086264
 17       0.011839580137
 18       0.015271130106
 19       0.006536695420
 20      -0.017814340818
 21      -0.007793832368
 22      -0.001019431371
 23      -0.027588479765
 24      -0.043202076475
 25      -0.024116086744
 26       0.027486637589
 27      -0.095250334977
 28       0.121106510275
 29      -0.034311027601
 30       0.036819743790
 31      -0.140944229327
 32       0.092575318324
 33      -0.030752458319
 34       0.030650984783
 35      -0.089744613079
 36       0.073186696771
 37      -0.001954731003
 38      -0.021899932982
 39      -0.011839928316
 40      -0.015270817762
 41       0.006536731274
 42      -0.017814430797
 43       0.007793692292
 44       0.001019114338
 45      -0.094154794373
 46      -0.121316300569
 47      -0.022925235500
 48       0.008830015889
 49      -0.004415791051
 50      -0.003080705084
 51      -0.039149545954
 52      -0.057110407313
 53      -0.010716686349
 54      -0.005999165856
 55      -0.000391227297
 56       0.002680165969
 57       0.039147691596
 58       0.057108311973
 59       0.010716290893
 60      -0.005999079488
 61      -0.000391067276
 62      -0.002680289023
 63       0.094155700152
 64       0.121317410355
 65       0.022925469593
 66       0.008830019823
 67      -0.004415952011
 68       0.003080821833
 69       0.000000052676
 70       0.000000088311
 71      -0.079153959807
 72       0.082818957230
 73      -0.000000017681
 74      -0.000000336941
 75      -0.123714608386
 76       0.127319047872
 77      -0.000000031926
 78       0.000000328168
 79      -0.064061733130
 80       0.050485379162
 81      -0.000000453400
 82       0.000000887395
 83      -0.015752089515
 84       0.014625766252
 85      -0.000000413116
 86       0.000000080529
 87       0.004413188349
 88       0.002360638754
 89       0.000000033464
 90       0.000000007139
 91       0.014232050323
 92       0.023158333509
 93      -0.047588467911
 94      -0.044651999161
 95       0.093846328214
 96      -0.072259081766
 97      -0.071102083522
 98      -0.064632958321
 99       0.139123255130
100      -0.081122808317
101      -0.058086406809
102      -0.042890066690
103       0.088067593504
104      -0.018474239195
105       0.009811651416
106      -0.001806712984
107      -0.001951900586
108      -0.000595478808
109       0.003757560379
110      -0.008762016064
111      -0.005136319568
112       0.003998066390
113      -0.014231997194
114      -0.023158256740
115      -0.047588619954
116      -0.044651690013
117      -0.093846614518
118       0.072258860618
119      -0.071102375794
120      -0.064632440954
121      -0.139123704755
122       0.081122327354
123      -0.058086366728
124      -0.042889854106
125      -0.088067814832
126       0.018473157622
127       0.009811629003
128      -0.001807008242
129       0.001951993959
130       0.000595396601
131       0.003757522032
132      -0.008762061501
133       0.005136324373
134      -0.003998077674
135      -0.000000069307
136      -0.000000111001
137      -0.046036308356
138       0.047798187474
139       0.000000188116
140       0.000000310682
141      -0.068667216818
142       0.069178212221
143       0.000000302265
144       0.000000511368
145      -0.046702880595
146       0.047656924652
147       0.000000126083
148       0.000000283461
149       0.005912466661
150      -0.002932241237
151      -0.000000001612
152      -0.000000031843
153       0.007748604524
154      -0.006659016083
155       0.000000004768
156      -0.000000004961
 Sym=     1a
 Ene= -4.57428699141501E-01
 Spin= Alpha
 Occup= 2.000000
  1       0.001793771347
  2       0.003022654073
  3       0.109795022810
  4       0.047451597670
  5      -0.037839136791
  6      -0.009250267357
  7       0.160183268631
  8       0.070595035884
  9      -0.059138411560
 10      -0.006577963981
 11       0.131660337420
 12       0.041716136664
 13      -0.035453329976
 14      -0.010267058192
 15       0.026910851399
 16       0.001665699162
 17      -0.005944438888
 18      -0.002792946141
 19       0.001394825019
 20       0.003666595059
 21      -0.003716741090
 22      -0.018423435535
 23       0.001793865030
 24       0.003022808804
 25      -0.109796890646
 26      -0.047451335849
 27      -0.037838962263
 28      -0.009250542340
 29      -0.160186134744
 30      -0.070594987999
 31      -0.059137980604
 32      -0.006580739344
 33      -0.131661831288
 34      -0.041715182114
 35      -0.035453493206
 36      -0.010269958532
 37      -0.026910887508
 38      -0.001664854793
 39      -0.005944767908
 40      -0.002792604335
 41      -0.001394661171
 42      -0.003666300545
 43      -0.003717320538
 44      -0.018423364413
 45       0.065784539727
 46       0.081184397356
 47       0.021760794188
 48      -0.000282785339
 49       0.006087355895
 50       0.002171209399
 51      -0.090072817466
 52      -0.118019688910
 53      -0.030930061683
 54      -0.005581773146
 55      -0.002059548914
 56      -0.004107115700
 57      -0.090074740687
 58      -0.118021708291
 59      -0.030931157706
 60       0.005581779207
 61       0.002059515869
 62      -0.004107086128
 63       0.065784947111
 64       0.081185533631
 65       0.021761022869
 66       0.000282841929
 67      -0.006087487996
 68       0.002171341880
 69       0.014651924792
 70       0.023127791558
 71       0.000001875368
 72       0.000000133193
 73      -0.042167034127
 74      -0.074077306771
 75       0.000002935530
 76       0.000000194630
 77      -0.060804067495
 78      -0.052494144311
 79       0.000001777483
 80       0.000000361897
 81      -0.020985110559
 82       0.023945655676
 83       0.000000306047
 84       0.000000115889
 85      -0.007404272837
 86      -0.008874384532
 87       0.000000040403
 88       0.000000103029
 89       0.004934222959
 90      -0.019020557106
 91      -0.007872692029
 92      -0.012843596495
 93      -0.108788474925
 94      -0.020339165916
 95       0.017045362904
 96       0.039560878162
 97      -0.160691256272
 98      -0.031280806210
 99       0.024611166424
100       0.048882159237
101      -0.136706945660
102      -0.025952601177
103       0.017563660330
104       0.003177386406
105       0.001177042776
106       0.002105953724
107       0.002231400657
108      -0.000137850804
109       0.006554363004
110       0.000879500240
111      -0.005133537303
112       0.005298022399
113      -0.007872519551
114      -0.012843324942
115       0.108790409815
116       0.020340670705
117       0.017045247745
118       0.039560090745
119       0.160694098707
120       0.031282960591
121       0.024611005723
122       0.048880537785
123       0.136709452756
124       0.025954234818
125       0.017563727786
126       0.003176894604
127      -0.001177191837
128      -0.002105869422
129       0.002231469355
130      -0.000137838026
131      -0.006554251040
132      -0.000879505198
133      -0.005133722103
134       0.005298198428
135      -0.017343471425
136      -0.028176491451
137       0.000001638800
138       0.000000183636
139       0.078565332685
140       0.084773612769
141       0.000002434236
142       0.000000270973
143       0.108983471262
144       0.123654402052
145       0.000001769927
146       0.000000185552
147       0.064513666763
148       0.028413929010
149      -0.000000097869
150      -0.000000032098
151       0.005178509099
152      -0.006953813478
153      -0.000000230250
154      -0.000000018509
155       0.000255942773
156      -0.000285891349
 Sym=     1a
 Ene= -4.52383860523765E-01
 Spin= Alpha
 Occup= 2.000000
  1       0.000733260964
  2       0.001030194322
  3      -0.089625527698
  4       0.002616175589
  5       0.021206015878
  6       0.001325298369
  7      -0.129901089069
  8       0.003828360070
  9       0.031212436967
 10      -0.042947148530
 11      -0.085515987428
 12      -0.007678547993
 13      -0.000633775051
 14       0.138314177163
 15      -0.009115288983
 16       0.036315967259
 17       0.002624801916
 18      -0.002651587578
 19       0.014684259532
 20      -0.003524292215
 21       0.002009346519
 22      -0.000826222050
 23      -0.000732514230
 24      -0.001028943823
 25      -0.089611499879
 26       0.002626566196
 27      -0.021215539772
 28      -0.001329589266
 29      -0.129880271028
 30       0.003843721475
 31      -0.031227660495
 32       0.042942458958
 33      -0.085499197879
 34      -0.007669531299
 35       0.000624066206
 36      -0.138306828122
 37      -0.009112345968
 38       0.036315634756
 39      -0.002622700825
 40       0.002650644910
 41       0.014685427052
 42      -0.003524448926
 43      -0.002007963946
 44       0.000828429350
 45      -0.067550320623
 46      -0.091380672975
 47      -0.049229474509
 48       0.001985960228
 49      -0.004520204150
 50      -0.003379099711
 51       0.060482201047
 52       0.090728762981
 53       0.013212439666
 54       0.004019108351
 55       0.005338150375
 56       0.003262595752
 57      -0.060467498659
 58      -0.090709353416
 59      -0.013206388013
 60       0.004018141636
 61       0.005337990610
 62      -0.003262524451
 63       0.067549137642
 64       0.091379731861
 65       0.049229681920
 66       0.001986367722
 67      -0.004519576921
 68       0.003378534570
 69       0.000003670449
 70       0.000005756376
 71       0.139237340286
 72       0.062897881888
 73      -0.000017815829
 74      -0.000018742183
 75       0.217797997834
 76       0.099721674415
 77      -0.000025949197
 78      -0.000016515249
 79       0.138599287857
 80       0.052515693365
 81      -0.000011469962
 82      -0.000008490428
 83       0.029194218769
 84       0.014241527204
 85       0.000004894351
 86      -0.000002934722
 87       0.007031983325
 88       0.003383472782
 89      -0.000001636119
 90       0.000000159647
 91       0.004833266247
 92       0.007818667182
 93       0.078550439517
 94       0.011657673517
 95       0.018536998331
 96      -0.022874238232
 97       0.115734137172
 98       0.017666630317
 99       0.026946570454
100      -0.042353383320
101       0.098059810747
102       0.021240723657
103       0.026475952567
104      -0.028863679691
105      -0.001188832599
106       0.002041299549
107       0.015659858942
108       0.000629145420
109       0.006818434178
110      -0.000670463739
111       0.004207164162
112      -0.008594963320
113      -0.004834531017
114      -0.007820724912
115       0.078538702232
116       0.011658755017
117      -0.018523669137
118       0.022880552965
119       0.115716668020
120       0.017668472675
121      -0.026927098305
122       0.042361445895
123       0.098044793974
124       0.021240695299
125      -0.026462685991
126       0.028869538377
127      -0.001188874057
128       0.002042463949
129      -0.015660159836
130      -0.000630711992
131       0.006818709264
132      -0.000669228899
133      -0.004207233146
134       0.008594092484
135      -0.000005931790
136      -0.000009628782
137       0.120047781978
138       0.053335055479
139       0.000028151558
140       0.000028846891
141       0.178146659950
142       0.078455238216
143       0.000038998042
144       0.000044352015
145       0.131687129766
146       0.059045470019
147       0.000022799259
148       0.000013798766
149      -0.009962125662
150      -0.006801277168
151      -0.000000459352
152      -0.000002478197
153      -0.016656116463
154      -0.007108194953
155       0.000000036527
156       0.000000038986
 Sym=     1a
 Ene= -4.50845650878118E-01
 Spin= Alpha
 Occup= 2.000000
  1       0.003405554685
  2       0.005706038008
  3      -0.044363189454
  4      -0.037711935608
  5      -0.043202920271
  6      -0.019447594147
  7      -0.066686107891
  8      -0.055209567201
  9      -0.068721685962
 10      -0.020797201895
 11      -0.051143289579
 12      -0.033559949104
 13      -0.044536202746
 14       0.034440210317
 15      -0.008243439631
 16       0.001825464452
 17       0.009362143300
 18      -0.004708062739
 19      -0.005181977781
 20       0.000200868228
 21       0.005967560512
 22       0.007518962749
 23       0.003405705097
 24       0.005706244770
 25       0.044386717538
 26       0.037711195613
 27      -0.043197631124
 28      -0.019447017426
 29       0.066720140583
 30       0.055208107999
 31      -0.068713915729
 32      -0.020809361334
 33       0.051166079947
 34       0.033562048679
 35      -0.044536762756
 36       0.034480661014
 37       0.008245967586
 38      -0.001836107639
 39       0.009362874172
 40      -0.004709062208
 41       0.005178659554
 42      -0.000199384369
 43       0.005968096400
 44       0.007518932982
 45       0.004087071973
 46       0.008530744315
 47       0.001250658430
 48      -0.002608901593
 49      -0.001793170325
 50      -0.001729579681
 51       0.050787836825
 52       0.068430386674
 53       0.019930261725
 54       0.003504572953
 55       0.000464395808
 56      -0.000997450129
 57       0.050803535713
 58       0.068454471947
 59       0.019933115512
 60      -0.003505720047
 61      -0.000465768502
 62      -0.000996770920
 63       0.004069975929
 64       0.008508042807
 65       0.001237824053
 66       0.002608623548
 67       0.001794326920
 68      -0.001730480884
 69       0.028105674937
 70       0.044053375137
 71      -0.000018567236
 72      -0.000008021484
 73      -0.137877046215
 74      -0.143148866448
 75      -0.000029020873
 76      -0.000012775015
 77      -0.200737067980
 78      -0.129555995393
 79      -0.000018346055
 80      -0.000006803161
 81      -0.087371964563
 82      -0.071574865708
 83      -0.000003771979
 84      -0.000001954761
 85       0.040699303313
 86      -0.024896217271
 87      -0.000001065212
 88      -0.000000436052
 89      -0.012861687007
 90      -0.000752456348
 91      -0.005481662818
 92      -0.008960795489
 93       0.034868283212
 94      -0.003780080208
 95       0.057916271210
 96       0.027478167680
 97       0.051813948736
 98      -0.006399216682
 99       0.084960160595
100       0.034639736226
101       0.044787108808
102       0.000749930725
103       0.058487260281
104       0.024969857547
105       0.000935639817
106      -0.006014413709
107       0.000101808461
108      -0.005743924735
109      -0.000397702528
110      -0.005233325196
111      -0.000609928608
112      -0.002773988982
113      -0.005480492178
114      -0.008958893174
115      -0.034888308973
116       0.003776787021
117       0.057920970165
118       0.027472692747
119      -0.051843458408
120       0.006394268739
121       0.084966935992
122       0.034628901251
123      -0.044812321855
124      -0.000756056416
125       0.058494151762
126       0.024962069828
127      -0.000935245975
128       0.006013929300
129       0.000106057079
130      -0.005743778821
131       0.000395850701
132       0.005233496993
133      -0.000608800952
134      -0.002776181361
135      -0.045428694222
136      -0.073765946149
137      -0.000015940893
138      -0.000006937240
139       0.219692631011
140       0.221137073574
141      -0.000023654328
142      -0.000010206068
143       0.303929990100
144       0.341754172878
145      -0.000017575367
146      -0.000007684732
147       0.178470676678
148       0.105055108288
149       0.000001202060
150       0.000000916331
151      -0.003031447300
152      -0.019267443753
153       0.000002193157
154       0.000000921502
155       0.000351490588
156       0.000262445548
 Sym=     1a
 Ene= -3.93891815784472E-01
 Spin= Alpha
 Occup= 2.000000
  1      -0.006229051044
  2      -0.009934212683
  3      -0.053988718721
  4       0.150536506429
  5      -0.005696661024
  6       0.032849104121
  7      -0.078446909296
  8       0.222204074381
  9      -0.015339525824
 10       0.022860963931
 11      -0.053581966231
 12       0.139420915217
 13      -0.001494256892
 14       0.003094742340
 15      -0.003205779749
 16       0.007609751570
 17       0.001615032891
 18      -0.017852712644
 19       0.003754469780
 20      -0.006759090131
 21      -0.013767973878
 22       0.008265114807
 23      -0.006229239043
 24      -0.009934508598
 25       0.053988376561
 26      -0.150536641817
 27      -0.005696447660
 28       0.032850033861
 29       0.078446315711
 30      -0.222204478133
 31      -0.015339021172
 32       0.022860577988
 33       0.053581736277
 34      -0.139420854621
 35      -0.001494462798
 36       0.003097075325
 37       0.003205786149
 38      -0.007610394133
 39       0.001614860662
 40      -0.017852760059
 41      -0.003754659349
 42       0.006759023012
 43      -0.013767831945
 44       0.008265261211
 45      -0.081837234090
 46      -0.124611884857
 47      -0.065387202658
 48       0.006091151527
 49       0.004187306054
 50      -0.006837628150
 51       0.001517842344
 52      -0.002928120755
 53      -0.002183614476
 54      -0.004643477720
 55       0.008019227839
 56      -0.000156272783
 57       0.001518576358
 58      -0.002926715702
 59      -0.002183372666
 60       0.004643274490
 61      -0.008019284098
 62      -0.000156161703
 63      -0.081837364563
 64      -0.124611727358
 65      -0.065387534263
 66      -0.006090967443
 67      -0.004187315193
 68      -0.006837659209
 69       0.025473357338
 70       0.041447733212
 71      -0.000000094894
 72       0.000000461253
 73       0.043231010688
 74      -0.130243052491
 75      -0.000000127324
 76       0.000000667634
 77       0.071201537687
 78      -0.130745027463
 79       0.000000033292
 80       0.000000270562
 81       0.087219802785
 82      -0.010492827578
 83       0.000000035310
 84      -0.000000011410
 85       0.021868520013
 86      -0.025016472817
 87       0.000000002357
 88      -0.000000028654
 89      -0.008050164839
 90      -0.005942833025
 91      -0.020756681032
 92      -0.033775103216
 93      -0.030361214524
 94       0.094138190385
 95       0.068150917476
 96       0.101441081279
 97      -0.043902770828
 98       0.135886235598
 99       0.098907673286
100       0.151645906577
101      -0.033457637303
102       0.106863188168
103       0.088897318948
104       0.074608576104
105      -0.002655750477
106       0.013612146457
107      -0.007402470297
108       0.000247959129
109      -0.000225471641
110       0.001848968019
111       0.005042142116
112       0.003442585358
113      -0.020756940213
114      -0.033775536282
115       0.030361650290
116      -0.094139685756
117       0.068151015429
118       0.101442447622
119       0.043903430688
120      -0.135888445976
121       0.098907772659
122       0.151647325798
123       0.033458135464
124      -0.106865005286
125       0.088897621334
126       0.074608924826
127       0.002655827575
128      -0.013612325990
129      -0.007402495705
130       0.000247999456
131       0.000225478650
132      -0.001848964846
133       0.005042219995
134       0.003442635743
135       0.000005551913
136      -0.000295709552
137      -0.000000018903
138       0.000000337716
139       0.009506679926
140       0.004147033336
141      -0.000000037309
142       0.000000507237
143       0.008565323907
144      -0.017633173262
145      -0.000000019444
146       0.000000377819
147       0.017050414276
148      -0.023247353569
149      -0.000000022518
150       0.000000009298
151      -0.002680143442
152       0.000447066256
153       0.000000011644
154      -0.000000049956
155      -0.000752174604
156      -0.000435134367
 Sym=     1a
 Ene= -3.89958791311173E-01
 Spin= Alpha
 Occup= 2.000000
  1      -0.014356936017
  2      -0.023379572351
  3       0.012698140057
  4       0.010940312963
  5       0.052458462297
  6       0.072494333361
  7       0.018693152561
  8       0.025358002401
  9       0.091987423784
 10       0.060387650477
 11       0.014790920921
 12       0.028820171904
 13       0.037050890785
 14      -0.017689232921
 15       0.002259433138
 16      -0.001289192192
 17      -0.010178056122
 18       0.020586494810
 19       0.003553897059
 20       0.006668805364
 21       0.002819364428
 22       0.004351618559
 23       0.014356872412
 24       0.023379459553
 25       0.012698324448
 26       0.010939027238
 27      -0.052458460715
 28      -0.072493877802
 29       0.018693483891
 30       0.025356195851
 31      -0.091987605709
 32      -0.060387050741
 33       0.014791336962
 34       0.028819196951
 35      -0.037050895456
 36       0.017688360383
 37       0.002259836389
 38      -0.001289170048
 39       0.010177938564
 40      -0.020586630937
 41       0.003553999633
 42       0.006668850594
 43      -0.002819520319
 44      -0.004351633843
 45      -0.007904869611
 46      -0.003579773085
 47      -0.006006063628
 48      -0.000294797226
 49       0.002386414368
 50       0.003992674134
 51      -0.008931747151
 52      -0.004540628737
 53      -0.002979721316
 54       0.001394748346
 55       0.001171260553
 56       0.002921285440
 57       0.008931303734
 58       0.004539868786
 59       0.002979377272
 60       0.001394894042
 61       0.001171236228
 62      -0.002921196781
 63       0.007904659026
 64       0.003578642352
 65       0.006006445603
 66      -0.000294878154
 67       0.002386302490
 68      -0.003992856844
 69       0.000000096270
 70       0.000000158325
 71       0.029023877218
 72      -0.067570215021
 73       0.000000133796
 74      -0.000000512709
 75       0.042289965853
 76      -0.096424206908
 77       0.000000262539
 78      -0.000000609642
 79       0.006116041027
 80       0.018098962567
 81       0.000000341780
 82       0.000000667313
 83      -0.006669217602
 84       0.026155535905
 85      -0.000000265758
 86      -0.000000095387
 87      -0.004319897256
 88       0.031923629041
 89      -0.000000142340
 90       0.000000197237
 91      -0.020065492443
 92      -0.032696862076
 93      -0.052041343730
 94       0.188155090666
 95       0.064430449674
 96       0.098506907205
 97      -0.075932638343
 98       0.275245960958
 99       0.097539839342
100       0.118992932464
101      -0.064333128901
102       0.237710253018
103       0.074504311719
104       0.009739810027
105      -0.009714455514
106       0.022343637587
107      -0.020301764259
108       0.002495493618
109       0.002681339677
110      -0.006802549647
111       0.008370137829
112       0.005941270716
113       0.020065340728
114       0.032696615186
115      -0.052043414016
116       0.188153715682
117      -0.064429579726
118      -0.098506147793
119      -0.075935786952
120       0.275244062359
121      -0.097538686303
122      -0.118991898186
123      -0.064335919504
124       0.237708668385
125      -0.074503130444
126      -0.009739345380
127      -0.009714811414
128       0.022343508244
129       0.020302027892
130      -0.002495515227
131       0.002681395619
132      -0.006802528826
133      -0.008369989674
134      -0.005941379039
135       0.000000007402
136       0.000000011557
137       0.020679671350
138      -0.017132215883
139       0.000000014734
140      -0.000000033703
141       0.031224493613
142      -0.029058893546
143       0.000000006023
144      -0.000000040518
145       0.025849825911
146      -0.025876005160
147       0.000000027682
148      -0.000000332348
149       0.002734338043
150       0.000143492462
151       0.000000160740
152       0.000000001683
153      -0.003246152519
154       0.006178469762
155      -0.000000004347
156       0.000000006164
 Sym=     1a
 Ene= -3.25585252300874E-01
 Spin= Alpha
 Occup= 2.000000
  1      -0.003647454533
  2      -0.006035512313
  3       0.074642626561
  4       0.042300222711
  5      -0.009758899876
  6       0.022593112993
  7       0.101172447243
  8       0.064636194130
  9      -0.012253303573
 10       0.003924760619
 11       0.059343811187
 12       0.045409589603
 13      -0.024104111695
 14      -0.029223237212
 15      -0.003434941793
 16      -0.001270162792
 17      -0.011580376268
 18       0.006764276493
 19      -0.020256305015
 20      -0.006417764692
 21      -0.012517702354
 22      -0.010945991968
 23      -0.003647553547
 24      -0.006035689293
 25      -0.074638604397
 26      -0.042301083817
 27      -0.009760450161
 28       0.022594418210
 29      -0.101166807379
 30      -0.064638052202
 31      -0.012255626351
 32       0.003916265622
 33      -0.059341734542
 34      -0.045410454949
 35      -0.024111908043
 36      -0.029238817261
 37       0.003434257317
 38       0.001273181100
 39      -0.011585353188
 40       0.006763782750
 41       0.020254196901
 42       0.006416651813
 43      -0.012517106089
 44      -0.010945906453
 45       0.050160951397
 46       0.085843512497
 47       0.059331145404
 48      -0.000639569320
 49       0.005783050156
 50       0.003461306985
 51      -0.085991103715
 52      -0.144680964221
 53      -0.103887734454
 54      -0.004574662276
 55      -0.002618417429
 56      -0.002424474184
 57      -0.085986701892
 58      -0.144671827910
 59      -0.103882015329
 60       0.004574491239
 61       0.002617932159
 62      -0.002424191494
 63       0.050157820857
 64       0.085838620225
 65       0.059323321171
 66       0.000639379054
 67      -0.005782930170
 68       0.003461154887
 69       0.001144653963
 70       0.001727126373
 71       0.000003351539
 72      -0.000000031683
 73      -0.000982126788
 74      -0.004080627574
 75       0.000004929872
 76      -0.000000266574
 77      -0.002882671848
 78       0.003132305784
 79       0.000004329140
 80      -0.000002362014
 81       0.029852857554
 82       0.037633588572
 83       0.000001489629
 84      -0.000000039611
 85      -0.006743881643
 86      -0.004648639149
 87       0.000004134269
 88      -0.000001567918
 89      -0.022656791771
 90       0.031909291389
 91      -0.001332169678
 92      -0.002151188762
 93       0.176620057732
 94       0.056193201694
 95       0.019200510688
 96       0.006190739985
 97       0.258338606105
 98       0.081647377281
 99       0.028345077412
100       0.021977430791
101       0.251804930927
102       0.077048619809
103       0.021305163385
104       0.027228810424
105       0.052022314548
106       0.017991779662
107      -0.005431615474
108       0.000241504886
109       0.001021948216
110      -0.000035152363
111       0.005275768136
112      -0.008563664866
113      -0.001331311085
114      -0.002149812639
115      -0.176633994691
116      -0.056203085059
117       0.019200718558
118       0.006186690220
119      -0.258359048799
120      -0.081661532938
121       0.028345500127
122       0.021967725054
123      -0.251824226608
124      -0.077063349067
125       0.021307314518
126       0.027213764820
127      -0.052025823199
128      -0.017995680736
129      -0.005427748753
130       0.000241853813
131      -0.001021627908
132       0.000035573850
133       0.005276387093
134      -0.008564185627
135       0.000002595571
136      -0.000061082525
137       0.000014197293
138      -0.000004443962
139       0.007222691325
140       0.001220186719
141       0.000020630220
142      -0.000006396089
143       0.009210927337
144      -0.009620793424
145       0.000018122098
146      -0.000005404844
147       0.011456568759
148      -0.022492698630
149       0.000002589410
150      -0.000000390707
151       0.008616090292
152      -0.000422182635
153      -0.000001042983
154       0.000000252329
155      -0.000626120312
156       0.000738611214
 Sym=     1a
 Ene= -3.23398267406461E-01
 Spin= Alpha
 Occup= 2.000000
  1       0.001612451770
  2       0.002659822175
  3       0.034372974786
  4      -0.005783170037
  5       0.011732475346
  6      -0.014923866847
  7       0.047601565564
  8      -0.012515720655
  9       0.017723180471
 10       0.075699182634
 11       0.020779017649
 12       0.004527145112
 13       0.068011904260
 14       0.083868915789
 15      -0.003872951069
 16       0.014028777566
 17       0.038338664215
 18       0.005536430455
 19      -0.016777410852
 20      -0.006429498119
 21      -0.005154025403
 22       0.001040270767
 23      -0.001612005612
 24      -0.002659075707
 25       0.034382663777
 26      -0.005777264541
 27      -0.011731366431
 28       0.014921060329
 29       0.047614773410
 30      -0.012506742639
 31      -0.017721762353
 32      -0.075699182835
 33       0.020786127451
 34       0.004534004401
 35      -0.068009628798
 36      -0.083863929184
 37      -0.003873289724
 38       0.014028888666
 39      -0.038336996836
 40      -0.005537409421
 41      -0.016780353323
 42      -0.006430447971
 43       0.005155563281
 44      -0.001039126989
 45       0.022178726746
 46       0.036006561350
 47       0.063144391212
 48       0.000373595302
 49       0.001437831110
 50       0.000773267594
 51      -0.037866777586
 52      -0.077625891477
 53      -0.043842877198
 54      -0.003049893806
 55      -0.004194359065
 56      -0.001517868645
 57       0.037878048407
 58       0.077645018209
 59       0.043856316227
 60      -0.003050594773
 61      -0.004194706680
 62       0.001518196714
 63      -0.022184750987
 64      -0.036017230480
 65      -0.063152133066
 66       0.000373574567
 67       0.001438405271
 68      -0.000773749736
 69      -0.000000109589
 70      -0.000000167313
 71       0.050683577713
 72       0.002292906107
 73      -0.000000206589
 74       0.000000380589
 75       0.074052213713
 76      -0.000340954531
 77      -0.000000175508
 78      -0.000000237984
 79       0.061419400129
 80      -0.016840436027
 81      -0.000002683825
 82      -0.000003369410
 83       0.020636878412
 84       0.006772805713
 85       0.000000804574
 86       0.000000066334
 87       0.063726839446
 88      -0.009871142349
 89       0.000001446435
 90      -0.000002100994
 91      -0.004719577940
 92      -0.007553446846
 93      -0.123591293265
 94      -0.059609521358
 95       0.005166229231
 96       0.020863600870
 97      -0.180756007239
 98      -0.085296168205
 99       0.007498318642
100       0.062665334114
101      -0.171322650610
102      -0.091934103222
103      -0.009721715975
104       0.101369496496
105      -0.031918669010
106      -0.025410004758
107      -0.030427932518
108      -0.001708647320
109       0.002928458711
110       0.002274471637
111      -0.004220424134
112       0.004988009484
113       0.004719842830
114       0.007553876544
115      -0.123568745700
116      -0.059602394688
117      -0.005167618485
118      -0.020864881730
119      -0.180723040330
120      -0.085285884811
121      -0.007500402171
122      -0.062668844185
123      -0.171290459191
124      -0.091924327193
125       0.009720406019
126      -0.101373386588
127      -0.031911581453
128      -0.025407449755
129       0.030429250775
130       0.001708593710
131       0.002928616883
132       0.002274555173
133       0.004219790933
134      -0.004986881298
135      -0.000000001945
136       0.000000001614
137       0.222029969667
138      -0.030948083207
139      -0.000000321912
140      -0.000000094947
141       0.322867187820
142      -0.044513086275
143      -0.000000416968
144       0.000001021734
145       0.284514092428
146      -0.037416641798
147      -0.000000746009
148       0.000001928958
149       0.042457844205
150      -0.000113983411
151      -0.000000738557
152       0.000000027326
153      -0.016219160609
154       0.001689928057
155       0.000000030182
156      -0.000000045347
 Sym=     1a
 Ene= -3.07693045244881E-01
 Spin= Alpha
 Occup= 2.000000
  1       0.002178771799
  2       0.003702152276
  3       0.009768042370
  4       0.004409133393
  5      -0.036906255229
  6      -0.016037144670
  7       0.011314805507
  8       0.009121533258
  9      -0.055490400266
 10       0.026224153430
 11       0.001034526269
 12       0.026048861694
 13      -0.033517862405
 14      -0.023855021546
 15      -0.001607916429
 16      -0.014785044029
 17       0.004607080528
 18      -0.000415566349
 19      -0.010957551186
 20       0.008912731475
 21       0.000454157717
 22       0.002208956929
 23      -0.002178844815
 24      -0.003702287169
 25       0.009766525993
 26       0.004408721333
 27       0.036905984919
 28       0.016037463502
 29       0.011312392196
 30       0.009121105494
 31       0.055489951662
 32      -0.026221536019
 33       0.001031783322
 34       0.026049051707
 35       0.033517464321
 36       0.023854128175
 37      -0.001608097511
 38      -0.014784896893
 39      -0.004607377234
 40       0.000415852861
 41      -0.010956752290
 42       0.008912964626
 43      -0.000454160297
 44      -0.002209357160
 45       0.029280938009
 46       0.045948433150
 47       0.042729950970
 48      -0.001653464647
 49       0.001744633886
 50      -0.001328121299
 51      -0.005201400736
 52      -0.018531369607
 53      -0.013227949773
 54      -0.000845720834
 55      -0.001333866464
 56      -0.002894237602
 57       0.005200068235
 58       0.018528901316
 59       0.013226288840
 60      -0.000845822828
 61      -0.001333629552
 62       0.002894024914
 63      -0.029279741272
 64      -0.045948102151
 65      -0.042728356233
 66      -0.001653600041
 67       0.001744694393
 68       0.001327886502
 69      -0.000000021325
 70      -0.000000033063
 71       0.003544857043
 72       0.021037581186
 73      -0.000000092132
 74       0.000000069973
 75       0.004884395612
 76       0.025316477906
 77      -0.000000174936
 78       0.000000439648
 79      -0.020169438104
 80       0.113478520393
 81      -0.000000352388
 82       0.000001090697
 83      -0.003642056955
 84       0.042820631076
 85      -0.000000575627
 86      -0.000000052758
 87      -0.000934469224
 88       0.079689018466
 89      -0.000000218098
 90       0.000000346127
 91       0.010092711607
 92       0.016370781042
 93      -0.055799383040
 94       0.032870024594
 95      -0.065781393847
 96      -0.052197695171
 97      -0.080043079942
 98       0.042304015813
 99      -0.091459338978
100      -0.082343126487
101      -0.079785177801
102       0.043611819385
103      -0.095471240408
104      -0.099848051834
105      -0.025147966908
106       0.030221632581
107      -0.013462271080
108       0.005066772689
109      -0.000149791217
110       0.000549534598
111      -0.001600837607
112       0.002181004300
113      -0.010092685934
114      -0.016370741956
115      -0.055802367646
116       0.032869122272
117       0.065782137735
118       0.052197678255
119      -0.080047481375
120       0.042302645585
121       0.091460312411
122       0.082342346984
123      -0.079789420573
124       0.043610300262
125       0.095472615813
126       0.099846370282
127      -0.025149062235
128       0.030221143848
129       0.013463251362
130      -0.005066765415
131      -0.000149872207
132       0.000549564964
133       0.001600939822
134      -0.002181143406
135       0.000000003989
136       0.000000006544
137      -0.005249592222
138       0.275077843036
139       0.000000194467
140      -0.000000024472
141      -0.007599644711
142       0.399142648585
143       0.000000252902
144       0.000000192481
145      -0.003470404208
146       0.346549819524
147       0.000000168120
148      -0.000000177314
149       0.003316882084
150       0.048178737990
151       0.000000231761
152      -0.000000012143
153       0.000094653505
154      -0.017214013529
155      -0.000000008939
156      -0.000000002290
 Sym=     1a
 Ene= -7.64790869105495E-03
 Spin= Alpha
 Occup= 0.000000
  1      -0.025882153773
  2      -0.043122092399
  3      -0.006964047079
  4      -0.042412254909
  5      -0.042628019897
  6       0.147697080472
  7      -0.004531299257
  8      -0.067073710700
  9      -0.054096453159
 10       0.326987668916
 11      -0.065891285934
 12      -0.099746665822
 13      -0.201253014693
 14      -0.829470200391
 15      -0.094180064417
 16       0.177094305313
 17       0.238185098466
 18      -0.004236111063
 19       0.000485174526
 20      -0.003208291200
 21      -0.004477616418
 22      -0.000372063081
 23      -0.025882212345
 24      -0.043122196382
 25       0.006964679155
 26       0.042412198829
 27      -0.042628044445
 28       0.147697628419
 29       0.004532214754
 30       0.067073826834
 31      -0.054096384587
 32       0.326985794430
 33       0.065893549079
 34       0.099744881870
 35      -0.201253727763
 36      -0.829547342731
 37       0.094181291162
 38      -0.177075223043
 39       0.238182536639
 40      -0.004236043559
 41      -0.000484992058
 42       0.003208297110
 43      -0.004477653100
 44      -0.000372250853
 45       0.003688126165
 46      -0.072821347202
 47       0.118626405245
 48      -0.011032656546
 49       0.001477755757
 50       0.008410041501
 51       0.007195807684
 52      -0.058828237108
 53       0.049835521648
 54       0.012944543438
 55       0.000239092588
 56       0.002799391997
 57       0.007195475695
 58      -0.058828601262
 59       0.049834687423
 60      -0.012944639907
 61      -0.000239092536
 62       0.002799296782
 63       0.003688457141
 64      -0.072821268049
 65       0.118632217375
 66       0.011032625766
 67      -0.001477788539
 68       0.008410130257
 69      -0.002915595115
 70      -0.005380912572
 71       0.000000052177
 72      -0.000000001444
 73      -0.004700916054
 74       0.033277874005
 75       0.000000015445
 76      -0.000000012788
 77      -0.001372026491
 78      -0.159102597063
 79       0.000000555057
 80      -0.000000101732
 81      -0.014443241378
 82      -0.860485709188
 83      -0.000000829205
 84       0.000001453102
 85       0.236229043663
 86      -0.003548933639
 87      -0.000000005675
 88       0.000000000460
 89      -0.008465053708
 90      -0.008966049954
 91      -0.004616010290
 92      -0.007853269594
 93      -0.009250229793
 94      -0.008724101656
 95       0.013111644921
 96       0.030083801942
 97      -0.013434747766
 98      -0.008366021967
 99       0.018297362334
100       0.043390100776
101      -0.010740236373
102      -0.052889028742
103       0.018526030264
104       0.563909534298
105      -0.003024009902
106       0.019361173357
107      -0.145075312038
108       0.003824945226
109      -0.000773969191
110      -0.003397838951
111      -0.001789868958
112      -0.000110415525
113      -0.004616007401
114      -0.007853257947
115       0.009250215750
116       0.008724101288
117       0.013111592947
118       0.030083680719
119       0.013434700649
120       0.008366057925
121       0.018297308683
122       0.043390861146
123       0.010740219116
124       0.052888903600
125       0.018525935713
126       0.563899921107
127       0.003022831028
128      -0.019362958709
129      -0.145071389510
130       0.003824933366
131       0.000773966412
132       0.003397838579
133      -0.001789883270
134      -0.000110376850
135      -0.002593680241
136      -0.004420783040
137       0.000000004107
138      -0.000000003355
139       0.003503367005
140       0.017207711482
141       0.000000047837
142      -0.000000010969
143       0.004689123006
144       0.017120946620
145      -0.000000196219
146       0.000000028103
147      -0.006564125499
148       0.321051733892
149       0.000000396239
150       0.000000202968
151      -0.123795736651
152       0.000854093307
153      -0.000000000525
154       0.000000000645
155      -0.000435730325
156      -0.000411955871
 Sym=     1a
 Ene= 6.87438693803916E-04
 Spin= Alpha
 Occup= 0.000000
  1      -0.013087601456
  2      -0.021112380226
  3       0.024085124431
  4      -0.007692845123
  5       0.055306039425
  6       0.059391517269
  7       0.036233252921
  8      -0.012406576537
  9       0.071365298264
 10       0.191871265501
 11       0.093713550450
 12      -0.058250521080
 13       0.305037243017
 14       1.187709628669
 15       0.133245775822
 16      -0.029639272098
 17       0.900642889974
 18      -0.028379750452
 19      -0.010329365117
 20       0.014111823633
 21       0.003935736792
 22      -0.003166742264
 23      -0.013087350780
 24      -0.021111962402
 25      -0.024088422282
 26       0.007692468506
 27       0.055305493792
 28       0.059390064890
 29      -0.036238961168
 30       0.012405832494
 31       0.071364332374
 32       0.191868671117
 33      -0.093723465734
 34       0.058249447476
 35       0.305034648634
 36       1.187737601193
 37      -0.133228610376
 38       0.029638435635
 39       0.900646855400
 40      -0.028379897556
 41       0.010328569891
 42      -0.014112049480
 43       0.003935876529
 44      -0.003166281350
 45       0.020478651265
 46       0.044697339165
 47       0.083598529902
 48       0.007330586466
 49      -0.006017926392
 50       0.012496150500
 51       0.000677570878
 52       0.018310889380
 53      -0.000663334536
 54      -0.005031267314
 55      -0.002455226026
 56       0.012087061396
 57       0.000678858854
 58       0.018316564839
 59      -0.000659688573
 60       0.005031625991
 61       0.002455314275
 62       0.012086769805
 63       0.020477595923
 64       0.044693132564
 65       0.083591688083
 66      -0.007330523507
 67       0.006017970667
 68       0.012496393032
 69      -0.011773757023
 70      -0.018940691144
 71       0.000002744254
 72       0.000000711214
 73      -0.016805746669
 74       0.041081976148
 75       0.000004272167
 76       0.000001114337
 77      -0.020234592634
 78       0.325138661671
 79       0.000007190094
 80       0.000000932576
 81       0.081388983956
 82      -1.032021203999
 83       0.000002396489
 84       0.000000008459
 85       0.784525538477
 86      -0.026590625050
 87      -0.000000363977
 88      -0.000000065963
 89       0.008239183953
 90       0.005081703539
 91       0.026545850566
 92       0.044053955349
 93      -0.007243454770
 94       0.026566162729
 95       0.051797313642
 96      -0.146842032393
 97      -0.011537754788
 98       0.039706763662
 99       0.073342173981
100      -0.326286390547
101      -0.025671995277
102       0.085106564577
103       0.125584045597
104      -0.700065542304
105      -0.016720995244
106      -0.030657320262
107       0.131965615264
108       0.002685407723
109       0.000614602188
110      -0.000758854182
111       0.002615296382
112       0.001403641044
113       0.026545889344
114       0.044054012653
115       0.007242233227
116      -0.026566549718
117       0.051797464425
118      -0.146842151515
119       0.011535797347
120      -0.039707414712
121       0.073342406881
122      -0.326287378867
123       0.025670949599
124      -0.085107168456
125       0.125584176225
126      -0.700068763507
127       0.016717210647
128       0.030652648040
129       0.131965153182
130       0.002685385279
131      -0.000614173486
132       0.000758970727
133       0.002615237644
134       0.001403775569
135       0.014268409860
136       0.023540581198
137      -0.000002059050
138      -0.000000516934
139       0.026355320618
140      -0.076694169982
141      -0.000002949876
142      -0.000000752542
143       0.033089193130
144      -0.167356723236
145      -0.000003975463
146      -0.000000916697
147       0.083967523911
148      -0.402096046675
149      -0.000002341422
150      -0.000000719199
151      -0.015875958422
152      -0.003101586855
153      -0.000000101203
154      -0.000000026733
155       0.000132970677
156       0.000099114325
 Sym=     1a
 Ene= 1.33561144486223E-02
 Spin= Alpha
 Occup= 0.000000
  1       0.007676538164
  2       0.012815191225
  3       0.055213753908
  4       0.018327105512
  5      -0.013087721384
  6      -0.045970088840
  7       0.101847805021
  8       0.030246799100
  9      -0.022292800403
 10      -0.052636536123
 11       0.146443079333
 12       0.102787486939
 13      -0.048205973529
 14       0.553543678034
 15      -0.489223484547
 16      -0.000977549868
 17      -0.046928738103
 18      -0.001112559231
 19       0.013098751545
 20       0.006448868783
 21       0.004287323522
 22       0.001733620543
 23      -0.007676821282
 24      -0.012815648705
 25       0.055212738176
 26       0.018326819684
 27       0.013089359550
 28       0.045971254257
 29       0.101846602069
 30       0.030246608446
 31       0.022294741075
 32       0.052640103678
 33       0.146439976879
 34       0.102786886046
 35       0.048216726999
 36      -0.553509808122
 37      -0.489225124241
 38      -0.000969140550
 39       0.046957731578
 40       0.001111303129
 41       0.013099003350
 42       0.006448252491
 43      -0.004287066199
 44      -0.001733654068
 45      -0.005217004320
 46      -0.044753135441
 47      -0.047361527862
 48      -0.002645836299
 49      -0.000829169696
 50       0.001617316534
 51       0.009326308967
 52       0.088634645022
 53      -0.019356089457
 54      -0.008970464160
 55      -0.002872444452
 56      -0.004968179495
 57      -0.009326170217
 58      -0.088634176763
 59       0.019360234200
 60      -0.008970084922
 61      -0.002872157684
 62       0.004968454582
 63       0.005217788013
 64       0.044754865192
 65       0.047368611159
 66      -0.002646045407
 67      -0.000828985526
 68      -0.001616795482
 69      -0.000000170166
 70      -0.000000273686
 71      -0.172007640856
 72      -0.038933021752
 73      -0.000000104576
 74       0.000000560118
 75      -0.266812764720
 76      -0.059939902268
 77      -0.000000052236
 78       0.000006145012
 79      -0.464294379398
 80      -0.099551693668
 81       0.000003036885
 82      -0.000013077446
 83      -0.065164172661
 84      -0.068331443216
 85       0.000016148622
 86      -0.000000398721
 87       0.018488527133
 88       0.005888717065
 89       0.000000142955
 90       0.000000108232
 91       0.002610556477
 92       0.004322582484
 93       0.066957259535
 94       0.020318063243
 95       0.010276796674
 96      -0.014215640472
 97       0.101777292451
 98       0.031507894864
 99       0.015486798835
100      -0.023636247229
101       0.102202220794
102       0.031543853420
103       0.017503879867
104      -0.104715775791
105       0.215668274334
106       0.113110040325
107       0.059000354104
108       0.000474578616
109      -0.010760648240
110      -0.003630753554
111      -0.001924902676
112       0.004910811915
113      -0.002609707197
114      -0.004321173302
115       0.066957251316
116       0.020317177748
117      -0.010275441189
118       0.014210884119
119       0.101777377991
120       0.031506586384
121      -0.015484861171
122       0.023625672640
123       0.102202289873
124       0.031541037786
125      -0.017500562349
126       0.104698032162
127       0.215670068347
128       0.113111625297
129      -0.058997598019
130      -0.000474431804
131      -0.010760679424
132      -0.003630781376
133       0.001924915783
134      -0.004910808870
135       0.000000261298
136       0.000000431133
137       0.124109208236
138       0.027008747275
139       0.000000257541
140      -0.000001400181
141       0.176863023063
142       0.038609979074
143       0.000000271489
144      -0.000003417459
145       0.248068710059
146       0.052075244954
147       0.000001511636
148      -0.000010276363
149       0.142163330538
150       0.034519400536
151      -0.000000495175
152      -0.000000067050
153       0.006664743251
154       0.001635618462
155       0.000000007029
156       0.000000002675
 Sym=     1a
 Ene= 2.03001202177683E-02
 Spin= Alpha
 Occup= 0.000000
  1      -0.024780503888
  2      -0.040640233835
  3      -0.008559970875
  4       0.005388067932
  5      -0.037279177168
  6       0.123426819857
  7      -0.007975240785
  8      -0.000526583251
  9      -0.056316294807
 10       0.472321197421
 11      -0.042389741302
 12       0.135663866020
 13      -0.124061527835
 14       4.818556311382
 15      -0.012122367982
 16       2.087285320966
 17       0.637331704357
 18       0.001749641836
 19       0.000735920129
 20       0.002483268194
 21       0.014189127268
 22      -0.005278391958
 23       0.024780544022
 24       0.040640292468
 25      -0.008559582385
 26       0.005388142442
 27       0.037278982093
 28      -0.123426650004
 29      -0.007974326074
 30      -0.000526772029
 31       0.056316112347
 32      -0.472324938683
 33      -0.042388827830
 34       0.135664441362
 35       0.124059220361
 36      -4.818519574091
 37      -0.012130881992
 38       2.087279848180
 39      -0.637319270222
 40      -0.001749792441
 41       0.000735750156
 42       0.002483254275
 43      -0.014189071049
 44       0.005278504782
 45       0.006498260018
 46      -0.037422344779
 47       0.026784118312
 48      -0.002861085625
 49       0.008306731568
 50       0.003295610956
 51       0.006579535130
 52      -0.034393596115
 53      -0.039850355017
 54       0.004831722578
 55       0.010286038603
 56       0.000270157895
 57      -0.006579448245
 58       0.034393485786
 59       0.039848587399
 60       0.004831745401
 61       0.010285961399
 62      -0.000270099399
 63      -0.006498293816
 64       0.037423973428
 65      -0.026790780838
 66      -0.002861013284
 67       0.008306758061
 68      -0.003295530419
 69       0.000000016054
 70       0.000000013952
 71      -0.091091537035
 72      -0.015525162064
 73       0.000000070654
 74       0.000000268860
 75      -0.152877084519
 76      -0.017733146992
 77       0.000000308757
 78      -0.000004196067
 79      -0.173903919522
 80      -0.136881624260
 81       0.000000053942
 82      -0.000036894679
 83       0.074033420326
 84       0.385244875304
 85       0.000016985588
 86       0.000000013879
 87       0.012914113307
 88      -0.003403827686
 89       0.000000015734
 90      -0.000000008147
 91       0.003979253239
 92       0.006658221149
 93       0.037247593317
 94      -0.013122471507
 95      -0.008466897737
 96      -0.023100545907
 97       0.051891302146
 98      -0.022709436897
 99      -0.013496801409
100      -0.030909684943
101       0.078167769399
102      -0.005127300952
103      -0.009871681986
104       0.129637987981
105       0.042119613444
106      -0.244240459684
107       0.101995757110
108      -0.002101455734
109      -0.003748717713
110      -0.001310834269
111      -0.002966572432
112       0.003564557391
113      -0.003979305300
114      -0.006658301473
115       0.037247661609
116      -0.013122364745
117       0.008466681070
118       0.023100676587
119       0.051891344911
120      -0.022709308568
121       0.013496590658
122       0.030911133072
123       0.078167903227
124      -0.005126565986
125       0.009870576408
126      -0.129631192865
127       0.042117303514
128      -0.244238308545
129      -0.101995439608
130       0.002101467856
131      -0.003748696507
132      -0.001310816511
133       0.002966542459
134      -0.003564569795
135      -0.000000016489
136      -0.000000028490
137       0.053039249429
138       0.007578706832
139      -0.000000081169
140       0.000000128771
141       0.075071104551
142       0.006611334788
143      -0.000000165620
144       0.000000004811
145       0.104685747655
146       0.042742575100
147       0.000000169002
148       0.000003142525
149       0.065506079436
150      -0.111902633321
151      -0.000004231677
152      -0.000000013500
153       0.004537890263
154       0.000615443534
155       0.000000001487
156       0.000000000758
 Sym=     1a
 Ene= 2.91893148599706E-02
 Spin= Alpha
 Occup= 0.000000
  1       0.006876161039
  2       0.011840802670
  3      -0.060000814691
  4       0.021056506841
  5       0.011347343819
  6      -0.057870769657
  7      -0.100061287470
  8       0.034453909793
  9       0.010751068100
 10       0.153581909073
 11      -0.185238888464
 12       0.173840256955
 13       0.143274181447
 14       1.128376163286
 15       0.553662960615
 16       0.150467492643
 17      -0.222061451493
 18      -0.001014813979
 19       0.004844884221
 20       0.006392339341
 21       0.005285107519
 22      -0.008037883173
 23      -0.006875985086
 24      -0.011840515161
 25      -0.060000700576
 26       0.021056723941
 27      -0.011347978546
 28       0.057870118083
 29      -0.100061233436
 30       0.034453793288
 31      -0.010752162549
 32      -0.153585469159
 33      -0.185237214403
 34       0.173842006301
 35      -0.143277363249
 36      -1.128317303983
 37       0.553671467733
 38       0.150449033045
 39       0.222083845705
 40       0.001014959246
 41       0.004844624925
 42       0.006392392417
 43      -0.005285122637
 44       0.008037948522
 45      -0.004895365232
 46       0.065669199780
 47      -0.006459104308
 48       0.009354736636
 49      -0.006740527401
 50      -0.005662685253
 51       0.009496316568
 52      -0.046375410590
 53       0.109042411685
 54       0.001361857584
 55       0.000705962843
 56      -0.001978481569
 57      -0.009496481905
 58       0.046377033365
 59      -0.109056759848
 60       0.001361952462
 61       0.000705983979
 62       0.001978383041
 63       0.004895275102
 64      -0.065668679476
 65       0.006452148569
 66       0.009354740984
 67      -0.006740709723
 68       0.005662790689
 69       0.000000042836
 70       0.000000065908
 71      -0.177873613894
 72      -0.036415101307
 73       0.000000135597
 74      -0.000000021867
 75      -0.283833468435
 76      -0.060188652219
 77       0.000000460262
 78      -0.000003529417
 79      -0.430547710574
 80      -0.166088299193
 81      -0.000002003363
 82      -0.000052519660
 83      -0.117045026158
 84      -0.121973963731
 85       0.000018324663
 86       0.000000098131
 87       0.020785923561
 88       0.010875986879
 89       0.000000024195
 90       0.000000062761
 91       0.000896960699
 92       0.001408272956
 93       0.067090703425
 94       0.027503326110
 95       0.012900424045
 96      -0.003279559251
 97       0.087360052503
 98       0.041702144256
 99       0.017314514133
100      -0.006293406320
101       0.177682477185
102       0.032835188873
103       0.026723842470
104       0.445112258814
105      -0.011178017226
106      -0.078256108312
107      -0.093074495411
108       0.002976587492
109      -0.005460276187
110      -0.003503555754
111      -0.004331421322
112       0.008098847539
113      -0.000897157625
114      -0.001408595059
115       0.067090414804
116       0.027503515272
117      -0.012901227563
118       0.003280477070
119       0.087359601265
120       0.041702401105
121      -0.017315612916
122       0.006296732873
123       0.177681889208
124       0.032835954463
125      -0.026726118903
126      -0.445116618889
127      -0.011177343441
128      -0.078257347378
129       0.093075642626
130      -0.002976638865
131      -0.005460337063
132      -0.003503510831
133       0.004331415993
134      -0.008098871406
135      -0.000000063565
136      -0.000000106068
137       0.099116138853
138       0.020516358301
139      -0.000000192194
140       0.000000378547
141       0.142357756071
142       0.028173941618
143      -0.000000272537
144       0.000000740708
145       0.193087329071
146       0.045850660769
147      -0.000000412151
148       0.000008668938
149       0.207364965956
150       0.084239338398
151      -0.000005211226
152      -0.000000010050
153       0.009126647882
154       0.002006358448
155       0.000000008642
156       0.000000003896
 Sym=     1a
 Ene= 5.83115101866374E-02
 Spin= Alpha
 Occup= 0.000000
  1      -0.013377938997
  2      -0.021782862412
  3      -0.034035727547
  4       0.012072937133
  5       0.033853005976
  6       0.060650148890
  7      -0.063151017450
  8       0.022887986485
  9       0.065626785840
 10       0.403324476231
 11       0.005285443096
 12      -0.045660497456
 13       0.076414019855
 14      -1.085569769082
 15       1.159212655017
 16      -1.346799984580
 17      -0.606136460742
 18      -0.009276706217
 19      -0.004519417771
 20       0.017806339443
 21      -0.014057757623
 22       0.001294185816
 23      -0.013377715819
 24      -0.021782493729
 25       0.034035826163
 26      -0.012073440350
 27       0.033852428697
 28       0.060649224111
 29       0.063151498661
 30      -0.022888808828
 31       0.065626177438
 32       0.403320495818
 33      -0.005285825756
 34       0.045661201742
 35       0.076406808297
 36      -1.085330417397
 37      -1.159206842703
 38       1.346725638471
 39      -0.606172166274
 40      -0.009276426920
 41       0.004519498423
 42      -0.017806341663
 43      -0.014057724466
 44       0.001293921123
 45      -0.004025901216
 46      -0.019712976769
 47       0.021269612545
 48       0.001531407492
 49      -0.015929734480
 50      -0.001516769964
 51       0.000066953246
 52      -0.046648127652
 53       0.293876584717
 54       0.008974357704
 55      -0.002753683172
 56       0.003628594211
 57       0.000066567543
 58      -0.046647301859
 59       0.293864882660
 60      -0.008974387027
 61       0.002753394956
 62       0.003628352987
 63      -0.004025511983
 64      -0.019711146658
 65       0.021258461622
 66      -0.001531341315
 67       0.015929869663
 68      -0.001517010047
 69      -0.000774612893
 70      -0.002329095966
 71      -0.000000601400
 72      -0.000000415237
 73      -0.002700507190
 74       0.035205840476
 75      -0.000000833359
 76      -0.000000846161
 77      -0.026264957972
 78      -0.463795799874
 79      -0.000002459035
 80       0.000000147714
 81      -0.101587385287
 82       1.108568571745
 83      -0.000005355327
 84      -0.000006283483
 85      -1.113869789519
 86      -0.000975902189
 87       0.000000054197
 88       0.000000129367
 89      -0.012381813390
 90      -0.012370099626
 91       0.005255920442
 92       0.008546882270
 93      -0.011483722544
 94      -0.004359961417
 95       0.045606835175
 96      -0.023425863974
 97      -0.014454842557
 98      -0.005724709279
 99       0.066186423864
100      -0.110052310381
101      -0.034982114627
102      -0.004135429624
103       0.111807719697
104       0.413438876322
105       0.115803026429
106      -0.243871162681
107       0.179342432085
108       0.001841821448
109      -0.002745404491
110      -0.000024536218
111      -0.003251737898
112      -0.001954473999
113       0.005256261180
114       0.008547443760
115       0.011484686059
116       0.004360645746
117       0.045607208449
118      -0.023427639642
119       0.014456158419
120       0.005725780492
121       0.066186884188
122      -0.110057584052
123       0.034984913914
124       0.004135580024
125       0.111809713477
126       0.413435544752
127      -0.115804443635
128       0.243879932864
129       0.179344004422
130       0.001841811980
131       0.002745380396
132       0.000024539536
133      -0.003251701284
134      -0.001954489802
135      -0.006313752491
136      -0.010321297982
137       0.000000329024
138       0.000000485552
139       0.006541841431
140       0.029202727955
141       0.000000505705
142       0.000000773755
143       0.012283631938
144       0.153115291991
145       0.000000511385
146       0.000000463753
147      -0.070865395178
148       0.347900412908
149       0.000002172908
150       0.000002638480
151       0.158005748252
152       0.002519162388
153       0.000000036738
154       0.000000013015
155      -0.001364085368
156      -0.001192699488
 Sym=     1a
 Ene= 6.57472199684367E-02
 Spin= Alpha
 Occup= 0.000000
  1      -0.006773720000
  2      -0.010970418115
  3       0.038449463499
  4       0.010905142428
  5      -0.025926532511
  6       0.033279703837
  7       0.079996761541
  8       0.021654846256
  9      -0.029125401988
 10       0.195830830035
 11      -0.010775859996
 12      -0.011578881955
 13      -0.211530687478
 14       0.168624773970
 15      -1.826530370704
 16      -0.893560661116
 17      -0.143580568654
 18       0.003836513185
 19       0.005099656568
 20       0.001027382485
 21      -0.015174537406
 22      -0.003222001474
 23      -0.006773766273
 24      -0.010970486708
 25      -0.038448869531
 26      -0.010904922315
 27      -0.025926139442
 28       0.033279652950
 29      -0.079995990848
 30      -0.021654604722
 31      -0.029124868117
 32       0.195833868468
 33       0.010778963388
 34       0.011578054638
 35      -0.211526569611
 36       0.168653978723
 37       1.826534536493
 38       0.893560325363
 39      -0.143554547566
 40       0.003836622510
 41      -0.005099586455
 42      -0.001027457738
 43      -0.015174799765
 44      -0.003222232217
 45      -0.009902366261
 46      -0.075472213775
 47       0.012952504183
 48      -0.011249289878
 49       0.000181583384
 50       0.000997639620
 51      -0.021175435330
 52      -0.017825916672
 53      -0.405538306360
 54       0.002302582100
 55      -0.013356707838
 56      -0.003520129855
 57      -0.021176188900
 58      -0.017827419379
 59      -0.405545403073
 60      -0.002302594745
 61       0.013356654431
 62      -0.003520005463
 63      -0.009901975731
 64      -0.075470910516
 65       0.012956766227
 66       0.011249277061
 67      -0.000181457221
 68       0.000997646331
 69      -0.004884408456
 70      -0.008160207278
 71      -0.000000179065
 72       0.000000065856
 73      -0.003984044082
 74       0.028256046072
 75      -0.000000322272
 76       0.000000204535
 77      -0.008740649109
 78       0.034680287041
 79       0.000000018188
 80      -0.000000012188
 81       0.101602737272
 82      -0.151349624532
 83       0.000005343647
 84       0.000001418826
 85       0.891587548679
 86       0.003912864782
 87       0.000000020678
 88      -0.000000074818
 89       0.002805058262
 90      -0.002417609194
 91      -0.000294021164
 92      -0.000497015182
 93      -0.011860717396
 94      -0.010453385578
 95      -0.016440025776
 96       0.001982767304
 97      -0.025239438008
 98      -0.013734066975
 99      -0.022787987792
100       0.014018142444
101       0.017336632249
102      -0.038974951223
103      -0.049204114474
104       0.742513803160
105      -0.188916157437
106      -0.155596241379
107      -0.183510357173
108       0.000668385752
109       0.001313254443
110      -0.000147636783
111      -0.004131741622
112       0.001446796789
113      -0.000294147680
114      -0.000497224187
115       0.011860239841
116       0.010452949697
117      -0.016440059250
118       0.001983404213
119       0.025238692899
120       0.013733309365
121      -0.022787971684
122       0.014020250781
123      -0.017337618156
124       0.038975181821
125      -0.049204788713
126       0.742523647475
127       0.188912314636
128       0.155589375796
129      -0.183510384364
130       0.000668421799
131      -0.001313257262
132       0.000147610009
133      -0.004131743146
134       0.001446778585
135       0.005581450616
136       0.009499688730
137      -0.000000120366
138      -0.000000169321
139      -0.006375633257
140      -0.036036261190
141      -0.000000223319
142      -0.000000267039
143      -0.011305279303
144      -0.039775089872
145      -0.000000006013
146      -0.000000165572
147       0.022984959300
148      -0.456223600924
149      -0.000001064659
150      -0.000000854232
151      -0.058244293889
152      -0.000476795236
153       0.000000023011
154       0.000000001089
155       0.000017107863
156       0.000432156496
 Sym=     1a
 Ene= 6.91466418678103E-02
 Spin= Alpha
 Occup= 0.000000
  1      -0.010129024757
  2      -0.016702777806
  3       0.018261825054
  4      -0.025108594569
  5       0.031396173913
  6       0.046057152100
  7       0.026849747544
  8      -0.035859341849
  9       0.042390080986
 10       0.196606784863
 11       0.106548398100
 12      -0.069382155183
 13       0.262190137585
 14      -3.618825805396
 15       0.135564976366
 16      -1.271269589732
 17       1.927814237911
 18      -0.014316183303
 19      -0.002672181146
 20      -0.000147839770
 21       0.001194342675
 22       0.007964093258
 23       0.010128813132
 24       0.016702418558
 25       0.018263942725
 26      -0.025107753008
 27      -0.031397663695
 28      -0.046056012063
 29       0.026853028808
 30      -0.035857503846
 31      -0.042391643015
 32      -0.196607708466
 33       0.106562791860
 34      -0.069383571069
 35      -0.262202201001
 36       3.618729438146
 37       0.135552755486
 38      -1.271279121501
 39      -1.927863966769
 40       0.014317031079
 41      -0.002672383162
 42      -0.000147366246
 43      -0.001194566548
 44      -0.007963813135
 45      -0.007568639426
 46      -0.055962255478
 47       0.131310460000
 48       0.003708404494
 49       0.001628160494
 50       0.011026945572
 51       0.014472175575
 52       0.011159474470
 53       0.330406969025
 54      -0.000613640739
 55      -0.005892860882
 56       0.011483913949
 57      -0.014472931781
 58      -0.011166090934
 59      -0.330412552321
 60      -0.000613967943
 61      -0.005892881770
 62      -0.011484009143
 63       0.007568128616
 64       0.055962265575
 65      -0.131314163202
 66       0.003708894287
 67       0.001627978118
 68      -0.011027325452
 69      -0.000000181227
 70      -0.000000244154
 71      -0.002174288873
 72      -0.033610320777
 73       0.000000160006
 74      -0.000000665439
 75      -0.003836579030
 76      -0.046196064433
 77      -0.000000020073
 78       0.000022927197
 79       0.012676926746
 80      -0.204420245338
 81       0.000013499901
 82       0.000137992868
 83      -0.013496600575
 84      -0.672392897362
 85       0.000013645376
 86       0.000000090430
 87      -0.001903214020
 88       0.006836509329
 89       0.000000574606
 90       0.000000208845
 91      -0.018083840251
 92      -0.030189758802
 93       0.013699806804
 94       0.021605240988
 95      -0.025411231250
 96       0.103268914942
 97       0.021286275476
 98       0.037144347658
 99      -0.033277334885
100       0.219225031147
101       0.034687272704
102      -0.022123966999
103      -0.088964341274
104       1.039748838768
105       0.057726242455
106       0.150064628054
107       0.041241004826
108      -0.002249859844
109      -0.000766332616
110       0.000720714367
111      -0.000190538226
112      -0.000766853516
113       0.018083940881
114       0.030189933941
115       0.013700434850
116       0.021605274061
117       0.025408215421
118      -0.103269651125
119       0.021287068582
120       0.037144089467
121       0.033272839553
122      -0.219223606867
123       0.034689186463
124      -0.022121857315
125       0.088957385547
126      -1.039721718908
127       0.057724097343
128       0.150064030052
129      -0.041269954130
130       0.002249796530
131      -0.000766171429
132       0.000720671337
133       0.000190583180
134       0.000766896485
135       0.000000619988
136       0.000001043045
137       0.004060930880
138       0.049713364941
139      -0.000000471311
140      -0.000003738370
141       0.007075148091
142       0.075079793411
143      -0.000000816277
144      -0.000007187214
145       0.004046203177
146       0.079407861030
147       0.000002966843
148      -0.000063331516
149       0.009287627831
150       0.192597111354
151       0.000010629252
152      -0.000000070138
153      -0.000114506311
154      -0.000058481789
155       0.000000051648
156       0.000000020126
 Sym=     1a
 Ene= 7.18706672149648E-02
 Spin= Alpha
 Occup= 0.000000
  1       0.007102851204
  2       0.011856868968
  3       0.039890443354
  4       0.016320477034
  5       0.017646764122
  6      -0.041679865498
  7       0.069308896463
  8       0.025964146437
  9       0.008126754240
 10      -0.031682273641
 11       0.229083671925
 12       0.016735417887
 13       0.231551444466
 14       0.946903953911
 15      -0.914263966758
 16       0.093054912153
 17       0.742503292471
 18      -0.010234438818
 19      -0.005760617611
 20       0.004671972352
 21       0.006580896901
 22      -0.004470235273
 23       0.007103327888
 24       0.011857647069
 25      -0.039890066185
 26      -0.016321556193
 27       0.017645025392
 28      -0.041681605800
 29      -0.069308441921
 30      -0.025965608497
 31       0.008124354240
 32      -0.031697141968
 33      -0.229080206147
 34      -0.016734745256
 35       0.231533109899
 36       0.947043768323
 37       0.914267950435
 38      -0.093103649568
 39       0.742396733639
 40      -0.010233687409
 41       0.005760209982
 42      -0.004672052332
 43       0.006580728709
 44      -0.004470419688
 45       0.020534422890
 46      -0.000782669430
 47       0.258827539751
 48       0.006912419230
 49       0.000419017719
 50       0.002488518139
 51       0.003184450501
 52       0.099274752842
 53       0.046080054953
 54      -0.009854972114
 55      -0.000811133869
 56       0.003589667238
 57       0.003184111447
 58       0.099275336962
 59       0.046065352587
 60       0.009854874670
 61       0.000810849888
 62       0.003588972258
 63       0.020534085142
 64      -0.000781692893
 65       0.258813096895
 66      -0.006912206493
 67      -0.000418860723
 68       0.002488009985
 69       0.007578864014
 70       0.011593835679
 71       0.000000342169
 72      -0.000000729878
 73      -0.004314615502
 74      -0.014428668226
 75       0.000000489022
 76      -0.000000916257
 77       0.004464577526
 78      -0.480119446098
 79       0.000001215416
 80      -0.000006137137
 81      -0.489685936437
 82      -3.076883283895
 83      -0.000002840502
 84      -0.000019959563
 85      -1.175788090046
 86      -0.002488930801
 87      -0.000000071419
 88       0.000000213987
 89      -0.012354706319
 90      -0.004437186878
 91      -0.002633557291
 92      -0.004493745496
 93       0.003776305526
 94       0.003415502139
 95       0.036749838505
 96       0.017490395812
 97       0.002120881646
 98      -0.001982498795
 99       0.052527168675
100      -0.017300053633
101       0.019475041808
102       0.056070043990
103       0.099663723265
104      -0.830168501735
105      -0.147569088174
106       0.121027036581
107       0.387194638507
108       0.000079734079
109       0.002614203868
110      -0.000162209264
111       0.000388746391
112       0.000871726435
113      -0.002632625518
114      -0.004492194688
115      -0.003775345074
116      -0.003414370533
117       0.036751146833
118       0.017485185430
119      -0.002119354490
120       0.001984474685
121       0.052528837062
122      -0.017312961516
123      -0.019472631024
124      -0.056071763370
125       0.099669177284
126      -0.830233986649
127       0.147577629761
128      -0.121022210976
129       0.387191235919
130       0.000079859227
131      -0.002614200167
132       0.000162236808
133       0.000388742118
134       0.000871769301
135      -0.019356676421
136      -0.032606590305
137       0.000000079846
138       0.000001315338
139       0.016142274066
140       0.117942684327
141       0.000000177076
142       0.000001979745
143       0.030695850090
144       0.210119427754
145      -0.000000148976
146       0.000002150911
147      -0.100283811822
148       2.080640345083
149      -0.000000121329
150       0.000005131518
151      -0.254630439366
152       0.001518179137
153      -0.000000036130
154      -0.000000014480
155      -0.001001695956
156      -0.000153515807
 Sym=     1a
 Ene= 8.26955055680595E-02
 Spin= Alpha
 Occup= 0.000000
  1      -0.002919300193
  2      -0.004868636932
  3       0.032795213803
  4      -0.011708032620
  5      -0.008400752931
  6       0.017902040462
  7       0.045676308577
  8      -0.019390576367
  9       0.002445869013
 10       0.016254974118
 11       0.174514355306
 12      -0.050144489749
 13      -0.194637729952
 14       0.642799633640
 15      -0.431364594373
 16       0.140641036275
 17      -0.208968837174
 18      -0.000860170767
 19       0.005818516407
 20      -0.001407202407
 21      -0.004122285282
 22       0.008961436341
 23       0.002919523990
 24       0.004868987888
 25       0.032794680790
 26      -0.011708675468
 27       0.008401042876
 28      -0.017902671153
 29       0.045675815391
 30      -0.019391317869
 31      -0.002445597290
 32      -0.016265094177
 33       0.174508685471
 34      -0.050148995790
 35       0.194641934109
 36      -0.642794514772
 37      -0.431377417609
 38       0.140637220480
 39       0.208982004658
 40       0.000860097630
 41       0.005818602970
 42      -0.001407256464
 43       0.004122336280
 44      -0.008961436427
 45      -0.017461194482
 46      -0.082638614185
 47      -0.413251746503
 48      -0.004467579439
 49      -0.000632443684
 50       0.007824826214
 51       0.005580189271
 52       0.056071016664
 53      -0.105328155134
 54       0.000398262822
 55      -0.004436318797
 56      -0.007031796579
 57      -0.005579574161
 58      -0.056068826254
 59       0.105343894002
 60       0.000398384098
 61      -0.004436418597
 62       0.007031886654
 63       0.017461644371
 64       0.082639992429
 65       0.413258069975
 66      -0.004467719686
 67      -0.000632476076
 68      -0.007824677062
 69       0.000000088120
 70       0.000000142766
 71      -0.040303713745
 72      -0.018958100441
 73       0.000000098489
 74      -0.000000408799
 75      -0.067385029053
 76      -0.013927562367
 77       0.000000246343
 78      -0.000001677784
 79      -0.040293649936
 80      -0.146991112570
 81      -0.000001438918
 82      -0.000016112091
 83       2.027572552828
 84      -0.266246295297
 85      -0.000002524452
 86       0.000000031345
 87      -0.005877515485
 88       0.002251951256
 89      -0.000000075778
 90      -0.000000007074
 91      -0.004151891540
 92      -0.006976951443
 93      -0.035606383779
 94      -0.000944456953
 95      -0.002664122237
 96       0.025083051769
 97      -0.058141017031
 98      -0.003032134602
 99      -0.002181718232
100       0.027414444811
101      -0.043323540471
102       0.001850536957
103      -0.003069199297
104       0.123312717079
105      -0.214104875579
106      -0.037283607639
107       0.288316888657
108      -0.000247371627
109      -0.001309097619
110       0.000089176361
111      -0.000882517021
112       0.001822444306
113       0.004151853522
114       0.006976888593
115      -0.035606626586
116      -0.000944536568
117       0.002664477665
118      -0.025082841334
119      -0.058141351932
120      -0.003032123829
121       0.002182265500
122      -0.027414494388
123      -0.043324221583
124       0.001849566824
125       0.003069877628
126      -0.123320089924
127      -0.214106063442
128      -0.037285366547
129      -0.288313475219
130       0.000247373349
131      -0.001309116846
132       0.000089108150
133       0.000882533249
134      -0.001822461248
135      -0.000000070842
136      -0.000000120038
137      -0.036295997505
138       0.007172963386
139       0.000000019427
140       0.000000450726
141      -0.068967249069
142       0.008594670037
143       0.000000056309
144       0.000000541453
145       0.012455994060
146       0.024223718684
147      -0.000000251338
148       0.000006899523
149      -0.446472172584
150      -0.005099468611
151      -0.000001297279
152      -0.000000008552
153       0.005287631045
154       0.000878144383
155      -0.000000002043
156      -0.000000002104
 Sym=     1a
 Ene= 1.07762941452832E-01
 Spin= Alpha
 Occup= 0.000000
  1      -0.007806032087
  2      -0.013083336951
  3      -0.021026121555
  4       0.057460840403
  5      -0.039594109953
  6       0.039616802572
  7      -0.026153440443
  8       0.077134608437
  9      -0.044293086940
 10       0.283007735064
 11      -0.164811434099
 12       0.506555254180
 13      -0.253222918043
 14      -5.142824218601
 15      -0.175543034128
 16      -0.164403064169
 17      -2.643647616808
 18       0.021405569541
 19      -0.000700273923
 20       0.007183549411
 21       0.012714915229
 22      -0.006018178912
 23       0.007805503938
 24       0.013082474064
 25      -0.021026726565
 26       0.057461726829
 27       0.039595112868
 28      -0.039614541727
 29      -0.026154580622
 30       0.077136123728
 31       0.044294860308
 32      -0.282993329325
 33      -0.164814057577
 34       0.506559487050
 35       0.253225165174
 36       5.142695836197
 37      -0.175525714241
 38      -0.164387995377
 39       2.643588504790
 40      -0.021405899486
 41      -0.000700312146
 42       0.007183339308
 43      -0.012714916475
 44       0.006018143339
 45       0.016160296321
 46       0.043754074188
 47       0.179624178355
 48      -0.004146499827
 49       0.004086020657
 50      -0.009904766305
 51      -0.012991312309
 52      -0.064678617818
 53      -0.093034666133
 54       0.001142698824
 55       0.009196864489
 56      -0.006588936939
 57       0.012991286293
 58       0.064677947412
 59       0.093038957298
 60       0.001142620784
 61       0.009196924829
 62       0.006588832281
 63      -0.016160513493
 64      -0.043756765585
 65      -0.179622551913
 66      -0.004146423904
 67       0.004086134048
 68       0.009904839514
 69      -0.000000139523
 70      -0.000000216060
 71       0.011303023415
 72       0.070651741133
 73      -0.000000120323
 74       0.000000297386
 75       0.003570233553
 76       0.160024469968
 77      -0.000000395224
 78       0.000003746390
 79       0.112431258787
 80      -0.121831867314
 81       0.000002370710
 82       0.000119362670
 83       0.211260262249
 84      -3.595773082194
 85      -0.000051266226
 86      -0.000000385051
 87      -0.001295599972
 88       0.018780671826
 89       0.000000055094
 90       0.000000033891
 91       0.009578417292
 92       0.015734373742
 93      -0.014764272135
 94       0.011978137883
 95       0.021871990540
 96      -0.048398040720
 97      -0.021439034464
 98       0.023561384681
 99       0.039333949936
100      -0.148250379089
101      -0.034647191689
102       0.003673438466
103       0.024017932907
104      -0.033951863291
105       0.008869572553
106      -0.140527857115
107       0.776575549929
108       0.005454028900
109       0.002134872631
110      -0.008578792871
111      -0.000135581238
112       0.000556126509
113      -0.009578047016
114      -0.015733767398
115      -0.014764137754
116       0.011977519221
117      -0.021870829090
118       0.048396261250
119      -0.021438810289
120       0.023560208574
121      -0.039332475789
122       0.148243721504
123      -0.034646999583
124       0.003673126912
125      -0.024013631242
126       0.033959338510
127       0.008865443391
128      -0.140530053734
129      -0.776583564301
130      -0.005453879263
131       0.002134847753
132      -0.008578717283
133       0.000135633750
134      -0.000556122846
135       0.000000104988
136       0.000000173993
137      -0.005212727798
138       0.014459201045
139       0.000000418206
140      -0.000000613562
141      -0.006127654466
142       0.031362873919
143       0.000000671010
144      -0.000001199979
145      -0.018114267406
146      -0.038113800669
147       0.000000000178
148      -0.000006620725
149       0.005704802624
150       0.426659082978
151       0.000008818893
152       0.000000008260
153      -0.000530111342
154      -0.007447287978
155       0.000000004357
156      -0.000000005246
 Sym=     1a
 Ene= 1.16368644141026E-01
 Spin= Alpha
 Occup= 0.000000
  1      -0.022358864032
  2      -0.037567777869
  3       0.019046374191
  4      -0.026629645254
  5       0.103410543744
  6       0.130848294015
  7       0.035197495924
  8      -0.051868449684
  9       0.166257580406
 10       0.163728008797
 11       0.037374303875
 12      -0.039837794697
 13       0.416763204344
 14      -5.047503628619
 15      -0.699246843323
 16      -0.169883727180
 17      -2.247277825695
 18      -0.022868810704
 19      -0.008559368855
 20       0.021589084638
 21      -0.001667204313
 22      -0.003676875738
 23      -0.022355211143
 24      -0.037561513512
 25      -0.019053225346
 26       0.026620109788
 27       0.103417207652
 28       0.130822692808
 29      -0.035204419344
 30       0.051852253554
 31       0.166264747787
 32       0.163767802386
 33      -0.037430215508
 34       0.039759538965
 35       0.416844418920
 36      -5.038358587317
 37       0.699198490863
 38       0.167323222705
 39      -2.246835948838
 40      -0.022868756537
 41       0.008559878334
 42      -0.021588891071
 43      -0.001665453051
 44      -0.003674316663
 45       0.020796842360
 46       0.052436238907
 47       0.544163630330
 48      -0.001458583762
 49      -0.004186007993
 50       0.004254102733
 51      -0.002140472090
 52      -0.005448638981
 53       0.281158632321
 54       0.003028822781
 55      -0.002830300906
 56       0.008837067961
 57      -0.002134453181
 58      -0.005405563037
 59       0.281087465760
 60      -0.003025289035
 61       0.002831224508
 62       0.008837084853
 63       0.020797232726
 64       0.052458715462
 65       0.543994604304
 66       0.001455757317
 67       0.004185067100
 68       0.004253007572
 69      -0.001962910653
 70      -0.002607538031
 71      -0.000005703640
 72      -0.000003827130
 73       0.007515946504
 74      -0.007464105393
 75      -0.000006532127
 76      -0.000007454332
 77       0.016829832976
 78      -0.202053128744
 79      -0.000031317279
 80       0.000005298152
 81       0.430984186190
 82       8.221941599298
 83      -0.000038004805
 84      -0.000104040250
 85      -3.490191164372
 86      -0.040558770682
 87       0.000000084914
 88       0.000000445062
 89       0.004690668240
 90      -0.003604966173
 91       0.019341159299
 92       0.031827970081
 93      -0.023403851992
 94       0.032244475939
 95       0.087272355138
 96      -0.098676426476
 97      -0.038349380673
 98       0.062063193292
 99       0.117043061531
100      -0.337026784047
101      -0.031726752049
102      -0.016350912787
103       0.287452741033
104       0.788460145709
105      -0.033356919135
106       0.028735086607
107      -0.465227096421
108       0.010235677379
109      -0.002243458370
110       0.000259379043
111       0.003100330331
112       0.002419298727
113       0.019340779996
114       0.031827199950
115       0.023410596697
116      -0.032242801993
117       0.087272403861
118      -0.098670739386
119       0.038359290453
120      -0.062062334122
121       0.117043383813
122      -0.337041251180
123       0.031739916172
124       0.016364198271
125       0.287446089055
126       0.789047350793
127       0.033354253410
128      -0.028699514637
129      -0.465321711909
130       0.010236343432
131       0.002243349601
132      -0.000258720618
133       0.003099771011
134       0.002418872239
135       0.009822354310
136       0.015776333446
137       0.000003003101
138       0.000000533124
139       0.036385142822
140      -0.043674829577
141       0.000004038634
142       0.000001346961
143       0.058095627021
144      -0.234499900420
145       0.000007907682
146      -0.000001945157
147       0.023442631150
148      -0.128966098696
149       0.000015813512
150       0.000013466370
151       0.418991473593
152      -0.001050897322
153       0.000000320332
154       0.000000271567
155      -0.000100553783
156      -0.000476157804
 Sym=     1a
 Ene= 1.22645530923738E-01
 Spin= Alpha
 Occup= 0.000000
  1       0.016811227657
  2       0.028538176889
  3       0.023731907066
  4       0.043322016187
  5       0.032477478328
  6      -0.109489465102
  7       0.026235673219
  8       0.069391101106
  9       0.031852691027
 10       0.055621774359
 11       0.186604721744
 12       0.356974148475
 13       0.395434835714
 14      36.116760772899
 15       0.083402599393
 16      10.045382337735
 17       2.097644665949
 18      -0.000070543720
 19      -0.005214163205
 20      -0.000509507779
 21       0.008686446739
 22       0.008460158967
 23      -0.016805400122
 24      -0.028533473053
 25       0.023595531880
 26       0.043309002004
 27      -0.031794378779
 28       0.109583479721
 29       0.026008035219
 30       0.069249946609
 31      -0.030865957669
 32      -0.057361680905
 33       0.185758083088
 34       0.357057575304
 35      -0.391433115395
 36     -36.073643749174
 37       0.086059769503
 38      10.039531425003
 39      -2.081645269843
 40      -0.000001479696
 41      -0.005190939130
 42      -0.000676243344
 43      -0.008628163302
 44      -0.008466371462
 45       0.008868740001
 46       0.101230872238
 47      -0.405634065303
 48       0.012982608704
 49       0.003925328585
 50      -0.004880129783
 51       0.023402628149
 52       0.170811089663
 53      -0.212548722774
 54      -0.015483518201
 55      -0.004281576751
 56       0.000764347292
 57      -0.023236857964
 58      -0.169806725942
 59       0.212856921645
 60      -0.015443036839
 61      -0.004289340298
 62      -0.000776964359
 63      -0.008638306936
 64      -0.100287661314
 65       0.407677741553
 66       0.012913815077
 67       0.003936325865
 68       0.004900983909
 69       0.000074236801
 70       0.000116305210
 71       0.041646821874
 72       0.030903613425
 73       0.000255817798
 74      -0.000131284952
 75       0.050749784191
 76       0.052491009340
 77       0.000369229645
 78      -0.003054540089
 79       0.212430574689
 80       0.023637788086
 81       0.002766444386
 82      -0.046301384061
 83       0.326701066253
 84       1.138044442774
 85       0.024672443062
 86       0.000012066219
 87      -0.000429510874
 88      -0.004445316795
 89      -0.000165562225
 90      -0.000094884597
 91      -0.001504096023
 92      -0.003003957041
 93      -0.022211881289
 94      -0.006761224826
 95       0.000724251050
 96       0.021723358731
 97      -0.033399799842
 98      -0.004024823815
 99       0.000957725940
100      -0.048114307495
101      -0.037507113941
102      -0.051105749692
103      -0.023175263986
104       2.194523816921
105      -0.010245169659
106      -0.065396387382
107      -0.475903671008
108       0.002994533249
109       0.000975848017
110      -0.002666991330
111      -0.002882147805
112      -0.001376811049
113       0.001438247973
114       0.002891019578
115      -0.022240270680
116      -0.006561652390
117      -0.000066843250
118      -0.021263788186
119      -0.033424323093
120      -0.003742971234
121       0.000000490367
122       0.048441557294
123      -0.037723501233
124      -0.050280344744
125       0.024807213438
126      -2.183800578103
127      -0.010338779492
128      -0.061777197252
129       0.482002769423
130      -0.002919722565
131       0.000987702672
132      -0.002718118405
133       0.002882278360
134       0.001373371476
135       0.000010545987
136       0.000016478215
137      -0.025466649092
138      -0.008839824625
139      -0.000148574187
140      -0.000036321102
141      -0.035310237525
142      -0.017219434997
143      -0.000280148751
144      -0.000331428531
145      -0.061365829340
146       0.004833090157
147       0.000232503196
148      -0.004584109169
149      -0.130330525764
150      -0.122324962542
151      -0.000454397914
152       0.000024246174
153      -0.002125198342
154      -0.001733321870
155      -0.000019695541
156      -0.000010773283
 Sym=     1a
 Ene= 1.22860225527986E-01
 Spin= Alpha
 Occup= 0.000000
  1       0.001202047174
  2       0.001457649665
  3       0.014752781192
  4       0.002013674073
  5       0.073192998308
  6       0.006916990337
  7       0.024509323175
  8       0.016619238294
  9       0.105210513377
 10      -0.195847900255
 11       0.093945690851
 12      -0.009043828656
 13       0.435023121382
 14       4.744653787548
 15      -0.277739149522
 16       0.607284079889
 17       1.824599075596
 18      -0.007353792780
 19      -0.002340227281
 20       0.018063736836
 21       0.006579057531
 22      -0.000625265723
 23       0.001353196202
 24       0.001714151935
 25      -0.014966328730
 26      -0.002403744434
 27       0.073481429360
 28       0.005935153496
 29      -0.024745318041
 30      -0.017241934772
 31       0.105491431361
 32      -0.195383446871
 33      -0.095621743969
 34       0.005829355984
 35       0.438553469417
 36       5.067524394616
 37       0.276977814502
 38      -0.697128711490
 39       1.843324875301
 40      -0.007354046201
 41       0.002386700258
 42      -0.018058486039
 43       0.006657476864
 44      -0.000548662168
 45       0.025177772444
 46       0.102556951151
 47       0.221401045715
 48       0.007696134045
 49      -0.001131450262
 50       0.002170856745
 51       0.018574776257
 52       0.110945123432
 53       0.035571875119
 54      -0.004597178598
 55       0.000928939998
 56      -0.001683621827
 57       0.018785938686
 58       0.112473435866
 59       0.033737792212
 60       0.004736060829
 61      -0.000890363101
 62      -0.001676979268
 63       0.025256259145
 64       0.103458814775
 65       0.217801972733
 66      -0.007812481892
 67       0.001095940711
 68       0.002127112171
 69       0.016692625734
 70       0.026171660643
 71      -0.000186219628
 72      -0.000139177761
 73       0.057075925104
 74      -0.030196414184
 75      -0.000227369694
 76      -0.000235673165
 77       0.081721964167
 78      -0.666732131718
 79      -0.000946622632
 80      -0.000117983457
 81       0.607278800825
 82     -10.474539029268
 83      -0.001451446413
 84      -0.005101789894
 85       5.563340464904
 86       0.003884308305
 87       0.000001906458
 88       0.000020043027
 89      -0.037166399706
 90      -0.021116993266
 91      -0.007921079105
 92      -0.013546231779
 93       0.003946673692
 94      -0.023221621674
 95       0.070998333659
 96       0.054234026528
 97       0.004020840399
 98      -0.033338286829
 99       0.103698984262
100       0.046625947560
101       0.025059138235
102      -0.091068222994
103       0.174738277126
104       1.156118901202
105       0.011762184396
106      -0.402750793278
107       0.697132355886
108       0.008049430497
109      -0.001267491053
110       0.005733093717
111      -0.000038243765
112      -0.000430167482
113      -0.007934074832
114      -0.013572324365
115      -0.003746682303
116       0.023281800819
117       0.071001857967
118       0.054425351686
119      -0.003720324685
120       0.033373931217
121       0.103703131828
122       0.046193475403
123      -0.024719205325
124       0.091521740832
125       0.174523824106
126       1.175642794389
127      -0.011656113287
128       0.403291870961
129       0.692829665878
130       0.008075992769
131       0.001258814573
132      -0.005708753064
133      -0.000064181615
134      -0.000442596063
135       0.002063777029
136       0.003213551882
137       0.000114008214
138       0.000040049425
139      -0.034248590603
140      -0.006882276569
141       0.000158070788
142       0.000077574288
143      -0.064188554480
144      -0.066934152878
145       0.000274714211
146      -0.000019423962
147       0.050762622650
148      -1.032935995943
149       0.000581562845
150       0.000545048724
151      -0.100417299954
152       0.005480278305
153       0.000009513311
154       0.000007779750
155      -0.004392976015
156      -0.002392911616
 Sym=     1a
 Ene= 1.50854198508730E-01
 Spin= Alpha
 Occup= 0.000000
  1       0.005985455174
  2       0.010304511789
  3      -0.085225845693
  4       0.019496334075
  5       0.017419971614
  6      -0.052066353073
  7      -0.090580781404
  8       0.028191139959
  9       0.005080011840
 10       0.201658601988
 11      -0.705067023941
 12       0.248127299139
 13       0.387026331639
 14       3.389627064125
 15      -1.216982187041
 16       0.512697993765
 17       1.987926927330
 18       0.011099957502
 19      -0.028528286283
 20       0.005999134119
 21      -0.004171280182
 22      -0.042442453245
 23      -0.005985583194
 24      -0.010304688032
 25      -0.085224904922
 26       0.019497731897
 27      -0.017423769390
 28       0.052066717862
 29      -0.090579644614
 30       0.028192336236
 31      -0.005084959205
 32      -0.201647381455
 33      -0.705061942101
 34       0.248136648295
 35      -0.387057563077
 36      -3.389526768078
 37      -1.216992120846
 38       0.512715933571
 39      -1.987914041863
 40      -0.011099812969
 41      -0.028528508349
 42       0.006000425577
 43       0.004171370075
 44       0.042442426267
 45       0.064721764971
 46       0.163820138576
 47       1.879118865940
 48       0.008704415601
 49      -0.013928758609
 50      -0.012065811727
 51      -0.056463271522
 52      -0.140452186558
 53      -1.439460810101
 54       0.003256157410
 55       0.013990549212
 56       0.005680351493
 57       0.056462222615
 58       0.140450318318
 59       1.439430438832
 60       0.003255806713
 61       0.013990426617
 62      -0.005680306292
 63      -0.064723594600
 64      -0.163824991767
 65      -1.879162842056
 66       0.008704643784
 67      -0.013928910813
 68       0.012065961010
 69      -0.000000485636
 70      -0.000000823056
 71       0.012636914592
 72       0.011915160838
 73      -0.000000897463
 74       0.000003008749
 75       0.036336930880
 76       0.017999503684
 77      -0.000001235257
 78       0.000008021750
 79      -0.038086229113
 80      -0.158585190712
 81      -0.000006421074
 82      -0.000084210132
 83       0.996203730110
 84       1.086970809344
 85       0.000042167677
 86       0.000000223156
 87       0.001225109657
 88       0.009156822773
 89       0.000000165416
 90       0.000000108662
 91       0.003381564085
 92       0.005625450611
 93       0.018672842889
 94       0.016355555754
 95       0.014220232042
 96      -0.019513516123
 97       0.022219036676
 98       0.028691358728
 99       0.019643541781
100      -0.038525345813
101       0.079795065089
102      -0.010271418416
103       0.032961760816
104       1.136443602093
105       0.313432589320
106      -0.264642245764
107      -0.145148651569
108       0.003308438412
109       0.006671352402
110       0.000534334851
111      -0.000447664709
112       0.005169667986
113      -0.003381692876
114      -0.005625657454
115       0.018672936485
116       0.016355711427
117      -0.014222813946
118       0.019514033249
119       0.022219166748
120       0.028691556445
121      -0.019646799460
122       0.038529566956
123       0.079795072255
124      -0.010271229284
125      -0.032972673314
126      -1.136412373020
127       0.313432261060
128      -0.264636875298
129       0.145140870252
130      -0.003308722459
131       0.006671234260
132       0.000534780839
133       0.000447584873
134      -0.005169690629
135      -0.000000057522
136      -0.000000092285
137      -0.035145350627
138      -0.019566198451
139       0.000000068737
140       0.000000303008
141      -0.055873986297
142      -0.035568831774
143       0.000000011639
144       0.000001404845
145      -0.045922322607
146       0.000086121636
147       0.000000950968
148       0.000006144407
149      -0.110642386443
150      -0.158255165886
151      -0.000007914759
152       0.000000013445
153       0.001617455497
154       0.000324059638
155       0.000000025570
156       0.000000022822
 Sym=     1a
 Ene= 1.74418486804137E-01
 Spin= Alpha
 Occup= 0.000000
  1      -0.000153769467
  2      -0.000890575261
  3      -0.006803252145
  4      -0.128261421535
  5       0.109689522382
  6       0.026441378182
  7       0.007473972069
  8      -0.192166219973
  9       0.179296358054
 10      -0.421007256408
 11      -0.120038463038
 12      -0.861594540958
 13       0.536486493212
 14      10.146962536773
 15      -0.293411559896
 16       3.879039683361
 17      -2.067506136634
 18      -0.022967097433
 19      -0.003345334698
 20      -0.015315488827
 21      -0.028733928417
 22      -0.009595052443
 23       0.000153369143
 24       0.000889907258
 25      -0.006801612727
 26      -0.128260598040
 27      -0.109689708970
 28      -0.026438304312
 29       0.007475553622
 30      -0.192166179353
 31      -0.179296174423
 32       0.421005801394
 33      -0.120019363959
 34      -0.861586267673
 35      -0.536498813467
 36     -10.146843782432
 37      -0.293372354467
 38       3.879026762276
 39       2.067527577388
 40       0.022966839869
 41      -0.003344849744
 42      -0.015315013713
 43       0.028733557426
 44       0.009594754355
 45      -0.013784529437
 46       0.029785228181
 47      -0.176952480836
 48      -0.001256388842
 49      -0.014617958576
 50       0.011985002115
 51      -0.022506896481
 52      -0.011189958888
 53      -0.804925966531
 54       0.011407969372
 55      -0.005633278935
 56       0.011386457857
 57       0.022505239377
 58       0.011187578394
 59       0.804857661555
 60       0.011407526303
 61      -0.005633248337
 62      -0.011385898921
 63       0.013783988246
 64      -0.029782505954
 65       0.176930521702
 66      -0.001256242924
 67      -0.014618065293
 68      -0.011984938601
 69      -0.000000516308
 70      -0.000000901358
 71       0.006979012397
 72      -0.116815193547
 73      -0.000001031350
 74       0.000003702157
 75       0.004892355793
 76      -0.171984679542
 77      -0.000000875307
 78      -0.000007693329
 79       0.108176425953
 80      -0.665059720365
 81      -0.000004109805
 82      -0.000110072313
 83       0.103029894933
 84      -1.488871131041
 85       0.000043020936
 86      -0.000000324719
 87       0.003324157814
 88      -0.007988131525
 89       0.000000666424
 90       0.000000147705
 91      -0.024829227691
 92      -0.040699180607
 93       0.037615150128
 94      -0.004438351088
 95      -0.037887506906
 96       0.119819308585
 97       0.055479885130
 98      -0.021474036120
 99      -0.050416253621
100       0.524411406433
101       0.106554553811
102       0.003187024369
103      -0.128782690198
104       0.896750799481
105       0.211632903199
106      -0.680554274632
107       0.501884441670
108      -0.013729304801
109       0.001229504925
110       0.012648880693
111       0.000377916100
112       0.001049289758
113       0.024829869856
114       0.040700251440
115       0.037616774845
116      -0.004439851148
117       0.037886534521
118      -0.119822959281
119       0.055482148715
120      -0.021476702546
121       0.050415222503
122      -0.524422158192
123       0.106558930806
124       0.003186340960
125       0.128777851965
126      -0.896704460655
127       0.211630300705
128      -0.680550454133
129      -0.501902794538
130       0.013729168355
131       0.001229660029
132       0.012649208719
133      -0.000377961545
134      -0.001049200697
135       0.000000073823
136       0.000000113285
137      -0.005188007057
138       0.072886796366
139       0.000000701338
140      -0.000000124354
141      -0.006312921285
142       0.104784689770
143       0.000000984997
144      -0.000002899374
145      -0.022338777102
146       0.175687997599
147       0.000001611041
148       0.000029395707
149       0.050609090953
150       0.124343344370
151      -0.000019218242
152      -0.000000083570
153       0.000139107146
154       0.005228656024
155       0.000000041110
156       0.000000021813
 Sym=     1a
 Ene= 1.92767397977218E-01
 Spin= Alpha
 Occup= 0.000000
  1       0.027869538591
  2       0.044302020560
  3      -0.069553769431
  4       0.051836054322
  5      -0.004473318070
  6      -0.089736481933
  7      -0.077994318970
  8       0.059926958505
  9      -0.020712633995
 10      -1.662536431315
 11      -0.603258768263
 12       0.408681511435
 13      -0.188796212688
 14      -3.317200887325
 15      -0.682419580113
 16      -0.746816176262
 17      -0.528914559783
 18      -0.000676780090
 19      -0.014310891199
 20       0.005768536036
 21       0.005284217576
 22      -0.002681251057
 23       0.027870979767
 24       0.044304344473
 25       0.069551709009
 26      -0.051834194348
 27      -0.004473547645
 28      -0.089742083966
 29       0.077992193727
 30      -0.059923305367
 31      -0.020713393046
 32      -1.662591852480
 33       0.603239072283
 34      -0.408671497030
 35      -0.188797122675
 36      -3.317699853144
 37       0.682392467187
 38       0.746918153856
 39      -0.528923090277
 40      -0.000677089126
 41       0.014310511782
 42      -0.005768664068
 43       0.005283547794
 44      -0.002680750102
 45       0.040841255900
 46       0.047467825513
 47       2.419664095397
 48       0.011545357801
 49      -0.008005097944
 50      -0.014801480725
 51       0.008827334586
 52       0.012727985599
 53       0.157252009347
 54       0.002105565711
 55       0.003652448666
 56       0.008095184984
 57       0.008828864346
 58       0.012729774662
 59       0.157318437940
 60      -0.002105332574
 61      -0.003651896342
 62       0.008095134660
 63       0.040841796109
 64       0.047465882172
 65       2.419679281740
 66      -0.011544901648
 67       0.008005441920
 68      -0.014801706385
 69       0.006388387817
 70       0.009378719932
 71       0.000000334441
 72       0.000000244089
 73       0.012552059596
 74       0.006940076033
 75       0.000000911444
 76      -0.000000052252
 77       0.007284076863
 78      -0.885800351091
 79      -0.000001786891
 80       0.000005134152
 81       0.571035210391
 82       3.353968630957
 83      -0.000003787745
 84       0.000014694712
 85      -0.890732704459
 86       0.000672661625
 87       0.000000154421
 88      -0.000000200525
 89       0.027506111770
 90       0.018386056546
 91      -0.007669068154
 92      -0.012465537185
 93      -0.032856316138
 94       0.017507339083
 95      -0.037419876547
 96       0.031201417872
 97      -0.037848189414
 98       0.022351645680
 99      -0.049522248924
100       0.182109352255
101      -0.096223029560
102      -0.010471928756
103      -0.151702755723
104       1.836400024328
105       0.538785109942
106      -0.718236320558
107      -0.676555687543
108      -0.007676425752
109       0.000001148543
110       0.001251514336
111       0.002922502095
112       0.003847495066
113      -0.007668789654
114      -0.012465071224
115       0.032855347787
116      -0.017508209392
117      -0.037419055953
118       0.031199839119
119       0.037847201404
120      -0.022352754207
121      -0.049520828227
122       0.182105858185
123       0.096218916985
124       0.010469035272
125      -0.151700312767
126       1.836402040067
127      -0.538773716079
128       0.718256020980
129      -0.676530187505
130      -0.007676371950
131      -0.000001122413
132      -0.001251657140
133       0.002922702350
134       0.003847378704
135       0.001014593053
136       0.001306491506
137      -0.000000048536
138       0.000000015708
139      -0.008030917727
140       0.003673124305
141      -0.000000235258
142       0.000000110022
143      -0.012615226344
144      -0.132664326403
145       0.000000655009
146      -0.000000452615
147       0.007691215637
148      -0.626785579584
149      -0.000003251086
150       0.000001473270
151       0.248922047793
152       0.000595465237
153      -0.000000052299
154       0.000000003615
155       0.002497361335
156       0.003681840872
 Sym=     1a
 Ene= 2.01361883792631E-01
 Spin= Alpha
 Occup= 0.000000
  1       0.005352878037
  2       0.008316485457
  3       0.037748508621
  4       0.017071976307
  5      -0.015773024958
  6       0.006721085684
  7       0.043625332829
  8       0.036706966884
  9      -0.032932802107
 10      -0.827125633064
 11       0.365124311813
 12       0.033427796667
 13      -0.351701355452
 14       1.503027127578
 15       0.615474637931
 16       0.142528936747
 17       0.286791896337
 18      -0.021195402112
 19       0.006418336473
 20      -0.022436012900
 21      -0.006418598296
 22      -0.005625433315
 23       0.005353331882
 24       0.008317056636
 25      -0.037749456034
 26      -0.017074345121
 27      -0.015765892841
 28       0.006723839282
 29      -0.043627510957
 30      -0.036707949951
 31      -0.032922914927
 32      -0.827200193679
 33      -0.365131147754
 34      -0.033457547770
 35      -0.351649613073
 36       1.501262687755
 37      -0.615456795017
 38      -0.142111703491
 39       0.286681715315
 40      -0.021195856846
 41      -0.006416927043
 42       0.022436484346
 43      -0.006417308494
 44      -0.005624892296
 45      -0.030837874628
 46      -0.056375999456
 47      -0.953620469487
 48       0.000837037203
 49       0.003886621459
 50       0.011825336619
 51      -0.002199914591
 52       0.062005240161
 53       0.376309735261
 54      -0.003237458023
 55       0.002821976096
 56       0.002262927121
 57      -0.002197125164
 58       0.062015532893
 59       0.376419063324
 60       0.003238008693
 61      -0.002821823038
 62       0.002264045864
 63      -0.030835607909
 64      -0.056373435740
 65      -0.953453695526
 66      -0.000838047368
 67      -0.003887044083
 68       0.011825041936
 69      -0.071914975781
 70      -0.122666492293
 71      -0.000000322257
 72      -0.000000779375
 73      -0.091837735386
 74       0.428243374085
 75      -0.000000951734
 76      -0.000000455063
 77      -0.150886670543
 78       0.948880963111
 79       0.000002579607
 80      -0.000018501863
 81       0.061338423209
 82      -5.070813368814
 83      -0.000012774311
 84       0.000037125862
 85       1.979255266839
 86      -0.020918387857
 87      -0.000000131208
 88       0.000000294768
 89       0.041480928878
 90       0.028155768263
 91       0.026088311450
 92       0.042713529466
 93      -0.018219169411
 94       0.105161337504
 95      -0.060932255654
 96      -0.124849578404
 97      -0.033688775561
 98       0.162241678439
 99      -0.076983094335
100      -0.619311798878
101      -0.010950205151
102       0.249059319496
103      -0.241222365375
104       2.297194955632
105       0.243723511639
106      -0.344845202069
107      -0.569101211511
108      -0.004348222212
109       0.007179627793
110      -0.014282406174
111      -0.003337125315
112      -0.000732281797
113       0.026087894377
114       0.042712871445
115       0.018216468417
116      -0.105160295516
117      -0.060935135170
118      -0.124848269272
119       0.033685538120
120      -0.162239534291
121      -0.076986865213
122      -0.619293471262
123       0.010940504154
124      -0.249060518016
125      -0.241234558590
126       2.297027738306
127      -0.243678026813
128       0.344814730524
129      -0.569097976303
130      -0.004348546255
131      -0.007179890338
132       0.014282619308
133      -0.003337409806
134      -0.000732440515
135       0.017758357496
136       0.028593977501
137       0.000001631899
138      -0.000000507504
139       0.050259814028
140      -0.070320527836
141       0.000001987057
142      -0.000000997725
143       0.082063771647
144      -0.498295530744
145       0.000005126925
146       0.000001011125
147       0.144753615131
148       0.720231791727
149      -0.000012910040
150      -0.000001061815
151       0.046207527382
152       0.002270561481
153      -0.000000141868
154       0.000000086794
155       0.002724808526
156       0.002541040212
 Sym=     1a
 Ene= 2.14948110302114E-01
 Spin= Alpha
 Occup= 0.000000
  1       0.010281894405
  2       0.015063887561
  3       0.030430641416
  4       0.018829943078
  5       0.062702539241
  6      -0.002020624168
  7       0.041123128723
  8       0.002393622180
  9       0.086681872436
 10      -0.892858409008
 11       0.290298566353
 12       0.258562983714
 13       0.541689397819
 14     -25.449041453490
 15       0.190033103614
 16      -6.361949124300
 17      -1.113664268700
 18      -0.003042295635
 19      -0.017154228937
 20      -0.002084586277
 21       0.011032866845
 22       0.012312926471
 23      -0.010280716326
 24      -0.015062274933
 25       0.030401293748
 26       0.018826874705
 27      -0.062719886811
 28       0.002023584647
 29       0.041092021894
 30       0.002386151472
 31      -0.086709474297
 32       0.892644005338
 33       0.290014630792
 34       0.258569687120
 35      -0.541825356865
 36      25.447720919354
 37       0.189413676694
 38      -6.361190693287
 39       1.113131513282
 40       0.003040129374
 41      -0.017157667591
 42      -0.002080879522
 43      -0.011028161051
 44      -0.012311610619
 45       0.026468551176
 46      -0.001858861706
 47       1.678626139046
 48       0.006040676599
 49       0.007458213580
 50      -0.010081462314
 51       0.038888738697
 52       0.124711186054
 53       1.736270906557
 54      -0.007086567004
 55      -0.007381876389
 56       0.014567573904
 57      -0.038880325267
 58      -0.124695640758
 59      -1.735551153627
 60      -0.007081956363
 61      -0.007381755169
 62      -0.014569060153
 63      -0.026470842867
 64       0.001847037000
 65      -1.678990830250
 66       0.006043500693
 67       0.007455528945
 68       0.010085829604
 69       0.000002143356
 70       0.000003178101
 71      -0.000469510880
 72       0.043153849799
 73       0.000012520439
 74       0.000001931114
 75      -0.010468521167
 76       0.044994804064
 77       0.000006822864
 78      -0.000197141686
 79       0.057221542469
 80       0.615615492158
 81       0.000270811215
 82       0.001316115807
 83       0.475453661990
 84      -0.756128935379
 85      -0.000441352852
 86      -0.000003563568
 87      -0.004418953985
 88      -0.003934992603
 89       0.000002263155
 90       0.000001123847
 91       0.002203726202
 92       0.003938491734
 93       0.047565289854
 94      -0.003859140485
 95      -0.029755124187
 96      -0.019696635905
 97       0.050352108222
 98      -0.010185932049
 99      -0.033993417695
100       0.063645798325
101       0.191529702404
102       0.033206252852
103      -0.160112504871
104      -1.884110279049
105      -1.137649187370
106       0.369002302469
107      -0.051122882872
108      -0.003281697311
109       0.001981619777
110      -0.003958812927
111      -0.000372273141
112      -0.006003741491
113      -0.002211366845
114      -0.003951124027
115       0.047544146336
116      -0.003870241058
117       0.029759071985
118       0.019735975436
119       0.050327853525
120      -0.010189338374
121       0.033995563982
122      -0.063485467208
123       0.191435528152
124       0.033155713020
125       0.160144571787
126       1.884546799104
127      -1.137606677823
128       0.369802377847
129       0.050976697717
130       0.003282857445
131       0.001980183259
132      -0.003957444130
133       0.000377491375
134       0.006004400906
135       0.000001017527
136       0.000001506492
137      -0.041781083490
138       0.005708013197
139      -0.000001246244
140      -0.000001678291
141      -0.040844629702
142       0.013082983935
143      -0.000002458077
144      -0.000061656792
145      -0.177747492670
146      -0.038993303805
147       0.000006257290
148      -0.000439097959
149       0.503993944533
150      -0.089327551841
151       0.000287286164
152       0.000001928305
153       0.005835249720
154      -0.004300622601
155       0.000001046603
156      -0.000000107507
 Sym=     1a
 Ene= 2.15737133525390E-01
 Spin= Alpha
 Occup= 0.000000
  1      -0.000101424972
  2       0.000484651147
  3      -0.059102771917
  4      -0.000508521591
  5       0.033540740051
  6      -0.017805241142
  7      -0.062412717296
  8      -0.006725832065
  9       0.049769155044
 10       0.314365545396
 11      -0.550897179176
 12       0.032609239520
 13       0.261362872532
 14       2.493522656846
 15      -1.222516117908
 16       1.484274756192
 17       1.062360177285
 18       0.002799585426
 19      -0.006987041144
 20       0.005497525732
 21      -0.009222230370
 22      -0.003670573689
 23      -0.000101753424
 24       0.000484919409
 25       0.059119189190
 26       0.000523445360
 27       0.033506865149
 28      -0.017822390395
 29       0.062434810339
 30       0.006736919741
 31       0.049720378932
 32       0.314601879355
 33       0.551051269860
 34      -0.032424599220
 35       0.261061039886
 36       2.505789926898
 37       1.222615449399
 38      -1.487435129887
 39       1.062933457953
 40       0.002800249916
 41       0.006977531203
 42      -0.005499009189
 43      -0.009229560967
 44      -0.003676924896
 45       0.003945558114
 46       0.005489180938
 47       0.800685630327
 48       0.007277354068
 49      -0.005562586804
 50      -0.009278512017
 51      -0.016856586333
 52      -0.031040221612
 53      -1.326266318287
 54       0.007990916499
 55       0.000790766111
 56       0.002926210374
 57      -0.016874167528
 58      -0.031105000494
 59      -1.327034096728
 60      -0.007994634813
 61      -0.000793476423
 62       0.002918098215
 63       0.003933998403
 64       0.005486151457
 65       0.799938968463
 66      -0.007274271912
 67       0.005567880865
 68      -0.009273832918
 69      -0.018035994387
 70      -0.028675564592
 71       0.000000605052
 72       0.000011428073
 73      -0.059076972585
 74       0.042760196161
 75      -0.000000686805
 76       0.000010761520
 77      -0.051126008509
 78       1.049477265479
 79       0.000011331151
 80       0.000168163513
 81      -1.036613889206
 82      -5.352299774478
 83       0.000122067910
 84      -0.000151461157
 85       1.741221628811
 86       0.013696637389
 87      -0.000000778667
 88      -0.000001620678
 89      -0.004524154812
 90      -0.001224074050
 91       0.017657960230
 92       0.029078444921
 93      -0.044502858967
 94      -0.007652299476
 95      -0.017133912034
 96      -0.087851789979
 97      -0.052243716021
 98       0.014150295492
 99      -0.016595510905
100      -0.393638154462
101      -0.194072943537
102      -0.055890604340
103      -0.097325639329
104      -0.647998230531
105       0.113313132571
106       1.536255546800
107       0.283816610226
108      -0.003286908591
109      -0.002091039973
110       0.001158607298
111      -0.010696912492
112      -0.001514945370
113       0.017657822209
114       0.029078048580
115       0.044528751317
116       0.007647505397
117      -0.017114941759
118      -0.087846185829
119       0.052271606185
120      -0.014159263256
121      -0.016572492454
122      -0.393695924747
123       0.194177225977
124       0.055896498169
125      -0.097227492770
126      -0.647053674579
127      -0.113902725436
128      -1.536030151916
129       0.283917128493
130      -0.003284677111
131       0.002092355249
132      -0.001161139245
133      -0.010696338283
134      -0.001511814926
135      -0.001600301260
136      -0.002011913047
137      -0.000011785343
138       0.000001674642
139       0.008938797563
140      -0.004156291288
141      -0.000011950207
142       0.000003943280
143       0.017510536852
144       0.180863866724
145      -0.000048297008
146      -0.000010922232
147      -0.010924043983
148       1.622400378063
149       0.000132744543
150      -0.000016157421
151      -0.940252608664
152      -0.006392833437
153       0.000001494325
154      -0.000001006899
155      -0.003815880521
156       0.000695079706
 Sym=     1a
 Ene= 2.25057468421284E-01
 Spin= Alpha
 Occup= 0.000000
  1      -0.059038519643
  2      -0.096003501178
  3       0.006752545708
  4       0.075079319188
  5       0.072568830665
  6       0.225555176193
  7       0.017264323119
  8       0.123046332471
  9       0.121405351423
 10       2.555378613553
 11       0.022914564215
 12       0.879852942257
 13       0.759800948512
 14       6.156695645043
 15      -0.139290468824
 16       0.603963627394
 17       0.007669457146
 18       0.009104214517
 19      -0.011704036869
 20      -0.007221775259
 21       0.025565053365
 22       0.002374405032
 23       0.059031689758
 24       0.095992482732
 25       0.006771739846
 26       0.075093098283
 27      -0.072572976718
 28      -0.225525162496
 29       0.017286314348
 30       0.123056465836
 31      -0.121412992433
 32      -2.555125273714
 33       0.023080442887
 34       0.879997520449
 35      -0.759819556081
 36      -6.155043390510
 37      -0.138987340527
 38       0.603923214465
 39      -0.007238702058
 40      -0.009103376200
 41      -0.011702119348
 42      -0.007218122438
 43      -0.025567459801
 44      -0.002375344020
 45      -0.017603410321
 46       0.066831994691
 47      -0.620689795108
 48       0.007284100673
 49       0.019840190476
 50       0.004895025582
 51      -0.012149838465
 52       0.071521877265
 53      -1.135024024347
 54       0.000010503954
 55       0.010075543974
 56       0.010642427787
 57       0.012136431689
 58      -0.071534173716
 59       1.134161612829
 60       0.000006202636
 61       0.010072868049
 62      -0.010639735910
 63       0.017598931286
 64      -0.066820005343
 65       0.620393975477
 66       0.007285260909
 67       0.019840188334
 68      -0.004894262487
 69      -0.000001386523
 70      -0.000002582891
 71       0.015879254327
 72      -0.005779891930
 73       0.000003198747
 74       0.000014431282
 75       0.054460184566
 76      -0.057796880479
 77       0.000000035222
 78       0.000019143711
 79      -0.145099796096
 80       0.406517697610
 81       0.000117767679
 82      -0.000949356413
 83      -0.162096252068
 84       0.898305897023
 85       0.000341521549
 86      -0.000001062760
 87       0.010558039014
 88      -0.022611253795
 89       0.000001314310
 90      -0.000000811168
 91      -0.019880081966
 92      -0.032306953140
 93       0.018828400451
 94      -0.046115276824
 95      -0.060967837304
 96       0.085194056560
 97       0.029792179845
 98      -0.067557974977
 99      -0.088221948889
100       0.581482075391
101       0.066686531782
102      -0.160106781365
103      -0.292352204309
104      -0.565825209078
105      -0.049436339743
106       0.728680885886
107      -1.012791600845
108      -0.010303493764
109       0.004015078690
110      -0.007076007862
111      -0.007225400862
112      -0.000582678248
113       0.019879196003
114       0.032305538001
115       0.018831507309
116      -0.046123534224
117       0.060976035987
118      -0.085190275835
119       0.029796602281
120      -0.067565385845
121       0.088233475267
122      -0.581450447850
123       0.066696129110
124      -0.160138915085
125       0.292381173841
126       0.565705614611
127      -0.049402290831
128       0.728954261696
129       1.012840903290
130       0.010304181897
131       0.004016043723
132      -0.007073608454
133       0.007227008986
134       0.000583195075
135       0.000000148399
136       0.000000104902
137      -0.027440712865
138       0.018605708686
139       0.000001710383
140       0.000002979893
141      -0.040288900528
142       0.039529570337
143       0.000001822797
144      -0.000042754839
145      -0.056314534349
146      -0.027167428172
147       0.000018222218
148      -0.000112492422
149       0.082226335916
150       0.275889065892
151       0.000082676383
152       0.000001037688
153      -0.000337480910
154       0.003996691214
155       0.000000335776
156       0.000000003155
 Sym=     1a
 Ene= 2.28673807127426E-01
 Spin= Alpha
 Occup= 0.000000
  1       0.023377016046
  2       0.037542721367
  3       0.077324926382
  4       0.048003872868
  5       0.006955726924
  6      -0.097289997658
  7       0.087996743217
  8       0.040779718902
  9       0.015965777335
 10      -0.921519096207
 11       0.646342260696
 12       0.484098749534
 13      -0.011507391162
 14      -6.149897681977
 15       1.160322694061
 16      -0.488373693384
 17      -1.701700990849
 18      -0.004036523832
 19       0.009399780552
 20       0.011262958514
 21       0.010007145862
 22       0.004484075005
 23       0.023392696038
 24       0.037568272784
 25      -0.077325343958
 26      -0.047982449206
 27       0.006930294667
 28      -0.097350187718
 29      -0.087994105461
 30      -0.040746149246
 31       0.015925492598
 32      -0.922195906381
 33      -0.646358078151
 34      -0.483835944014
 35      -0.011768578973
 36      -6.150882782428
 37      -1.160399810721
 38       0.488382964627
 39      -1.701711700945
 40      -0.004038641272
 41      -0.009403158737
 42      -0.011265031284
 43       0.009999549245
 44       0.004483692212
 45       0.015917799233
 46      -0.022569739495
 47       0.787760285804
 48       0.000774604564
 49       0.001826030335
 50       0.000977515724
 51       0.046000325224
 52       0.014933153716
 53       3.375805354826
 54      -0.018332159674
 55      -0.009836580295
 56      -0.010855041533
 57       0.046001950845
 58       0.014911246104
 59       3.376084537575
 60       0.018332101627
 61       0.009839106715
 62      -0.010857664044
 63       0.015921132217
 64      -0.022591886881
 65       0.787808020417
 66      -0.000771565350
 67      -0.001820891471
 68       0.000976069290
 69       0.010359541050
 70       0.018787477531
 71       0.000001878863
 72      -0.000001558792
 73      -0.016283836482
 74      -0.093843845613
 75       0.000007685666
 76      -0.000009678384
 77       0.005223208331
 78      -0.302768286417
 79      -0.000026502601
 80       0.000058653500
 81      -0.681424985210
 82       7.175833012621
 83      -0.000039612221
 84       0.000112075946
 85      -2.510102094228
 86       0.003930344854
 87       0.000001694110
 88      -0.000003307080
 89      -0.004683285917
 90       0.003402010165
 91       0.001058612530
 92       0.001604313495
 93       0.030165282673
 94      -0.020209351633
 95      -0.028848603614
 96      -0.003569072174
 97       0.034829461860
 98      -0.019058172388
 99      -0.041288181108
100      -0.062101998325
101       0.122527801511
102      -0.079050402652
103      -0.101059522327
104       0.667054263808
105      -0.237127242630
106       0.601312669746
107      -0.238309190445
108      -0.001945960516
109       0.002480852690
110       0.007411295339
111      -0.002820939888
112      -0.003221991908
113       0.001064702716
114       0.001614194794
115      -0.030161145945
116       0.020195713348
117      -0.028830658137
118      -0.003594821693
119      -0.034822096213
120       0.019037883107
121      -0.041262451205
122      -0.062285729627
123      -0.122514243982
124       0.079003665570
125      -0.100971485137
126       0.667270574819
127       0.237143507910
128      -0.601100895869
129      -0.238027302216
130      -0.001942795131
131      -0.002479643356
132      -0.007413277622
133      -0.002818714355
134      -0.003222111069
135       0.000094495227
136       0.000974098086
137      -0.000003710369
138       0.000003339131
139      -0.010981082814
140      -0.022908278593
141      -0.000005649554
142       0.000006648097
143      -0.011600368191
144       0.241766599875
145      -0.000006720251
146      -0.000002616944
147      -0.118767279763
148       0.660344670017
149       0.000010730544
150       0.000039429523
151      -0.501505132154
152      -0.006609452586
153      -0.000000080662
154       0.000000599257
155      -0.000823638684
156      -0.001485744212
 Sym=     1a
 Ene= 2.43835700997067E-01
 Spin= Alpha
 Occup= 0.000000
  1      -0.004457401262
  2      -0.007080024611
  3       0.079912302760
  4      -0.014405484416
  5      -0.016848811254
  6       0.020779990996
  7       0.091721954533
  8      -0.035497997003
  9      -0.020317371109
 10       0.004395029776
 11       0.957301357680
 12      -0.008715434345
 13      -0.115526766270
 14       0.077625110743
 15       2.577397689114
 16       0.010668222974
 17      -0.306159098939
 18      -0.000838876923
 19       0.003305880440
 20      -0.007743277506
 21       0.002519679468
 22       0.002654936831
 23      -0.004454981680
 24      -0.007076087138
 25      -0.079911994781
 26       0.014406996773
 27      -0.016851556011
 28       0.020770879238
 29      -0.091721058972
 30       0.035501054636
 31      -0.020322857274
 32       0.004287192809
 33      -0.957293646399
 34       0.008739336414
 35      -0.115557159093
 36       0.076589807897
 37      -2.577394514286
 38      -0.010457701991
 39      -0.306228161911
 40      -0.000839461390
 41      -0.003306705404
 42       0.007742810381
 43       0.002519197631
 44       0.002654660115
 45      -0.013012710061
 46      -0.063131564386
 47      -1.499201848756
 48      -0.007605154114
 49       0.006506493992
 50       0.004395667676
 51       0.010814417895
 52       0.178333530714
 53       0.781882024900
 54      -0.003099182954
 55      -0.001665435328
 56       0.004863029042
 57       0.010815905780
 58       0.178327839987
 59       0.781978142908
 60       0.003099652956
 61       0.001665700502
 62       0.004862019101
 63      -0.013011582642
 64      -0.063130942316
 65      -1.499143574735
 66       0.007605069915
 67      -0.006505515879
 68       0.004395999358
 69       0.015707536220
 70       0.025449154793
 71       0.000000389054
 72       0.000000216762
 73       0.032257492963
 74      -0.045165328462
 75       0.000000905912
 76      -0.000001758579
 77       0.036425529815
 78      -0.958402291864
 79      -0.000001049510
 80       0.000024884050
 81       0.458493042972
 82       1.370066603297
 83       0.000003442913
 84       0.000035025636
 85      -0.575191844116
 86      -0.013969359353
 87       0.000000030668
 88      -0.000000688070
 89      -0.016223211610
 90       0.011330486290
 91      -0.006538934162
 92      -0.010869522811
 93      -0.047634650125
 94      -0.042737118444
 95       0.017465793310
 96       0.035006927149
 97      -0.042218650313
 98      -0.059078861508
 99       0.022949431059
100       0.139193938102
101      -0.223713852907
102      -0.157020430807
103       0.096545279245
104       0.006834304746
105       1.723941695728
106      -0.113766523997
107       0.198217062162
108       0.003936779935
109       0.007529477820
110       0.002879681310
111      -0.001307520240
112       0.009854933958
113      -0.006538121768
114      -0.010868202976
115       0.047637214984
116       0.042735383505
117       0.017467999676
118       0.035003541785
119       0.042221782569
120       0.059076330359
121       0.022952496002
122       0.139168700241
123       0.223724353962
124       0.157014670595
125       0.096560289358
126       0.006889542715
127      -1.723995970987
128       0.113854894278
129       0.198291422942
130       0.003937325735
131      -0.007529234913
132      -0.002880035206
133      -0.001307243533
134       0.009855272826
135      -0.001035265187
136      -0.001772708785
137      -0.000001084539
138       0.000000510785
139      -0.004701272466
140       0.003344259532
141      -0.000001183209
142       0.000001261610
143      -0.013010895392
144       0.034638040953
145      -0.000004116463
146      -0.000002139904
147      -0.028829329573
148      -0.702604006568
149       0.000009783792
150       0.000010053050
151       0.352195078621
152       0.002690665389
153       0.000000084179
154       0.000000095952
155      -0.004085957069
156       0.005864500701
 Sym=     1a
 Ene= 2.57770641686061E-01
 Spin= Alpha
 Occup= 0.000000
  1      -0.001445049681
  2      -0.002080038561
  3      -0.022399330815
  4      -0.068213965762
  5      -0.079803044360
  6       0.020736874565
  7      -0.039965881712
  8      -0.077270879580
  9      -0.099522250678
 10      -0.137596915251
 11      -0.037260600391
 12      -0.918449560518
 13      -0.852431339973
 14      27.838782901702
 15       0.052794307240
 16       6.638871191367
 17       1.406922181121
 18       0.008879746483
 19      -0.004152467133
 20      -0.001195408212
 21      -0.026210629026
 22      -0.005798058388
 23       0.001445450758
 24       0.002080584048
 25      -0.022400513046
 26      -0.068213844597
 27       0.079803351366
 28      -0.020734956703
 29      -0.039967661170
 30      -0.077271170272
 31       0.099524962516
 32       0.137553064702
 33      -0.037252494904
 34      -0.918451731769
 35       0.852408288909
 36     -27.838669420166
 37       0.052825083788
 38       6.638888353710
 39      -1.406885278219
 40      -0.008879910127
 41      -0.004152628012
 42      -0.001195512027
 43       0.026211129926
 44       0.005798155865
 45      -0.019123620142
 46      -0.069976191277
 47      -1.828466813032
 48      -0.016387942152
 49       0.003395568305
 50      -0.007330733050
 51      -0.052139610628
 52      -0.031878954238
 53      -2.411173318504
 54       0.018614680213
 55      -0.000041392395
 56       0.008210678236
 57       0.052140178437
 58       0.031874910640
 59       2.411208011852
 60       0.018614648886
 61      -0.000041293055
 62      -0.008210743235
 63       0.019123306618
 64       0.069980764036
 65       1.828474432806
 66      -0.016387658011
 67       0.003395369477
 68       0.007331001582
 69       0.000001086744
 70       0.000001740272
 71       0.011736292414
 72       0.013841491036
 73      -0.000000165798
 74      -0.000003320424
 75       0.007185953567
 76      -0.009053350827
 77       0.000003012022
 78      -0.000105536094
 79       0.138109195890
 80       0.476302175006
 81      -0.000030889515
 82      -0.000201003569
 83       0.574392831341
 84       0.408863201310
 85       0.000114549540
 86      -0.000000940290
 87      -0.011869596610
 88      -0.001667925456
 89       0.000000487362
 90      -0.000000135765
 91       0.008187464315
 92       0.013093178790
 93       0.038325976529
 94       0.013901223882
 95       0.028221106529
 96      -0.030405424021
 97       0.036789184209
 98       0.026894948017
 99       0.039249709116
100      -0.326716863099
101       0.164712867125
102       0.044750257652
103       0.116916065342
104      -0.183729693397
105      -1.297200410027
106       1.394710907300
107      -0.370430700269
108       0.003262903554
109       0.000828102606
110       0.003867001025
111       0.001246634297
112      -0.008178350368
113      -0.008187612389
114      -0.013093397058
115       0.038322434504
116       0.013902038803
117      -0.028221579482
118       0.030405266430
119       0.036785606560
120       0.026896290639
121      -0.039250197628
122       0.326722840512
123       0.164694992576
124       0.044754738558
125      -0.116918132457
126       0.183815317354
127      -1.297130624115
128       1.394744944246
129       0.370408416459
130      -0.003262767641
131       0.000828373353
132       0.003866615000
133      -0.001246267202
134       0.008178134687
135      -0.000000068501
136      -0.000000101096
137      -0.026453068791
138      -0.024631151385
139       0.000000397674
140      -0.000000075316
141      -0.017662933123
142      -0.020638223184
143       0.000000173456
144       0.000009160457
145      -0.154726703108
146      -0.139698868598
147      -0.000002942266
148       0.000108766823
149       0.406044371795
150       0.504135663010
151      -0.000104456532
152      -0.000000574530
153       0.004533304314
154       0.002265964873
155       0.000000092139
156      -0.000000135301
 Sym=     1a
 Ene= 2.68192216539262E-01
 Spin= Alpha
 Occup= 0.000000
  1      -0.009697604430
  2      -0.014659903625
  3       0.044531289814
  4       0.038809837326
  5      -0.003672942663
  6      -0.001409188901
  7       0.053543959009
  8       0.060982459746
  9      -0.022879724279
 10       1.164299862607
 11       0.277494667866
 12       0.392160295108
 13       0.047500160031
 14       8.655736660520
 15       0.466161425982
 16       3.032409313088
 17      -0.829097365552
 18       0.002855068215
 19       0.000461775587
 20       0.002240055611
 21       0.001739424278
 22      -0.001339092064
 23       0.009697781124
 24       0.014660099200
 25       0.044530592492
 26       0.038809834612
 27       0.003673698082
 28       0.001411007448
 29       0.053542901252
 30       0.060981572282
 31       0.022882556605
 32      -1.164321359160
 33       0.277491296586
 34       0.392164487906
 35      -0.047514589751
 36      -8.655585945218
 37       0.466144481481
 38       3.032408173285
 39       0.829157060815
 40      -0.002854926548
 41       0.000461573726
 42       0.002239755143
 43      -0.001739254325
 44       0.001339306220
 45      -0.002232545712
 46       0.006539559021
 47      -0.525555871182
 48      -0.007924196129
 49      -0.002209664046
 50      -0.002081288845
 51      -0.015223896139
 52      -0.118547284447
 53       0.629376547670
 54      -0.014200240399
 55       0.006429292625
 56      -0.002680030982
 57       0.015223833051
 58       0.118545501575
 59      -0.629364813771
 60      -0.014200305418
 61       0.006429514553
 62       0.002679683335
 63       0.002232562533
 64      -0.006539411126
 65       0.525545804796
 66      -0.007923832261
 67      -0.002209574825
 68       0.002081269505
 69       0.000000688099
 70       0.000001095012
 71       0.055854750002
 72      -0.041912163709
 73       0.000000223335
 74      -0.000002086496
 75       0.065009666545
 76      -0.029895548837
 77       0.000002337980
 78      -0.000078799784
 79       0.473549172233
 80      -0.818285305327
 81      -0.000021280557
 82      -0.000181805623
 83       0.237253358902
 84       0.660864943983
 85       0.000076764638
 86      -0.000001066284
 87       0.003737948419
 88      -0.007452940717
 89       0.000000250280
 90       0.000000041106
 91      -0.008395046063
 92      -0.014337930276
 93       0.025677543067
 94       0.028841028147
 95       0.031604021114
 96       0.057637213957
 97       0.022411261945
 98       0.023713796626
 99       0.027576540605
100       0.022463794357
101       0.146133359199
102       0.124524594270
103       0.190134739165
104       3.051344489657
105      -0.124837666972
106      -2.991648325276
107      -0.769772151910
108      -0.002344585365
109       0.000461862274
110      -0.002370559089
111       0.011528286534
112       0.001870266553
113       0.008394909710
114       0.014337714687
115       0.025677084917
116       0.028841569504
117      -0.031604401488
118      -0.057636913165
119       0.022410681851
120       0.023714794370
121      -0.027577025994
122      -0.022460780398
123       0.146130900567
124       0.124526379963
125      -0.190135635121
126      -3.051316526561
127      -0.124838033823
128      -2.991615313665
129       0.769782073214
130       0.002344898087
131       0.000462063768
132      -0.002370847426
133      -0.011528007978
134      -0.001870182634
135       0.000000182337
136       0.000000309545
137      -0.009217742898
138      -0.001113278147
139       0.000000467890
140      -0.000001293167
141      -0.011198382315
142       0.002776512039
143       0.000000621201
144       0.000002679095
145      -0.045254875166
146       0.012385269542
147      -0.000002987697
148       0.000079972382
149      -0.131631221091
150       0.418754155657
151      -0.000061891598
152      -0.000000344093
153      -0.003652804053
154       0.006670003924
155       0.000000019800
156      -0.000000007005
 Sym=     1a
 Ene= 2.84401431247252E-01
 Spin= Alpha
 Occup= 0.000000
  1      -0.008253256465
  2      -0.014328305825
  3      -0.009134554403
  4      -0.028596204344
  5       0.015010020588
  6       0.046546389618
  7      -0.011552002804
  8      -0.029600241905
  9       0.033720699563
 10       0.918755287222
 11       0.156730164695
 12      -0.332653121528
 13      -0.065148861931
 14       4.476800506219
 15       0.200505012246
 16      -0.106857045673
 17       1.813909332423
 18       0.019290346583
 19      -0.003032745725
 20      -0.002786550823
 21       0.003111635468
 22      -0.002236249608
 23      -0.008253454635
 24      -0.014328652570
 25       0.009135174717
 26       0.028595954628
 27       0.015009830477
 28       0.046549258423
 29       0.011553293748
 30       0.029599531814
 31       0.033720624424
 32       0.918736294491
 33      -0.156732880084
 34       0.332665649644
 35      -0.065172149698
 36       4.477379330017
 37      -0.200489615989
 38       0.106701528232
 39       1.813915559842
 40       0.019290785789
 41       0.003033376477
 42       0.002786646922
 43       0.003111301630
 44      -0.002236667388
 45       0.001000476462
 46      -0.129881633551
 47      -0.049329343005
 48      -0.000903400063
 49       0.000717752438
 50      -0.013720202902
 51      -0.015815605681
 52      -0.017052337961
 53      -0.391558096892
 54       0.004786187193
 55       0.008142610850
 56       0.000895465591
 57      -0.015817375384
 58      -0.017050653735
 59      -0.391599505618
 60      -0.004786645265
 61      -0.008142917788
 62       0.000896293187
 63       0.001000967237
 64      -0.129881759754
 65      -0.049352414980
 66       0.000903638262
 67      -0.000717957782
 68      -0.013720580842
 69       0.004162413618
 70       0.005473675797
 71      -0.000001236773
 72       0.000000658006
 73       0.025153323860
 74      -0.001356168021
 75      -0.000000978328
 76       0.000001746173
 77       0.061826889533
 78      -2.342164983440
 79      -0.000011946649
 80      -0.000006402014
 81      -1.311120660397
 82      -9.900080923210
 83      -0.000041205350
 84      -0.000008087646
 85       0.930239631220
 86      -0.068611403725
 87      -0.000000105491
 88       0.000000578204
 89       0.004637220788
 90      -0.003381775914
 91       0.002748967653
 92       0.004450130099
 93      -0.005394735770
 94       0.005597574268
 95      -0.044090209374
 96      -0.010508174950
 97      -0.006718794830
 98      -0.003022802390
 99      -0.054401833950
100      -0.130353495979
101      -0.028799733034
102       0.131439047425
103      -0.150141220816
104      -0.639125180180
105       0.077615432765
106      -0.715829298723
107       2.456140246604
108       0.011792824662
109      -0.005111261242
110       0.007831942187
111       0.006579331832
112       0.003499815995
113       0.002748520122
114       0.004449375982
115       0.005392369212
116      -0.005598142956
117      -0.044088553768
118      -0.010505347162
119       0.006715969670
120       0.003022688846
121      -0.054400329352
122      -0.130348800472
123       0.028791446118
124      -0.131444942882
125      -0.150130270256
126      -0.639192718030
127      -0.077539504429
128       0.715817445212
129       2.456100299955
130       0.011792719919
131       0.005111330803
132      -0.007831867644
133       0.006579490129
134       0.003499479318
135       0.032553444885
136       0.054367622004
137      -0.000001115076
138      -0.000000037707
139       0.012160660573
140      -0.196345040866
141      -0.000001104442
142      -0.000000614982
143       0.052111894742
144      -0.181399254403
145      -0.000005031258
146       0.000002545488
147      -0.372276322594
148       3.932506182500
149       0.000030955608
150      -0.000021405378
151      -0.386998058214
152      -0.002089774681
153       0.000000227426
154      -0.000000186668
155      -0.003463738691
156      -0.002296303909
 Sym=     1a
 Ene= 2.93064525323694E-01
 Spin= Alpha
 Occup= 0.000000
  1      -0.000352678808
  2      -0.000777455514
  3      -0.022647673914
  4       0.015880639196
  5       0.009797652904
  6       0.008613041860
  7      -0.040960871275
  8       0.019429510455
  9       0.030004551722
 10      -0.264779649396
 11      -0.108365097833
 12       0.227427689606
 13      -0.060706923208
 14      -0.356743056731
 15      -0.674785713407
 16      -0.281259235408
 17       0.230600489457
 18       0.000962314029
 19      -0.011162717223
 20      -0.001614237743
 21       0.003023013475
 22      -0.009673123800
 23       0.000352559969
 24       0.000777280343
 25      -0.022646836913
 26       0.015881846217
 27      -0.009798028930
 28      -0.008613146616
 29      -0.040959148039
 30       0.019432328972
 31      -0.030005434524
 32       0.264800470848
 33      -0.108366488975
 34       0.227430217985
 35       0.060701625765
 36       0.356769396887
 37      -0.674786799622
 38      -0.281237470904
 39      -0.230584001158
 40      -0.000961727676
 41      -0.011162526548
 42      -0.001613885799
 43      -0.003022647981
 44       0.009673095784
 45       0.017293389444
 46       0.078330596460
 47       0.383683263417
 48       0.002663690081
 49       0.000525711030
 50      -0.002444521307
 51      -0.013993492208
 52      -0.001768150949
 53      -0.721349563518
 54       0.001963411476
 55       0.000606793337
 56       0.008947390876
 57       0.013992651779
 58       0.001765860282
 59       0.721359955977
 60       0.001963367642
 61       0.000606548751
 62      -0.008947123542
 63      -0.017293160779
 64      -0.078332847620
 65      -0.383667748405
 66       0.002663745659
 67       0.000525509146
 68       0.002444150945
 69       0.000000125670
 70       0.000000202267
 71       0.033587767315
 72       0.008932860458
 73       0.000000718149
 74      -0.000000521067
 75      -0.004686781340
 76      -0.012945322057
 77       0.000000822136
 78      -0.000029566715
 79       0.439823687535
 80       0.289655713955
 81      -0.000010195914
 82      -0.000075573445
 83       2.950994857066
 84       0.202606047327
 85      -0.000032573152
 86      -0.000000866621
 87       0.004132596688
 88       0.000351221203
 89      -0.000000019858
 90      -0.000000137334
 91      -0.001412205286
 92      -0.001925215233
 93       0.045007342278
 94       0.000724897593
 95      -0.003771551287
 96      -0.004740779185
 97       0.056966643540
 98      -0.000835415031
 99      -0.003630665247
100       0.175044958090
101       0.151911053038
102       0.002101370429
103      -0.023652989269
104      -1.610037495141
105      -1.202200641412
106       0.795320257598
107       0.403884300610
108       0.001701998278
109      -0.001702604019
110      -0.000221296301
111      -0.001951499413
112      -0.004812529736
113       0.001412233787
114       0.001925255911
115       0.045007186113
116       0.000725835227
117       0.003769649151
118       0.004740801787
119       0.056966589436
120      -0.000833991120
121       0.003628552602
122      -0.175047181894
123       0.151909746599
124       0.002102454093
125       0.023644601020
126       1.610064535145
127      -1.202200132719
128       0.795339611642
129      -0.403795292813
130      -0.001701776470
131      -0.001702431108
132      -0.000221612671
133       0.001951703011
134       0.004812606502
135       0.000000503449
136       0.000000836765
137       0.106225559445
138       0.012630516060
139      -0.000000404927
140      -0.000002955317
141       0.105990709699
142       0.015421723220
143       0.000000089038
144      -0.000004134082
145       0.476253342097
146       0.036638898787
147      -0.000007386712
148       0.000037210719
149      -2.332611686029
150      -0.233512237737
151       0.000025117717
152       0.000000130679
153      -0.015135289244
154      -0.001282708126
155      -0.000000104903
156      -0.000000063279
 Sym=     1a
 Ene= 3.06583873114426E-01
 Spin= Alpha
 Occup= 0.000000
  1       0.004657180336
  2       0.008029698227
  3       0.018472163986
  4      -0.003376419557
  5       0.019381483500
  6      -0.052400352146
  7       0.024815984001
  8      -0.016892780448
  9       0.023022376631
 10       0.363163278430
 11       0.006246703493
 12       0.321399580653
 13       0.463633252425
 14     -10.810888648608
 15       0.142662235765
 16      -2.185977560164
 17      -0.960637827172
 18      -0.000188470587
 19       0.003829620837
 20      -0.003930953225
 21       0.001673736239
 22      -0.003774515179
 23      -0.004655155816
 24      -0.008026097634
 25       0.018473315006
 26      -0.003376400688
 27      -0.019386974759
 28       0.052384795314
 29       0.024818155836
 30      -0.016889776376
 31      -0.023032633407
 32      -0.363258005202
 33       0.006278782502
 34       0.321365425250
 35      -0.463695070803
 36      10.809760461149
 37       0.142720468015
 38      -2.185845641943
 39       0.960253361587
 40       0.000189333676
 41       0.003831002434
 42      -0.003932394775
 43      -0.001671401324
 44       0.003775284357
 45       0.014465525315
 46       0.082892908999
 47       0.673757437439
 48      -0.000776234610
 49      -0.000845181728
 50      -0.000241424969
 51       0.013505097494
 52      -0.085121614674
 53       1.160966992594
 54      -0.013033939148
 55       0.001078981103
 56      -0.007996212639
 57      -0.013505219344
 58       0.085119226503
 59      -1.160924883507
 60      -0.013033088321
 61       0.001079756729
 62       0.007998088222
 63      -0.014462891260
 64      -0.082879788661
 65      -0.673647767862
 66      -0.000776261093
 67      -0.000845591210
 68       0.000241205787
 69       0.000002401742
 70       0.000004287072
 71       0.038263735567
 72      -0.144656963779
 73       0.000008968176
 74      -0.000016476879
 75       0.075021349094
 76      -0.232814521407
 77       0.000008155826
 78      -0.000048560617
 79       0.344067725961
 80      -1.773548955002
 81       0.000144582601
 82       0.000838971293
 83       0.381495742685
 84      -3.988580531649
 85      -0.000610303288
 86       0.000001568693
 87       0.007382193175
 88      -0.003309423744
 89      -0.000000823357
 90      -0.000000353854
 91       0.002191117817
 92       0.004120426203
 93       0.015817970198
 94      -0.074373071129
 95       0.029051685540
 96      -0.029179798288
 97       0.012968986225
 98      -0.077206187168
 99       0.036582921984
100       0.108880182893
101       0.123904278540
102      -0.447155235725
103       0.159492956188
104       3.191489619031
105       0.228330666798
106      -0.057152999414
107       0.352725330617
108      -0.009740743912
109      -0.001588721432
110       0.011218682192
111      -0.000721697385
112       0.001961512046
113      -0.002191639529
114      -0.004121338020
115       0.015813274086
116      -0.074357864527
117      -0.029051594691
118       0.029183010025
119       0.012963713749
120      -0.077189229798
121      -0.036580283457
122      -0.108870676844
123       0.123878541426
124      -0.447070274456
125      -0.159504170683
126      -3.190859727476
127       0.228306995589
128      -0.057092629433
129      -0.352617995771
130       0.009739251174
131      -0.001588360318
132       0.011216866321
133       0.000722423452
134      -0.001961262854
135       0.000000655984
136       0.000001012794
137      -0.004181020998
138      -0.039810718920
139      -0.000007364670
140      -0.000002103980
141      -0.010721117231
142      -0.033204316869
143      -0.000007485715
144      -0.000027563077
145      -0.007154183544
146      -0.142233737929
147      -0.000029611304
148      -0.000215419467
149      -0.292958729988
150       2.194030721861
151       0.000401892581
152       0.000002054278
153      -0.004547051400
154       0.020950544897
155      -0.000000480978
156      -0.000000261885
 Sym=     1a
 Ene= 3.07703485614355E-01
 Spin= Alpha
 Occup= 0.000000
  1       0.009556612720
  2       0.017088972391
  3      -0.004568254136
  4      -0.003628741243
  5      -0.028858891150
  6      -0.070479521962
  7      -0.013297680807
  8      -0.021706952893
  9      -0.051314467837
 10      -0.560836284367
 11      -0.196215313802
 12       0.172745693240
 13      -0.347135899352
 14      -4.859110690537
 15      -0.306424369752
 16      -0.615580945543
 17      -1.731214870104
 18       0.002583598605
 19      -0.006844240967
 20       0.005303062221
 21       0.011992282617
 22       0.004982829390
 23       0.009556716709
 24       0.017089276385
 25       0.004562831635
 26       0.003629276874
 27      -0.028852644411
 28      -0.070490308076
 29       0.013290435761
 30       0.021709817477
 31      -0.051305832473
 32      -0.560657725407
 33       0.196211664567
 34      -0.172851072901
 35      -0.346976564109
 36      -4.861272173685
 37       0.306383074014
 38       0.616057425337
 39      -1.731345896861
 40       0.002583256994
 41       0.006843310601
 42      -0.005302379387
 43       0.011992664821
 44       0.004981700947
 45       0.011238692689
 46       0.102203796940
 47       0.381188480411
 48      -0.001512978602
 49       0.004497705604
 50       0.001623993613
 51      -0.002023878850
 52      -0.020490041586
 53       0.115724309273
 54      -0.004570835583
 55      -0.003985891994
 56       0.010274021765
 57      -0.002020721422
 58      -0.020512662613
 59       0.115981472425
 60       0.004574427030
 61       0.003985553553
 62       0.010272006550
 63       0.011242395576
 64       0.102235338781
 65       0.381304498424
 66       0.001513543173
 67      -0.004497371676
 68       0.001624725992
 69       0.026440662446
 70       0.046415895210
 71      -0.000004006285
 72       0.000013834791
 73       0.086034288112
 74      -0.161578298875
 75      -0.000007565098
 76       0.000021736441
 77       0.083346871202
 78      -0.808372135502
 79      -0.000039936186
 80       0.000208039406
 81       1.487095945972
 82       6.861428868022
 83      -0.000069992174
 84       0.000391069992
 85      -5.126278570871
 86       0.014251550761
 87      -0.000000967384
 88      -0.000000656501
 89      -0.005570764806
 90      -0.002893685429
 91      -0.002009059815
 92      -0.003526974666
 93       0.025540115529
 94      -0.075142539007
 95       0.002194955743
 96       0.011531235323
 97       0.027666046916
 98      -0.083240888712
 99       0.016919694599
100       0.038672090554
101       0.145557460334
102      -0.435294398473
103      -0.055312773645
104       3.481578138925
105       0.057311503805
106      -0.391989691211
107       0.436672990259
108      -0.007873397996
109      -0.001742216809
110       0.009191903633
111       0.004036177566
112       0.000967001388
113      -0.002007832944
114      -0.003524826501
115      -0.025544523841
116       0.075159709114
117       0.002196754412
118       0.011520451636
119      -0.027669663508
120       0.083257439420
121       0.016922340640
122       0.038683764721
123      -0.145591819724
124       0.435405820982
125      -0.055300522726
126       3.482541019318
127      -0.057392284296
128       0.392055154175
129       0.436805930128
130      -0.007875782559
131       0.001742407543
132      -0.009194357668
133       0.004035976700
134       0.000967657800
135       0.004278347057
136       0.006311704728
137      -0.000000729339
138       0.000003297422
139      -0.069374944049
140      -0.007709494415
141       0.000000003364
142       0.000003732157
143      -0.074779296742
144      -0.245317406271
145      -0.000004562935
146       0.000004704259
147      -0.262073644143
148      -2.064937988226
149       0.000052147723
150      -0.000171460528
151       3.598998250356
152       0.018299008746
153       0.000000619468
154      -0.000001738063
155      -0.004575167846
156      -0.002914905668
 Sym=     1a
 Ene= 3.27566700409424E-01
 Spin= Alpha
 Occup= 0.000000
  1       0.018900676882
  2       0.029971664460
  3      -0.038167863103
  4       0.020689496053
  5      -0.006366431039
  6      -0.014068238281
  7      -0.040188910288
  8       0.024954561635
  9      -0.009687215549
 10      -2.177887489695
 11       0.012940406315
 12      -0.345741505693
 13      -0.839852036418
 14     -21.799050649754
 15      -0.475229716369
 16      -4.975785895241
 17      -1.982803934735
 18       0.000873698133
 19      -0.004849773039
 20      -0.003354985371
 21       0.009967725237
 22       0.007385130315
 23      -0.018902589432
 24      -0.029975189537
 25      -0.038167638407
 26       0.020681033198
 27       0.006373661026
 28       0.014075964998
 29      -0.040189231617
 30       0.024931061260
 31       0.009697507996
 32       2.178240133153
 33       0.012898389096
 34      -0.345697672069
 35       0.840042001661
 36      21.798011345156
 37      -0.475279124892
 38      -4.975805060973
 39       1.982583848691
 40      -0.000872198033
 41      -0.004851078761
 42      -0.003356131857
 43      -0.009971908015
 44      -0.007386167688
 45      -0.003137206871
 46      -0.263139799849
 47       1.521108102976
 48       0.018101009042
 49       0.006909511088
 50      -0.017423312664
 51       0.029112266724
 52       0.326772492042
 53       0.090788359363
 54       0.017971096402
 55      -0.003371563599
 56       0.013988794604
 57      -0.029108327329
 58      -0.326797045786
 59      -0.090541211011
 60       0.017971913488
 61      -0.003370967913
 62      -0.013992716761
 63       0.003138014504
 64       0.263085252714
 65      -1.520803910004
 66       0.018099370481
 67       0.006912157284
 68       0.017420198437
 69      -0.000006023028
 70      -0.000009749524
 71      -0.027103487469
 72      -0.038098804415
 73      -0.000004242251
 74       0.000016088156
 75      -0.062273092629
 76      -0.071909845583
 77      -0.000009597235
 78       0.000535237146
 79      -0.138905980816
 80       0.881618702073
 81      -0.000183405141
 82       0.001249877891
 83      -0.129705148499
 84      -1.610364296339
 85      -0.000722649206
 86       0.000002146700
 87      -0.006420785649
 88      -0.035528831338
 89      -0.000002025437
 90      -0.000000942624
 91      -0.013146450709
 92      -0.021627584405
 93      -0.023220710541
 94       0.013776965276
 95       0.053736390547
 96       0.069449278981
 97      -0.013110422993
 98      -0.013082533152
 99       0.065885035655
100       0.364146785249
101      -0.204688655069
102       0.270996547973
103       0.250260106576
104      -6.697759623221
105      -0.488045951919
106       1.449015734070
107      -0.276640588728
108       0.006707307750
109      -0.003038421176
110      -0.002819967861
111      -0.002277432774
112      -0.004462524994
113       0.013145807347
114       0.021626584790
115      -0.023213136199
116       0.013761749021
117      -0.053740202614
118      -0.069445855762
119      -0.013103527791
120      -0.013098546915
121      -0.065895527918
122      -0.364115953160
123      -0.204633412684
124       0.270884098360
125      -0.250249439332
126       6.696207928749
127      -0.488007003235
128       1.448648933329
129       0.276786668387
130      -0.006705142979
131      -0.003038805324
132      -0.002817965298
133       0.002275114209
134       0.004461801240
135       0.000002269589
136       0.000003834797
137       0.002226775978
138      -0.022181193975
139       0.000000764495
140      -0.000013438793
141       0.006746862742
142       0.012433706228
143       0.000006125716
144      -0.000028751936
145      -0.003443207891
146      -0.306378636921
147      -0.000012235937
148       0.000132898204
149      -0.080602939657
150       1.707821216460
151       0.000154299528
152       0.000000776798
153       0.000870939874
154       0.013342006575
155       0.000000221685
156       0.000000194275
 Sym=     1a
 Ene= 3.37479227487067E-01
 Spin= Alpha
 Occup= 0.000000
  1       0.004775459872
  2       0.010234712793
  3      -0.005244216653
  4      -0.043239168237
  5      -0.022327262551
  6      -0.041859015176
  7      -0.015624230638
  8      -0.127420967945
  9      -0.045282790510
 10      -1.131388225679
 11      -0.156081380568
 12       0.174723532380
 13      -0.593878089392
 14       6.105977155737
 15      -0.271516924937
 16      -0.039523823510
 17       1.568103137642
 18      -0.005181325040
 19      -0.007581969447
 20      -0.007122036918
 21       0.019720167415
 22       0.002272318947
 23       0.004770826745
 24       0.010227286178
 25       0.005236263729
 26       0.043247580771
 27      -0.022326788198
 28      -0.041851692816
 29       0.015617086140
 30       0.127432190867
 31      -0.045282077905
 32      -1.130895925947
 33       0.156093899694
 34      -0.174751224956
 35      -0.593708663655
 36       6.112416583094
 37       0.271412045399
 38       0.038047566441
 39       1.568679126125
 40      -0.005181215739
 41       0.007580732895
 42       0.007121195164
 43       0.019717050110
 44       0.002269624573
 45      -0.003388804215
 46       0.215427449613
 47      -1.154353749476
 48      -0.002362994161
 49       0.012437018897
 50       0.011496010272
 51      -0.016415992076
 52       0.114206538723
 53      -1.157213495446
 54       0.003069208683
 55       0.008007064625
 56       0.015045712885
 57      -0.016425996341
 58       0.114112866596
 59      -1.157298654587
 60      -0.003065307096
 61      -0.008008102423
 62       0.015042740931
 63      -0.003388261494
 64       0.215490131494
 65      -1.154748879599
 66       0.002368387811
 67      -0.012435251349
 68       0.011500166467
 69       0.036752261011
 70       0.057901709971
 71      -0.000003390753
 72      -0.000005245177
 73       0.005935885427
 74      -0.049605026626
 75      -0.000009208274
 76      -0.000008010472
 77       0.011716737268
 78      -3.972845676428
 79      -0.000002025080
 80       0.000071224399
 81       1.450988507844
 82     -13.092920978962
 83       0.000004893415
 84      -0.000262295059
 85       7.687390862998
 86      -0.024676712775
 87      -0.000000989065
 88      -0.000003699993
 89       0.021674734251
 90       0.010900340834
 91       0.006520687212
 92       0.010441008780
 93       0.021320770115
 94      -0.030026539462
 95       0.004344220012
 96      -0.029912905957
 97       0.015658100523
 98      -0.025169921892
 99       0.030326198430
100      -0.249879389883
101       0.183100086752
102      -0.304555449071
103      -0.096874540481
104       5.956780190549
105       0.227974443897
106      -1.675239981253
107       0.004131008079
108      -0.007824424596
109      -0.001233661452
110       0.007584938857
111       0.009038480746
112       0.003008130102
113       0.006523308439
114       0.010445296044
115      -0.021327133056
116       0.030027730302
117       0.004333991399
118      -0.029925983862
119      -0.015662462939
120       0.025164756348
121       0.030313199179
122      -0.249968180353
123      -0.183150345594
124       0.304606163955
125      -0.096921191567
126       5.958250965902
127      -0.228068260351
128       1.675518062565
129       0.004057582011
130      -0.007826124843
131       0.001232460712
132      -0.007585325062
133       0.009038906777
134       0.003009064416
135      -0.021955935422
136      -0.036618150510
137       0.000000700667
138      -0.000003299306
139       0.021958542958
140       0.118505175313
141       0.000001544181
142      -0.000000115343
143      -0.026106230988
144       0.379601244286
145      -0.000000246818
146      -0.000034213024
147       0.245905252868
148      -2.090379377902
149      -0.000013440810
150       0.000190078932
151      -1.540634953002
152      -0.008660919682
153       0.000000065216
154       0.000001527274
155      -0.002055742704
156      -0.001306548883
 Sym=     1a
 Ene= 3.46661918662666E-01
 Spin= Alpha
 Occup= 0.000000
  1       0.005567197019
  2       0.008970766042
  3       0.010355914427
  4      -0.085342173094
  5       0.041153485407
  6      -0.037148366424
  7       0.004170435760
  8      -0.118067636972
  9       0.048620348809
 10       0.303807035393
 11       0.070381354888
 12      -1.204880476008
 13       0.388096977810
 14       1.411038005739
 15       0.243235876720
 16      -0.978512146461
 17       2.907642252441
 18       0.005416181661
 19      -0.002650141195
 20       0.012082311532
 21      -0.009820520942
 22       0.000198641622
 23      -0.005567159426
 24      -0.008970683818
 25       0.010356385206
 26      -0.085340505099
 27      -0.041153783750
 28       0.037148623689
 29       0.004170300974
 30      -0.118062804659
 31      -0.048620256026
 32      -0.303843404819
 33       0.070383471530
 34      -1.204883416754
 35      -0.388120205391
 36      -1.410782863578
 37       0.243267112909
 38      -0.978527747299
 39      -2.907563830463
 40      -0.005416225984
 41      -0.002650074810
 42       0.012082867864
 43       0.009821007191
 44      -0.000198758419
 45       0.016899978514
 46      -0.063669362721
 47       0.823819711878
 48      -0.010518581161
 49      -0.008334836867
 50      -0.017977812548
 51      -0.010711208642
 52      -0.246575493837
 53       0.880176404991
 54      -0.007378287882
 55      -0.007138693531
 56      -0.009449357006
 57       0.010710804690
 58       0.246582632337
 59      -0.880252491199
 60      -0.007378961867
 61      -0.007138937985
 62       0.009449564119
 63      -0.016901422747
 64       0.063665066910
 65      -0.823837550991
 66      -0.010518909841
 67      -0.008335074009
 68       0.017978139005
 69       0.000000766444
 70       0.000001232786
 71      -0.042168072682
 72       0.037116192697
 73       0.000000408102
 74      -0.000002012941
 75      -0.062395554515
 76      -0.001224812011
 77       0.000001647254
 78      -0.000082162444
 79      -0.393804081005
 80       0.898775258916
 81       0.000008383626
 82      -0.000274716326
 83      -0.279931263673
 84       2.592080973760
 85       0.000137468746
 86      -0.000000693146
 87       0.011214215705
 88      -0.018090982158
 89       0.000000188391
 90      -0.000000069785
 91       0.002744624026
 92       0.003815052978
 93       0.004489105240
 94      -0.000009502433
 95       0.022210944640
 96       0.008042167213
 97       0.007408026995
 98       0.010200311724
 99       0.026636861580
100      -0.400184943964
101      -0.009356587774
102      -0.000788171715
103       0.067872757958
104       1.336177589110
105       0.423428578300
106       0.897453375275
107      -3.910337437311
108      -0.012098523938
109       0.007636182492
110      -0.008800184811
111      -0.002784478685
112       0.001850484444
113      -0.002744544464
114      -0.003814934442
115       0.004487903657
116      -0.000007565219
117      -0.022210228376
118      -0.008042434428
119       0.007406835404
120       0.010202721588
121      -0.026635575756
122       0.400180475455
123      -0.009364655899
124      -0.000777416767
125      -0.067870705316
126      -1.336019118944
127       0.423441041937
128       0.897497286540
129       3.910312120449
130       0.012098414740
131       0.007636358002
132      -0.008800275815
133       0.002784862396
134      -0.001850424118
135      -0.000000126817
136      -0.000000218739
137       0.017998206830
138       0.042769015299
139       0.000000098538
140       0.000000789860
141       0.008125833778
142       0.069765440794
143      -0.000000278755
144       0.000002201413
145       0.139530152349
146       0.044679106799
147      -0.000000512874
148       0.000037227229
149      -0.633158240840
150       0.254105566613
151      -0.000050865105
152      -0.000000222659
153      -0.001331654191
154      -0.001242529021
155      -0.000000010500
156      -0.000000020028
 Sym=     1a
 Ene= 3.67987153204652E-01
 Spin= Alpha
 Occup= 0.000000
  1      -0.002824209687
  2      -0.001868673475
  3       0.011724901369
  4      -0.008315463284
  5       0.018633026924
  6      -0.062761473082
  7       0.000363937397
  8      -0.046437458503
  9      -0.027661164135
 10       0.919088398363
 11      -0.057050562844
 12       0.158179660597
 13       0.554906558373
 14      -2.117414941160
 15       0.464241683312
 16      -0.721229882818
 17      -0.489375290131
 18      -0.000760438256
 19      -0.006487121648
 20       0.015239613225
 21       0.010331679563
 22       0.004524168261
 23      -0.002823300360
 24      -0.001867152955
 25      -0.011723047635
 26       0.008313820495
 27       0.018633873977
 28      -0.062764457012
 29      -0.000362352814
 30       0.046433842551
 31      -0.027660379792
 32       0.919008714958
 33       0.057032716071
 34      -0.158179557814
 35       0.554896586916
 36      -2.118943210924
 37      -0.464205274474
 38       0.721584811801
 39      -0.489525888252
 40      -0.000760981927
 41       0.006487707523
 42      -0.015239568294
 43       0.010332383954
 44       0.004525483876
 45       0.026698821159
 46       0.165648562308
 47       1.152337783528
 48      -0.002643094798
 49       0.006182509358
 50      -0.010418440946
 51       0.014930257942
 52      -0.045044306348
 53       1.062535951421
 54      -0.012564879147
 55      -0.004533209102
 56      -0.002674013739
 57       0.014934299657
 58      -0.045003601093
 59       1.062533528146
 60       0.012563503621
 61       0.004533717227
 62      -0.002672810923
 63       0.026698421764
 64       0.165632409937
 65       1.152423944297
 66       0.002641319124
 67      -0.006183279580
 68      -0.010419690641
 69      -0.042642580717
 70      -0.071855989759
 71       0.000001680990
 72      -0.000000847880
 73      -0.044130134964
 74       0.236893373010
 75       0.000004637940
 76      -0.000002945383
 77      -0.174600134827
 78       3.073595071131
 79      -0.000002571576
 80      -0.000017787370
 81       0.970175479206
 82       5.522914096362
 83      -0.000013847692
 84       0.000070279223
 85      -1.973596095961
 86       0.004927481146
 87       0.000000532602
 88       0.000000308858
 89       0.015474562296
 90       0.003824779314
 91       0.009148515538
 92       0.015678719448
 93      -0.029433698290
 94       0.081950794871
 95      -0.039739889869
 96      -0.057945723071
 97      -0.039467149504
 98       0.118493194016
 99      -0.032569268788
100      -0.110997048668
101      -0.117699268989
102       0.278094912312
103      -0.324160506197
104      -0.704886684557
105       0.084489455946
106      -0.541522887220
107       2.777206895892
108       0.000422394111
109      -0.003308114634
110       0.002447358907
111      -0.003029408796
112      -0.001234014260
113       0.009148413480
114       0.015678560377
115       0.029435487130
116      -0.081951566043
117      -0.039740886675
118      -0.057945301707
119       0.039468507955
120      -0.118493092504
121      -0.032570572445
122      -0.110983574983
123       0.117712580305
124      -0.278106673695
125      -0.324165478819
126      -0.705139015767
127      -0.084471306219
128       0.541492713622
129       2.777251317838
130       0.000422960874
131       0.003308442610
132      -0.002447054404
133      -0.003029426524
134      -0.001234243850
135      -0.014731477382
136      -0.023253034724
137      -0.000000810727
138       0.000001835372
139       0.054099000132
140       0.049855022364
141      -0.000001367509
142       0.000001788339
143       0.035159756769
144       0.491846154166
145      -0.000001252790
146       0.000010043559
147       0.453766275521
148      -7.738862577910
149       0.000011909138
150      -0.000036840697
151       3.426130717762
152       0.012882137599
153      -0.000000030176
154      -0.000000136711
155      -0.002999821451
156      -0.002744185767
 Sym=     1a
 Ene= 3.76596024795135E-01
 Spin= Alpha
 Occup= 0.000000
  1       0.000656109494
  2       0.000076291117
  3      -0.002978089348
  4       0.065854332966
  5      -0.037831769856
  6       0.026427061683
  7       0.000473258602
  8       0.079210369006
  9      -0.045515786948
 10      -0.506237735178
 11      -0.234915015657
 12       0.503652916337
 13      -0.722538511448
 14      -3.210627379109
 15       0.142466090779
 16      -1.223170577294
 17       0.745345271102
 18       0.012374425405
 19       0.019319197291
 20      -0.015449133354
 21       0.013328649656
 22      -0.018743298848
 23      -0.000655985169
 24      -0.000076076257
 25      -0.002977432660
 26       0.065854743750
 27       0.037831135942
 28      -0.026427206579
 29       0.000473515303
 30       0.079212612156
 31       0.045515175970
 32       0.506211710891
 33      -0.234917813904
 34       0.503646503482
 35       0.722528252578
 36       3.210708267719
 37       0.142487245287
 38      -1.223181696432
 39      -0.745324375791
 40      -0.012374319742
 41       0.019319145374
 42      -0.015448402184
 43      -0.013328420623
 44       0.018742862585
 45      -0.002879951437
 46       0.012555979224
 47      -0.032166430280
 48      -0.001162956167
 49      -0.000403472426
 50       0.003116639981
 51      -0.016488017072
 52      -0.191489548589
 53       0.257223140310
 54      -0.010423479277
 55       0.013298284383
 56      -0.011058160486
 57       0.016488147424
 58       0.191499446171
 59      -0.257259762053
 60      -0.010424186023
 61       0.013297642298
 62       0.011058168609
 63       0.002879167741
 64      -0.012557836594
 65       0.032141675247
 66      -0.001163481843
 67      -0.000403163103
 68      -0.003116060746
 69       0.000000357166
 70       0.000000575800
 71       0.080351826382
 72      -0.249318694860
 73       0.000000124745
 74      -0.000001339914
 75       0.162797613138
 76      -0.505167377053
 77       0.000001007206
 78      -0.000033288853
 79       0.280838769256
 80      -1.102499014169
 81      -0.000008145508
 82      -0.000092141355
 83      -0.199562178485
 84       1.135536724558
 85       0.000039155217
 86      -0.000000315743
 87       0.018357733962
 88      -0.054386330792
 89      -0.000000187312
 90      -0.000000075569
 91      -0.019753677176
 92      -0.032848043642
 93       0.009534792317
 94      -0.068806895579
 95       0.131830160637
 96       0.104517592602
 97       0.010848692136
 98      -0.100282816148
 99       0.179383336769
100       0.401936904464
101       0.057122324978
102      -0.253779201994
103       0.520154484377
104      -1.014364071307
105      -0.209339568694
106       0.452155903664
107       0.813955974212
108      -0.009867528428
109      -0.006601283895
110       0.014215712874
111       0.000569679060
112      -0.000147444277
113       0.019753509208
114       0.032847747769
115       0.009533566126
116      -0.068805342088
117      -0.131829753287
118      -0.104516285379
119       0.010847209357
120      -0.100280316181
121      -0.179383095385
122      -0.401935518742
123       0.057116159711
124      -0.253776136911
125      -0.520150132010
126       1.014390534036
127      -0.209337688629
128       0.452146978315
129      -0.814015336565
130       0.009867592446
131      -0.006601392293
132       0.014215811201
133      -0.000569581084
134       0.000147459587
135       0.000000174170
136       0.000000273782
137      -0.043859537619
138       0.149995343903
139      -0.000000297673
140      -0.000000571901
141      -0.056908321882
142       0.187152402822
143      -0.000000135233
144      -0.000006641672
145      -0.160588929346
146       0.592294804894
147      -0.000003395791
148       0.000083093624
149       0.317242943030
150      -1.180815070375
151      -0.000043228527
152      -0.000000156995
153      -0.004323752331
154       0.013695451746
155       0.000000028474
156       0.000000049116
 Sym=     1a
 Ene= 4.18603165976643E-01
 Spin= Alpha
 Occup= 0.000000
  1       0.009686114934
  2       0.022341913885
  3      -0.025286426107
  4      -0.008638213126
  5      -0.043695534621
  6      -0.151957468903
  7      -0.037697594696
  8      -0.207917725957
  9      -0.151802504313
 10      -0.557108982275
 11       0.757992512328
 12       1.177426405638
 13       0.726252045539
 14      -1.962219860919
 15      -0.693969708111
 16      -0.625752377191
 17      -1.001115460164
 18       0.005735779207
 19      -0.000227707266
 20      -0.044175636427
 21       0.026692096553
 22      -0.022313367294
 23       0.009676292523
 24       0.022324697180
 25       0.025301348103
 26       0.008623916734
 27      -0.043686814215
 28      -0.151888837356
 29       0.037692532414
 30       0.207897588064
 31      -0.151793311947
 32      -0.556577368434
 33      -0.758353907754
 34      -1.177373257296
 35       0.726120788402
 36      -1.951779921956
 37       0.694437440428
 38       0.623249197467
 39      -0.999708468284
 40       0.005741491675
 41       0.000227448264
 42       0.044171996582
 43       0.026693366714
 44      -0.022300249541
 45       0.029164463051
 46       0.346940153744
 47       0.217143528487
 48       0.019911761629
 49       0.006856574846
 50       0.013663300377
 51       0.045265081763
 52       0.970201407885
 53      -0.226813643687
 54       0.021522069152
 55       0.048652626165
 56       0.008751586885
 57       0.045292285204
 58       0.970606221157
 59      -0.227811346061
 60      -0.021548491156
 61      -0.048646630959
 62       0.008752704031
 63       0.029126521992
 64       0.346401737734
 65       0.217753692307
 66      -0.019929535065
 67      -0.006861742275
 68       0.013640150404
 69      -0.017056597149
 70      -0.034423803913
 71      -0.000001013394
 72       0.000020456117
 73      -0.049344698210
 74       0.244640434617
 75       0.000012071835
 76       0.000026598340
 77      -0.160468863458
 78       0.271267256335
 79      -0.000148679016
 80       0.000153993478
 81       0.194493423662
 82       3.962058568025
 83      -0.000347415900
 84      -0.000441367227
 85      -2.043816454177
 86       0.006049883988
 87       0.000004690341
 88       0.000011195287
 89      -0.001073598164
 90       0.014807071819
 91      -0.006416790016
 92      -0.011540270122
 93       0.014809378727
 94       0.019019700760
 95      -0.042619210805
 96       0.058539337718
 97       0.013017215986
 98      -0.000837652592
 99      -0.068087739382
100       0.077822647441
101       0.103263281131
102       0.230728390684
103      -0.001078178085
104      -1.013268089573
105      -0.166946464674
106       0.634741873101
107      -0.658787749535
108      -0.004031171256
109       0.008797420379
110      -0.005116183332
111      -0.003581300928
112      -0.005984761018
113      -0.006415336850
114      -0.011538691686
115      -0.014806787690
116      -0.018995681992
117      -0.042618246627
118       0.058557162314
119      -0.013015935411
120       0.000864656696
121      -0.068084246178
122       0.077470168810
123      -0.103218871484
124      -0.230655233360
125      -0.001067645295
126      -1.010403070829
127       0.166937887600
128      -0.633966342703
129      -0.659150752492
130      -0.004037873068
131      -0.008794260114
132       0.005115828851
133      -0.003574305470
134      -0.005985274826
135       0.008283258672
136       0.012867714422
137      -0.000005815206
138      -0.000011543238
139      -0.023436522759
140      -0.022988693661
141      -0.000011626414
142      -0.000015103873
143      -0.031736066249
144      -0.449965238140
145      -0.000000234145
146      -0.000048395594
147      -0.108452090803
148       1.837536200587
149       0.000139947071
150       0.000188582526
151      -0.373641019360
152      -0.001458182399
153       0.000000594749
154      -0.000000228811
155       0.000273470549
156       0.002462450917
 Sym=     1a
 Ene= 4.18888332541545E-01
 Spin= Alpha
 Occup= 0.000000
  1       0.016534486658
  2       0.028862503289
  3       0.024085688450
  4      -0.020724377628
  5      -0.014591302842
  6      -0.111901593241
  7      -0.011118282057
  8      -0.029178050945
  9      -0.014997981589
 10      -0.947139721081
 11      -0.597492955466
 12       0.063497570930
 13       0.160991210467
 14     -17.788687157975
 15       0.763241517672
 16      -4.278377727167
 17      -2.308434331383
 18      -0.008650459551
 19      -0.001105891310
 20      -0.005591282011
 21      -0.001523522575
 22      -0.022290015572
 23      -0.016540243117
 24      -0.028875761304
 25       0.024070322006
 26      -0.020727496334
 27       0.014619198899
 28       0.111990306631
 29      -0.011142064751
 30      -0.029294312565
 31       0.015093077756
 32       0.947452921667
 33      -0.597032742069
 34       0.064196933828
 35      -0.161456336099
 36      17.789936144183
 37       0.762827470282
 38      -4.278755430659
 39       2.309076315708
 40       0.008647174597
 41      -0.001106296267
 42      -0.005616869106
 43       0.001507909339
 44       0.022303428976
 45       0.062295002869
 46       0.881758906028
 47      -0.979604288849
 48      -0.028360580382
 49      -0.008451363485
 50       0.037656145745
 51      -0.044558240163
 52      -0.676471405550
 53       1.657697275060
 54      -0.043366803356
 55       0.009195507127
 56      -0.003166274794
 57       0.044529597032
 58       0.675880492694
 59      -1.657565149381
 60      -0.043354027781
 61       0.009224832087
 62       0.003160760029
 63      -0.062314513779
 64      -0.881983645452
 65       0.979465414891
 66      -0.028349063871
 67      -0.008447326516
 68      -0.037664458431
 69       0.000005382937
 70       0.000010766363
 71      -0.004171043737
 72       0.063661360544
 73       0.000015736898
 74      -0.000074807500
 75       0.039398263083
 76       0.082606653253
 77       0.000050367614
 78      -0.000095755284
 79      -0.497137259043
 80       0.490737502188
 81      -0.000042707060
 82      -0.001279246645
 83      -1.130503936994
 84      -1.468238436905
 85       0.000672657367
 86      -0.000003007760
 87       0.015672807225
 88       0.035498793333
 89      -0.000000282646
 90      -0.000004763886
 91      -0.002716621865
 92      -0.003159120603
 93       0.004522618368
 94       0.038298826388
 95       0.000678068868
 96      -0.026586024212
 97       0.003599777675
 98       0.042860283426
 99      -0.002265470585
100       0.574939938910
101       0.064057910483
102       0.119151499430
103      -0.003563712118
104      -4.832895239838
105      -0.004106975025
106       1.328714009349
107       0.627844101847
108       0.011223429822
109       0.005413876194
110      -0.000454016675
111      -0.011763642011
112       0.000826815693
113       0.002720430524
114       0.003165977656
115       0.004531014269
116       0.038312642211
117      -0.000651341566
118       0.026550990683
119       0.003606847427
120       0.042863485939
121       0.002308321818
122      -0.574976926668
123       0.064117468765
124       0.119295991804
125       0.003561544660
126       4.833561656717
127      -0.004219101169
128       1.329107061324
129      -0.627486692994
130      -0.011220458839
131       0.005419074075
132      -0.000456835319
133       0.011766211732
134      -0.000823003066
135      -0.000002363587
136      -0.000003676445
137      -0.018455302442
138      -0.036183438412
139       0.000007913698
140       0.000006685425
141      -0.037586834973
142      -0.047554819138
143       0.000010506010
144       0.000126568087
145       0.002123884144
146      -0.151619365264
147       0.000037259002
148      -0.000542385855
149       0.452248990350
150       0.616481394029
151       0.000085347779
152       0.000000338102
153       0.002024662221
154      -0.000438627627
155      -0.000000066093
156      -0.000000710580
 Sym=     1a
 Ene= 4.72932210782311E-01
 Spin= Alpha
 Occup= 0.000000
  1       0.007217166456
  2       0.012677679480
  3      -0.045768525271
  4       0.032947843426
  5      -0.090923569685
  6      -0.058420079677
  7      -0.150630111689
  8       0.194863079568
  9      -0.240567978938
 10       0.854616692724
 11      -0.142591562299
 12      -0.637217637969
 13       0.596419033123
 14       2.643706895236
 15       0.661675020970
 16       0.516960291371
 17       0.608766609465
 18       0.014476398323
 19      -0.014210938457
 20       0.027851067321
 21      -0.014313454599
 22       0.012632094129
 23       0.007217854475
 24       0.012679006914
 25       0.045769547710
 26      -0.032944525255
 27      -0.090926478649
 28      -0.058427860595
 29       0.150631971980
 30      -0.194857608784
 31      -0.240576584069
 32       0.854680919551
 33       0.142568862841
 34       0.637179789998
 35       0.596482101696
 36       2.644429683780
 37      -0.661648777280
 38      -0.517132512750
 39       0.608782698287
 40       0.014476286371
 41       0.014210668529
 42      -0.027850434855
 43      -0.014315227555
 44       0.012632899135
 45       0.057379735380
 46       0.559744632473
 47      -1.217802020664
 48      -0.030656133336
 49      -0.008886982241
 50      -0.012801874743
 51      -0.015445783567
 52      -0.304638864493
 53       0.094584162126
 54      -0.007144037137
 55      -0.010598359044
 56       0.003200741397
 57      -0.015442963885
 58      -0.304596777427
 59       0.094522722497
 60       0.007142611738
 61       0.010598337135
 62       0.003201218792
 63       0.057379460134
 64       0.559748963725
 65      -1.217802783464
 66       0.030655817225
 67       0.008885738310
 68      -0.012801686814
 69       0.026302107259
 70       0.046279214912
 71      -0.000000542513
 72       0.000001327363
 73      -0.123214068139
 74      -0.172786452914
 75      -0.000001272392
 76       0.000003604394
 77      -0.284637833943
 78      -2.380700506354
 79      -0.000008159548
 80       0.000000694691
 81      -3.070033629958
 82      -4.539718622063
 83      -0.000012727700
 84      -0.000026436121
 85       0.986289399121
 86       0.100328501440
 87       0.000000640055
 88      -0.000000097453
 89       0.037247684471
 90       0.011069777514
 91      -0.003151580572
 92      -0.006207831422
 93      -0.028566477440
 94       0.047711122019
 95      -0.008847898745
 96       0.046060484247
 97      -0.036836921008
 98       0.061950728984
 99      -0.028078753596
100      -0.509844739206
101      -0.163115169620
102       0.285040066613
103       0.173725325108
104      -1.644060659346
105      -0.033438939290
106       0.161325631607
107       0.645313841441
108      -0.030297358660
109      -0.004710037930
110       0.005299544847
111      -0.008911822301
112      -0.003032158943
113      -0.003151285889
114      -0.006207316226
115       0.028566605688
116      -0.047711060869
117      -0.008845927906
118       0.046058043140
119       0.036836916180
120      -0.061950762966
121      -0.028075670484
122      -0.509840358227
123       0.163115559792
124      -0.285034657283
125       0.173721134773
126      -1.643907675854
127       0.033440626262
128      -0.161262304145
129       0.645284152892
130      -0.030297245116
131       0.004710135363
132      -0.005299900165
133      -0.008911577870
134      -0.003032231204
135      -0.022637524209
136      -0.036041496159
137      -0.000000250891
138      -0.000000490744
139      -0.138341159399
140       0.069634524061
141      -0.000000603814
142      -0.000000712649
143      -0.178040526721
144       1.347858861685
145      -0.000000131481
146      -0.000001047110
147      -0.920316506029
148       4.165804994842
149       0.000003327907
150       0.000011962593
151      -1.318716279044
152      -0.009041189683
153       0.000000053010
154      -0.000000039707
155       0.000725040565
156      -0.000857655659
 Sym=     1a
 Ene= 4.89079423474466E-01
 Spin= Alpha
 Occup= 0.000000
  1      -0.039094131238
  2      -0.072199752600
  3       0.005570845656
  4       0.124191937276
  5       0.135216298436
  6       0.381793299068
  7       0.012302371063
  8       0.223717100599
  9       0.378148015938
 10      -1.118264701827
 11      -0.172036109933
 12      -0.912900819432
 13      -1.713654587071
 14      -4.236738757759
 15       0.200708690470
 16      -0.658595487534
 17       0.230246622601
 18       0.007749568165
 19      -0.010532303420
 20       0.018268997514
 21       0.056239799286
 22      -0.003270508110
 23       0.039093968274
 24       0.072199549691
 25       0.005571368647
 26       0.124194552952
 27      -0.135211633299
 28      -0.381793839224
 29       0.012305821224
 30       0.223732302332
 31      -0.378132474136
 32       1.118221315404
 33      -0.172043397116
 34      -0.912944533696
 35       1.713621505722
 36       4.236669763406
 37       0.200727625436
 38      -0.658577915411
 39      -0.230260759521
 40      -0.007749695955
 41      -0.010531737329
 42       0.018270378218
 43      -0.056238541103
 44       0.003270737940
 45      -0.015520038832
 46      -0.472730027404
 47      -0.131537668251
 48       0.010378752894
 49      -0.021721824026
 50      -0.006229029572
 51      -0.054254557013
 52      -0.675331681647
 53       0.521810006584
 54      -0.012638419842
 55       0.002669958592
 56       0.001604624850
 57       0.054254094418
 58       0.675330059947
 59      -0.521799435642
 60      -0.012637818432
 61       0.002669505097
 62      -0.001604761754
 63       0.015518971405
 64       0.472729704912
 65       0.131535346112
 66       0.010377543414
 67      -0.021723375427
 68       0.006230328949
 69      -0.000000433991
 70      -0.000000730601
 71      -0.026804422884
 72       0.045472318822
 73       0.000002207210
 74       0.000001479537
 75      -0.089835686678
 76       0.185194312253
 77       0.000005926921
 78       0.000051593837
 79       0.036061895025
 80      -0.212291230118
 81       0.000025397533
 82       0.000060037040
 83      -0.196853658790
 84      -0.899055494002
 85      -0.000008626821
 86      -0.000001818097
 87       0.010466831923
 88      -0.030713601833
 89      -0.000000624114
 90      -0.000000880594
 91      -0.010983315514
 92      -0.019602356991
 93       0.016254836976
 94      -0.020079267298
 95      -0.090159673304
 96       0.103731477227
 97       0.028296814324
 98      -0.028265267742
 99      -0.132811445940
100      -0.321883006278
101      -0.042829199154
102       0.106925665163
103      -0.057111224326
104      -1.373611850653
105      -0.213242217189
106       0.630633151995
107       0.971369432188
108      -0.012576473542
109       0.006273436438
110      -0.012880464506
111       0.001958581824
112       0.001525119958
113       0.010983442794
114       0.019602594135
115       0.016255385716
116      -0.020077924206
117       0.090160866018
118      -0.103732842227
119       0.028298180841
120      -0.028262914637
121       0.132813692367
122       0.321899165831
123      -0.042835140458
124       0.106925603102
125       0.057106313906
126       1.373623579564
127      -0.213240105206
128       0.630611127660
129      -0.971441649951
130       0.012577483390
131       0.006273902174
132      -0.012880164141
133      -0.001958125073
134      -0.001525146777
135       0.000000483746
136       0.000000782359
137       0.000105774647
138      -0.019113731139
139       0.000002144186
140      -0.000001855966
141      -0.000853516468
142      -0.025634548570
143       0.000002988605
144      -0.000022403551
145      -0.014011709278
146      -0.036487907489
147       0.000012778166
148      -0.000005549837
149       0.196324954330
150       0.253371494209
151      -0.000007348852
152       0.000000127204
153       0.004427338841
154      -0.002733699639
155       0.000000062777
156       0.000000056063
 Sym=     1a
 Ene= 5.26645266432343E-01
 Spin= Alpha
 Occup= 0.000000
  1      -0.009824503275
  2      -0.020446218355
  3       0.006711303169
  4       0.052608571423
  5      -0.113544854551
  6       0.142410527876
  7       0.045814708166
  8       0.264465802038
  9      -0.456396525226
 10       0.487001358137
 11       0.744056162544
 12      -0.733747811526
 13       0.994702983894
 14       0.622487163554
 15      -0.642115678587
 16       0.336221178423
 17       0.258159695567
 18      -0.005493979097
 19       0.022509460236
 20      -0.056982970834
 21      -0.035308291681
 22      -0.016145008604
 23      -0.009823556143
 24      -0.020444489389
 25      -0.006710299855
 26      -0.052606311120
 27      -0.113548611171
 28       0.142401688788
 29      -0.045810675202
 30      -0.264461398244
 31      -0.456407478309
 32       0.487013619107
 33      -0.744065879171
 34       0.733747524812
 35       0.994730449446
 36       0.622544163878
 37       0.642123677435
 38      -0.336223163999
 39       0.258179509396
 40      -0.005494008842
 41      -0.022509775232
 42       0.056983122173
 43      -0.035309404707
 44      -0.016144278276
 45      -0.043659629666
 46      -0.681628950253
 47       1.392653853993
 48       0.005509557323
 49      -0.029599712413
 50       0.004700020860
 51       0.012754441632
 52       0.325125886957
 53      -0.152351415405
 54       0.032548006947
 55       0.003627700153
 56      -0.018254842251
 57       0.012755800330
 58       0.325139764174
 59      -0.152361786833
 60      -0.032548007013
 61      -0.003627439469
 62      -0.018256280604
 63      -0.043659751906
 64      -0.681626981455
 65       1.392668253434
 66      -0.005509527052
 67       0.029599477201
 68       0.004700035421
 69      -0.005674283954
 70      -0.014149691940
 71       0.000000004534
 72       0.000000646952
 73       0.017473090284
 74       0.185672971997
 75      -0.000000138359
 76       0.000002313675
 77      -0.049968581427
 78      -0.902921938844
 79       0.000001081585
 80      -0.000005361024
 81       2.361120754064
 82      -1.577410559161
 83      -0.000003299987
 84      -0.000013819080
 85       0.955039739145
 86      -0.035484675558
 87       0.000000169966
 88      -0.000000242068
 89      -0.006876974540
 90       0.018795248186
 91      -0.006085879307
 92      -0.011225566631
 93       0.037133136265
 94      -0.054467091895
 95      -0.064541856643
 96       0.058449900580
 97       0.053634609959
 98      -0.077636625737
 99      -0.112555087628
100      -0.089762849049
101       0.131635674710
102      -0.317543303045
103       0.091276736966
104       1.349398067381
105       0.128343773351
106      -0.798842255534
107       1.648575288187
108      -0.000316167893
109       0.012232256844
110      -0.008278767910
111       0.002643687401
112       0.002295067785
113      -0.006085516682
114      -0.011224948665
115      -0.037132798731
116       0.054466656132
117      -0.064539346481
118       0.058447543541
119      -0.053634173227
120       0.077636023380
121      -0.112551407518
122      -0.089765722309
123      -0.131633839942
124       0.317544587838
125       0.091281375489
126       1.349435993942
127      -0.128340807231
128       0.798852750257
129       1.648537266573
130      -0.000315757818
131      -0.012232064221
132       0.008278382913
133       0.002643648167
134       0.002294995721
135       0.003232175849
136       0.004749654686
137      -0.000000119263
138      -0.000000232780
139       0.045980784457
140      -0.003972266940
141      -0.000000279171
142      -0.000000359906
143       0.038391051539
144      -0.392707877995
145       0.000000033384
146      -0.000000121608
147       0.318037962509
148      -3.974012841311
149       0.000004741721
150       0.000000271335
151       1.278479736904
152       0.001702592949
153       0.000000030790
154      -0.000000043408
155      -0.007425242151
156      -0.003226335107
 Sym=     1a
 Ene= 5.60171958545957E-01
 Spin= Alpha
 Occup= 0.000000
  1       0.008801740761
  2       0.012409052184
  3      -0.079351036545
  4       0.067341853861
  5      -0.012433446434
  6       0.057375599387
  7      -0.236534040246
  8       0.232360059800
  9       0.016197403375
 10      -0.656463706045
 11      -0.642909552147
 12       0.039570005953
 13       0.072430388744
 14       1.257168658173
 15       0.545239522369
 16       0.417812258843
 17       0.031920878937
 18       0.015374495628
 19      -0.001114489922
 20      -0.028566854612
 21      -0.010509274467
 22       0.021014144614
 23       0.008801165610
 24       0.012408008265
 25       0.079352318171
 26      -0.067342925390
 27      -0.012430495012
 28       0.057381453155
 29       0.236539384601
 30      -0.232362269947
 31       0.016206496614
 32      -0.656447818521
 33       0.642887511088
 34      -0.039595695223
 35       0.072429657002
 36       1.257481267794
 37      -0.545243327933
 38      -0.417901644566
 39       0.031905860963
 40       0.015374614445
 41       0.001115871348
 42       0.028567539142
 43      -0.010509250383
 44       0.021014278614
 45       0.078553378576
 46       1.153726947520
 47      -1.575611601901
 48      -0.026633569317
 49       0.011247121743
 50      -0.000393558043
 51       0.001470170047
 52      -0.215032664871
 53       0.146893403165
 54      -0.014255806295
 55      -0.010207907780
 56       0.016280898039
 57       0.001470014476
 58      -0.215027251027
 59       0.146901914238
 60       0.014254870030
 61       0.010208151921
 62       0.016281786512
 63       0.078554435588
 64       1.153735911979
 65      -1.575652020755
 66       0.026633162160
 67      -0.011248056623
 68      -0.000393202966
 69      -0.008075677105
 70      -0.010323056059
 71       0.000000514551
 72       0.000000676007
 73       0.184449936578
 74      -0.130896789818
 75       0.000001523569
 76       0.000000948432
 77       0.481689970735
 78       3.096617575855
 79      -0.000004072111
 80       0.000000012884
 81       1.919806058996
 82      -1.245357939497
 83       0.000003043291
 84      -0.000000923025
 85       1.637716096954
 86      -0.072654952871
 87       0.000000197609
 88       0.000000592397
 89       0.014462020942
 90      -0.020762788255
 91      -0.013781228489
 92      -0.023767760887
 93      -0.012366691922
 94      -0.056830976204
 95      -0.064730213671
 96       0.093914118874
 97      -0.023023967500
 98      -0.077504008562
 99      -0.103133429067
100       0.214570521329
101      -0.007973426246
102      -0.207281486972
103      -0.197592889221
104       0.398743065796
105      -0.103776278523
106       0.387194022281
107      -0.865909753538
108       0.005703313769
109      -0.011372635664
110       0.000048303786
111       0.013588473012
112       0.006242131807
113      -0.013781482135
114      -0.023768195797
115       0.012365767118
116       0.056831774696
117      -0.064731378001
118       0.093915821238
119       0.023021846923
120       0.077504882448
121      -0.103134743076
122       0.214571288112
123       0.007976293509
124       0.207283802641
125      -0.197600441721
126       0.398783775833
127       0.103776321542
128      -0.387164257028
129      -0.865883829887
130       0.005703008345
131       0.011372334416
132      -0.000048192294
133       0.013588725604
134       0.006242135596
135       0.028424691243
136       0.046156067402
137       0.000000071224
138      -0.000000117948
139       0.138371990132
140      -0.106200293247
141      -0.000000053610
142      -0.000000250375
143       0.196359858046
144      -1.466791789718
145       0.000001512756
146      -0.000000068392
147       0.970648730156
148      -1.682391602080
149      -0.000003381139
150       0.000007288541
151      -0.242864326529
152       0.003740491879
153      -0.000000048524
154      -0.000000023950
155       0.003489040105
156       0.000037877026
 Sym=     1a
 Ene= 5.92652285515040E-01
 Spin= Alpha
 Occup= 0.000000
  1      -0.011309101746
  2      -0.021245839003
  3      -0.092229307578
  4       0.049928327166
  5      -0.013189212988
  6       0.142345929130
  7      -0.350989098762
  8       0.136585052443
  9      -0.050559122274
 10      -0.178588640126
 11       0.838434149303
 12      -0.437555697573
 13       0.683353857628
 14       9.259231439578
 15       0.436277448965
 16       2.612438496771
 17      -0.048034101371
 18       0.022355749875
 19      -0.023230196504
 20      -0.006607727145
 21      -0.000987395339
 22      -0.027739347323
 23       0.011308637750
 24       0.021245037025
 25      -0.092225926208
 26       0.049929049923
 27       0.013188004701
 28      -0.142342693191
 29      -0.350979369636
 30       0.136589900549
 31       0.050552501770
 32       0.178578717688
 33       0.838426224354
 34      -0.437573517060
 35      -0.683326989133
 36      -9.259321470178
 37       0.436248406964
 38       2.612438872313
 39       0.048009017324
 40      -0.022355840623
 41      -0.023229612417
 42      -0.006604635511
 43       0.000987214135
 44       0.027739115004
 45       0.036897385358
 46       0.368235093865
 47      -1.063710728426
 48      -0.004571054814
 49       0.031748508219
 50      -0.028564055669
 51      -0.035994840556
 52      -0.105876284391
 53       0.911983002282
 54       0.017496951974
 55       0.000853541509
 56       0.024678641902
 57       0.035992346807
 58       0.105856326729
 59      -0.911917131678
 60       0.017497178465
 61       0.000852631813
 62      -0.024676533360
 63      -0.036896905619
 64      -0.368226692484
 65       1.063719533281
 66      -0.004570502613
 67       0.031748199584
 68       0.028563495786
 69      -0.000000305552
 70      -0.000000627377
 71      -0.174933644833
 72      -0.095211690311
 73       0.000000574537
 74       0.000004954498
 75      -0.656400683222
 76      -0.289778647545
 77       0.000000546810
 78       0.000012976852
 79       1.856432725817
 80       0.912002570622
 81       0.000025548959
 82       0.000081140766
 83      -0.026514208601
 84       0.335437329319
 85      -0.000031325426
 86      -0.000000581053
 87      -0.012184722632
 88      -0.012735528425
 89       0.000000072606
 90      -0.000000461045
 91       0.001115249960
 92       0.001805734299
 93       0.015112258950
 94      -0.006684931076
 95       0.015436730503
 96      -0.003277861215
 97       0.054032002947
 98       0.002547993252
 99       0.040936585285
100      -0.103743462505
101      -0.236852748606
102      -0.059399121962
103      -0.159645659096
104       1.739266905904
105      -0.405946222449
106      -0.738952969509
107      -0.586143964470
108       0.003907663706
109       0.003017466590
110       0.003427554669
111       0.006032383336
112       0.000875937051
113      -0.001115454842
114      -0.001806100499
115       0.015112993156
116      -0.006683875849
117      -0.015437885570
118       0.003279559661
119       0.054033492589
120       0.002550271174
121      -0.040938469561
122       0.103749223016
123      -0.236852819082
124      -0.059398291511
125       0.159646758065
126      -1.739285806543
127      -0.405944118982
128      -0.738959138401
129       0.586147648438
130      -0.003907628588
131       0.003017677567
132       0.003428031703
133      -0.006032299231
134      -0.000875876768
135       0.000000146661
136       0.000000226129
137       0.003782133997
138       0.004774770685
139       0.000000540915
140      -0.000000300823
141       0.024103335644
142       0.016930234735
143       0.000000349671
144      -0.000010525587
145      -0.177776394989
146      -0.102535256089
147       0.000005486783
148      -0.000030570162
149      -0.457686707900
150      -0.241330886035
151       0.000014242565
152       0.000000134359
153       0.006317066893
154       0.004473434808
155      -0.000000010535
156      -0.000000029891
 Sym=     1a
 Ene= 6.13875324967913E-01
 Spin= Alpha
 Occup= 0.000000
  1       0.026008435331
  2       0.047518899981
  3      -0.104635203076
  4      -0.077467609517
  5       0.118190573112
  6      -0.247947212807
  7      -0.412963287488
  8      -0.199348783830
  9       0.415056805533
 10       0.747395400336
 11       1.003184862690
 12       1.222886308221
 13      -1.603103304843
 14       2.888416387205
 15       0.529023313389
 16       0.548690159220
 17      -0.324361317710
 18      -0.022662996804
 19      -0.028042962366
 20       0.000666938520
 21      -0.018703331568
 22      -0.044475355792
 23      -0.026009120162
 24      -0.047520198241
 25      -0.104630475555
 26      -0.077466647583
 27      -0.118191531832
 28       0.247955477695
 29      -0.412947447106
 30      -0.199344673996
 31      -0.415060710034
 32      -0.747415192821
 33       1.003171606625
 34       1.222874049699
 35       1.603120698187
 36      -2.888383339521
 37       0.528988153582
 38       0.548671750469
 39       0.324376345081
 40       0.022663137738
 41      -0.028042574248
 42       0.000668674780
 43       0.018702908203
 44       0.044475815611
 45       0.077250517442
 46       0.466244653601
 47      -2.459822881624
 48       0.036871517018
 49      -0.020744157681
 50      -0.010527039736
 51       0.006119012480
 52       0.211399603276
 53       0.495925856951
 54       0.010704954014
 55      -0.016301008601
 56       0.006227706299
 57      -0.006120883027
 58      -0.211422630693
 59      -0.495877800336
 60       0.010704697838
 61      -0.016301630468
 62      -0.006227547398
 63      -0.077249738850
 64      -0.466228007956
 65       2.459787926354
 66       0.036872134697
 67      -0.020744130161
 68       0.010527888039
 69       0.000000062511
 70       0.000000106737
 71       0.051926157662
 72      -0.009050958379
 73       0.000000865001
 74      -0.000000914681
 75       0.236536003102
 76       0.017468931964
 77       0.000001728819
 78       0.000017577864
 79      -0.546137070575
 80      -0.313871367362
 81       0.000014249501
 82      -0.000019172222
 83      -0.488039838310
 84       0.341729126276
 85       0.000011251884
 86      -0.000000338776
 87      -0.042102531099
 88      -0.025107532737
 89       0.000000024482
 90      -0.000000304539
 91      -0.000693341447
 92      -0.001645464229
 93       0.005262255562
 94      -0.014007537405
 95      -0.003888990796
 96       0.020742097798
 97       0.017647211022
 98      -0.012575682669
 99      -0.007424263958
100      -0.375050267576
101      -0.088371710250
102      -0.053438879460
103       0.129839739854
104      -0.385386191080
105      -0.146116722580
106      -0.491892472170
107       0.889008547769
108      -0.007378876264
109       0.002711590125
110      -0.002826151719
111       0.004828453288
112      -0.003182978672
113       0.000693213537
114       0.001645224195
115       0.005263036084
116      -0.014006609951
117       0.003888509653
118      -0.020740702757
119       0.017648754948
120      -0.012573753739
121       0.007423658777
122       0.375045887074
123      -0.088372626525
124      -0.053441738459
125      -0.129839782072
126       0.385371080070
127      -0.146125579579
128      -0.491898699002
129      -0.889012207513
130       0.007378801613
131       0.002711953063
132      -0.002826019733
133      -0.004828179543
134       0.003183072345
135       0.000000118320
136       0.000000182146
137      -0.001135332478
138       0.012023003207
139       0.000000497748
140      -0.000000177532
141       0.002657160974
142       0.023361056227
143       0.000000536080
144      -0.000009299887
145       0.010494997588
146       0.038033893093
147       0.000005251716
148      -0.000011326578
149       0.640695924062
150      -0.344648866549
151      -0.000000119051
152       0.000000011930
153       0.003618064940
154      -0.000209293450
155       0.000000000700
156       0.000000023914
 Sym=     1a
 Ene= 6.34422679974998E-01
 Spin= Alpha
 Occup= 0.000000
  1       0.025262113682
  2       0.044504468699
  3       0.130642437043
  4       0.078107020369
  5       0.024794720544
  6      -0.180022245133
  7       0.418364956228
  8       0.362265040901
  9       0.178242726260
 10       0.540514656573
 11      -1.070455331795
 12      -0.794556806448
 13      -0.647985815085
 14       5.438956780651
 15      -1.171015667336
 16       0.671270143180
 17       1.534607108548
 18      -0.005341060883
 19       0.024611382090
 20       0.081566431699
 21       0.014253024929
 22       0.011621664099
 23       0.025259781719
 24       0.044500355119
 25      -0.130639400391
 26      -0.078103846226
 27       0.024783581385
 28      -0.180012270561
 29      -0.418351633921
 30      -0.362251024377
 31       0.178205123601
 32       0.540639347718
 33       1.070399899607
 34       0.794509268185
 35      -0.647839429757
 36       5.437531631689
 37       1.171009911392
 38      -0.670932433276
 39       1.534617737813
 40      -0.005339077891
 41      -0.024609748405
 42      -0.081566088501
 43       0.014252193854
 44       0.011622094453
 45       0.025151805365
 46       0.220236630812
 47      -0.775168419283
 48       0.002470193442
 49      -0.001437237240
 50      -0.005702798490
 51       0.118572110828
 52       0.914093350602
 53      -3.721615954576
 54      -0.019674062509
 55      -0.042553540130
 56      -0.033042129621
 57       0.118566722794
 58       0.914032907772
 59      -3.721361535171
 60       0.019671852003
 61       0.042556107330
 62      -0.033042898595
 63       0.025145436177
 64       0.220154642408
 65      -0.774970443871
 66      -0.002469425610
 67       0.001435630068
 68      -0.005704647773
 69       0.014313932504
 70       0.030496256240
 71      -0.000005018532
 72      -0.000000545304
 73      -0.003473610933
 74      -0.278024746899
 75      -0.000019824551
 76      -0.000000499291
 77       0.056218701243
 78      -0.319732789453
 79       0.000065678312
 80      -0.000024147455
 81      -0.938736535899
 82      -7.910383525515
 83       0.000026507447
 84       0.000013395697
 85       2.758533960174
 86       0.029535837949
 87       0.000000147562
 88      -0.000000691373
 89       0.014487873511
 90       0.026283135835
 91      -0.002427468810
 92      -0.003812170364
 93       0.022734749322
 94       0.021974734772
 95      -0.007374622058
 96       0.006462280338
 97       0.049497004199
 98       0.057136192634
 99      -0.011195390071
100      -0.032032317829
101      -0.069807764842
102      -0.077234861944
103      -0.099714563027
104       0.187307898920
105      -0.125902919170
106      -0.179820866201
107       0.112977524680
108      -0.004960403814
109       0.006110280609
110       0.013660033515
111      -0.001836157467
112      -0.000606436711
113      -0.002427426020
114      -0.003812053299
115      -0.022734656228
116      -0.021975940857
117      -0.007373865200
118       0.006460306085
119      -0.049496605476
120      -0.057137589079
121      -0.011192742191
122      -0.032004344315
123       0.069798909045
124       0.077235342801
125      -0.099745757119
126       0.187367526654
127       0.125853327410
128       0.179834545981
129       0.112853590874
130      -0.004959569523
131      -0.006110169447
132      -0.013661006951
133      -0.001836535503
134      -0.000606528858
135      -0.002981225096
136      -0.004238833407
137       0.000000116036
138       0.000000612214
139      -0.010096065044
140       0.000627076350
141       0.000000749111
142       0.000000791570
143       0.009673001164
144       0.257133028704
145      -0.000006556262
146       0.000004804780
147      -0.126900015437
148       1.383690546393
149      -0.000015782017
150      -0.000019035317
151      -0.638361194717
152      -0.008245799723
153       0.000000195168
154      -0.000000050424
155       0.002557777731
156       0.000412742839
 Sym=     1a
 Ene= 6.46404949465293E-01
 Spin= Alpha
 Occup= 0.000000
  1       0.020695408058
  2       0.038000599491
  3       0.102114966290
  4      -0.070351747236
  5       0.085598654263
  6      -0.166111687794
  7       0.429062829494
  8      -0.180007661319
  9       0.279919635054
 10       0.081245943805
 11      -1.179166387712
 12       1.362513007298
 13      -1.602081645179
 14      12.275750084073
 15      -0.476071084069
 16       2.900599311629
 17       0.570521366816
 18      -0.043991075376
 19       0.029604339241
 20      -0.001634769234
 21      -0.012636184665
 22       0.024297714352
 23      -0.020697255533
 24      -0.038003903964
 25       0.102123553687
 26      -0.070346425215
 27      -0.085599719226
 28       0.166127626801
 29       0.429091100165
 30      -0.179983683350
 31      -0.279929558868
 32      -0.081301360866
 33      -1.179192928016
 34       1.362453729139
 35       1.602120557252
 36     -12.276210855554
 37      -0.476143481318
 38       2.900661615096
 39      -0.570661659299
 40       0.043990910213
 41       0.029605725271
 42      -0.001629308553
 43       0.012634977522
 44      -0.024297604805
 45       0.021165177764
 46       0.295965823508
 47      -0.506443980786
 48      -0.000290458492
 49      -0.031628171283
 50       0.016618533327
 51       0.055577400378
 52       0.501825724117
 53      -2.932915543532
 54      -0.029356010473
 55       0.015414165259
 56       0.005508985044
 57      -0.055585641887
 58      -0.501901055397
 59       2.933186021390
 60      -0.029356581172
 61       0.015411483113
 62      -0.005506834207
 63      -0.021167342238
 64      -0.295965557180
 65       0.506523818540
 66      -0.000289409673
 67      -0.031628509861
 68      -0.016617030340
 69      -0.000000641127
 70      -0.000001331825
 71      -0.115466640967
 72      -0.013642740161
 73       0.000000372123
 74       0.000011432496
 75      -0.472842818663
 76      -0.087448391275
 77      -0.000000528639
 78       0.000022029805
 79       1.729052048855
 80      -0.281168661141
 81       0.000030185802
 82       0.000330997858
 83       0.699153573318
 84       0.566626456946
 85      -0.000118489334
 86      -0.000000900625
 87       0.007290898711
 88       0.002826339999
 89      -0.000000251239
 90      -0.000001170405
 91      -0.000938634950
 92      -0.002203096107
 93      -0.001417942882
 94      -0.006093778187
 95      -0.018318013749
 96       0.024036373115
 97       0.000707231162
 98      -0.007566825475
 99      -0.060928157204
100      -0.248361707069
101      -0.078732669111
102      -0.067754712455
103       0.394446262462
104      -1.307138046814
105      -0.752680142828
106       0.092290014433
107       1.774198116674
108      -0.011109285986
109      -0.001829704111
110      -0.004690591413
111      -0.000677997079
112      -0.001028870979
113       0.000938853377
114       0.002203487514
115      -0.001416126592
116      -0.006092707228
117       0.018318817937
118      -0.024038452543
119       0.000710662414
120      -0.007563822803
121       0.060929846613
122       0.248376971272
123      -0.078736035841
124      -0.067757739817
125      -0.394444885811
126       1.307128222777
127      -0.752679414716
128       0.092264741158
129      -1.774217332988
130       0.011109773455
131      -0.001828916786
132      -0.004689629915
133       0.000678009437
134       0.001028777076
135       0.000000121792
136       0.000000170877
137      -0.002170451219
138       0.006109007563
139       0.000000311011
140       0.000000139966
141       0.008681039555
142       0.007258854253
143      -0.000000423729
144      -0.000011315690
145      -0.167191818177
146       0.082019395106
147       0.000006102794
148      -0.000043187981
149      -0.397394737668
150      -0.676337255201
151       0.000023351251
152       0.000000346173
153       0.003297213157
154      -0.005139684571
155      -0.000000048788
156      -0.000000062853
 Sym=     1a
 Ene= 6.61591949118421E-01
 Spin= Alpha
 Occup= 0.000000
  1       0.023264182589
  2       0.040919788407
  3       0.016625435805
  4       0.157718645254
  5       0.025174900215
  6      -0.083518038818
  7       0.082939337271
  8       0.548834429247
  9       0.120318574893
 10      -2.060490921466
 11      -0.167137666435
 12      -3.397970388441
 13       0.065347913985
 14      22.684367824268
 15      -0.042260984020
 16       5.288207254083
 17       0.704799914865
 18       0.016768682908
 19       0.001810358031
 20       0.005233840763
 21       0.043614793285
 22       0.006295980195
 23      -0.023266097420
 24      -0.040923307804
 25       0.016628447945
 26       0.157722962112
 27      -0.025177297037
 28       0.083538818453
 29       0.082949428619
 30       0.548854466479
 31      -0.120332614368
 32       2.060414333527
 33      -0.167037450044
 34      -3.398037870425
 35      -0.065283059242
 36     -22.684642878508
 37      -0.042271396146
 38       5.288229839971
 39      -0.704876375676
 40      -0.016769671294
 41       0.001809691852
 42       0.005240060985
 43      -0.043615839534
 44      -0.006293851056
 45       0.057811053138
 46       0.822533430013
 47      -2.250723899047
 48       0.013260738427
 49       0.018075309011
 50       0.004555569896
 51       0.065785250683
 52       0.846714007858
 53      -2.681222464817
 54      -0.015465496977
 55       0.032144008420
 56       0.003430762057
 57      -0.065789626667
 58      -0.846786059871
 59       2.681347987563
 60      -0.015464617776
 61       0.032145392990
 62      -0.003427915510
 63      -0.057813768109
 64      -0.822503462010
 65       2.250851711437
 66       0.013263613869
 67       0.018071337674
 68      -0.004553632091
 69      -0.000000432088
 70      -0.000000978746
 71       0.022939356764
 72      -0.001011011066
 73      -0.000000106120
 74       0.000009708737
 75       0.097649641676
 76       0.109670830412
 77      -0.000002205341
 78       0.000035100757
 79      -0.491868678918
 80      -0.329261564893
 81       0.000057903440
 82       0.000186891174
 83      -0.172257172994
 84       0.665351472705
 85      -0.000060542699
 86      -0.000000446634
 87      -0.008368127592
 88      -0.022978698031
 89       0.000000579918
 90      -0.000001598744
 91       0.008261347769
 92       0.014075687566
 93      -0.003017051547
 94      -0.014076317352
 95       0.034798370184
 96      -0.047727140041
 97      -0.013046297779
 98      -0.028203159399
 99       0.070128557277
100      -0.288735107204
101       0.060665127662
102       0.171739150851
103       0.017244770315
104       2.134726769654
105       0.302095498019
106       0.277874551315
107      -1.059246687438
108       0.003567670407
109      -0.001761934927
110      -0.006494688692
111       0.010184614457
112       0.000799549636
113      -0.008261273109
114      -0.014075531150
115      -0.003015700172
116      -0.014075606042
117      -0.034798222369
118       0.047725476600
119      -0.013045058172
120      -0.028200652538
121      -0.070127419204
122       0.288762546648
123       0.060674131490
124       0.171738861967
125      -0.017251439834
126      -2.134738343872
127       0.302129892368
128       0.277843835947
129       1.059206256852
130      -0.003567264931
131      -0.001760947054
132      -0.006493910133
133      -0.010184718497
134      -0.000799495145
135       0.000000150443
136       0.000000186904
137       0.002713447838
138       0.021139182048
139       0.000000056939
140       0.000000997094
141       0.001222379575
142       0.036461294323
143      -0.000000845304
144      -0.000027969926
145       0.051111069118
146       0.041112187228
147       0.000010168857
148      -0.000031597974
149       0.110001374196
150       0.202651771959
151       0.000011057072
152       0.000000091632
153       0.000690475505
154       0.004351781225
155       0.000000106260
156      -0.000000168281
 Sym=     1a
 Ene= 6.82153351231770E-01
 Spin= Alpha
 Occup= 0.000000
  1      -0.016233117627
  2      -0.029786776915
  3       0.125922455452
  4      -0.036230867787
  5      -0.057008515695
  6       0.176424497490
  7       0.427382839390
  8      -0.210281201968
  9      -0.248900845092
 10      -0.871347276006
 11      -3.935957328955
 12       0.871718535660
 13       1.159181690960
 14      -0.701138094942
 15      -1.394394546925
 16       0.252246193465
 17       0.068444979429
 18      -0.014901008682
 19       0.028199688767
 20      -0.095409765781
 21       0.004608177940
 22       0.063787993782
 23      -0.016233101226
 24      -0.029786750228
 25      -0.125923614610
 26       0.036226396403
 27      -0.057007976040
 28       0.176425442370
 29      -0.427387193207
 30       0.210265208505
 31      -0.248898618368
 32      -0.871349661937
 33       3.935972238443
 34      -0.871669781980
 35       1.159254020598
 36      -0.699849965833
 37       1.394397210495
 38      -0.252560366491
 39       0.068526205267
 40      -0.014901309441
 41      -0.028199010324
 42       0.095410661943
 43       0.004610332748
 44       0.063787775066
 45      -0.050542183880
 46       0.666341197438
 47       2.667504640617
 48      -0.061977423587
 49       0.083607821004
 50       0.038837433690
 51       0.008889913132
 52      -0.827596350138
 53      -1.122677917643
 54      -0.060522903571
 55      -0.052041236758
 56       0.040024696203
 57       0.008892502268
 58      -0.827574201432
 59      -1.122787115333
 60       0.060523449061
 61       0.052040469880
 62       0.040025001650
 63      -0.050540075993
 64       0.666377166861
 65       2.667441315343
 66       0.061976993455
 67      -0.083608535277
 68       0.038838696898
 69       0.002252914727
 70       0.000961170752
 71       0.000000168439
 72      -0.000000180157
 73       0.025470814417
 74       0.021166819152
 75       0.000000582757
 76      -0.000001262647
 77      -0.001352254909
 78       2.091041761697
 79       0.000000023161
 80       0.000005574411
 81       1.369508137334
 82       0.363747938637
 83      -0.000000112954
 84      -0.000023564514
 85       0.361193972082
 86      -0.010519808973
 87      -0.000000309933
 88      -0.000000193157
 89       0.031650243998
 90      -0.064676880240
 91      -0.002543720477
 92      -0.004736283314
 93      -0.016530711393
 94      -0.016030869800
 95      -0.003119547152
 96       0.025623101766
 97       0.000270513529
 98      -0.052411012913
 99       0.005308468952
100       0.244517526317
101      -0.315059653877
102       0.114736966619
103      -0.144390118888
104      -0.697165648200
105      -0.820038885364
106       0.787431913805
107      -1.040081475720
108       0.002021494392
109      -0.018749196192
110      -0.005016507067
111       0.000688804644
112       0.006701804501
113      -0.002543551154
114      -0.004735932770
115       0.016530092953
116       0.016031059372
117      -0.003118925792
118       0.025620015222
119      -0.000271418700
120       0.052411399305
121       0.005310190451
122       0.244543806495
123       0.315054343460
124      -0.114735901935
125      -0.144403061860
126      -0.697060787755
127       0.820030201136
128      -0.787445793356
129      -1.040101705804
130       0.002021576257
131       0.018748993907
132       0.005016699013
133       0.000688925833
134       0.006701936400
135       0.008231353350
136       0.011804111315
137       0.000000091888
138      -0.000000456280
139       0.005636959622
140       0.012325919257
141       0.000000201361
142      -0.000000783472
143      -0.015490569561
144      -1.060696462427
145       0.000000222580
146      -0.000000743596
147       0.390949915168
148       0.363216307788
149       0.000000139449
150       0.000003199194
151      -0.553370538760
152      -0.003665492678
153      -0.000000010987
154      -0.000000041785
155       0.007966444774
156      -0.006510227170
 Sym=     1a
 Ene= 7.35945078154826E-01
 Spin= Alpha
 Occup= 0.000000
  1      -0.004436866900
  2      -0.010244808079
  3       0.013375458731
  4      -0.043990046325
  5      -0.079842260888
  6       0.090006471852
  7       0.041529732941
  8      -0.145547682785
  9      -0.203550940808
 10       0.351304437523
 11       0.998288691449
 12       0.133276850135
 13       0.476480711716
 14      -0.024797152494
 15      -0.173552018312
 16       0.327838721344
 17       0.202560345319
 18       0.029976986234
 19       0.011855604616
 20       0.067063090223
 21       0.016444638774
 22      -0.016587587032
 23      -0.004436523146
 24      -0.010244118746
 25      -0.013375241336
 26       0.043991008398
 27      -0.079842356584
 28       0.090001615153
 29      -0.041529900203
 30       0.145550135600
 31      -0.203550843795
 32       0.351306719314
 33      -0.998290716549
 34      -0.133272374240
 35       0.476451919145
 36      -0.024908936340
 37       0.173552574309
 38      -0.327804115337
 39       0.202567030053
 40       0.029976687053
 41      -0.011856663227
 42      -0.067063065254
 43       0.016444184868
 44      -0.016587499847
 45      -0.015359800308
 46      -0.489541084768
 47       0.626121648990
 48      -0.023214536333
 49      -0.038707161584
 50      -0.002743012253
 51      -0.008889669723
 52       0.345086560841
 53       0.629838609198
 54       0.040236408673
 55       0.026148181539
 56      -0.049975881189
 57      -0.008890354708
 58       0.345087143447
 59       0.629840169519
 60      -0.040235802547
 61      -0.026149055155
 62      -0.049975472310
 63      -0.015360075431
 64      -0.489551266177
 65       0.626125114823
 66       0.023214363119
 67       0.038707316799
 68      -0.002742773106
 69       0.005935434584
 70       0.016473457649
 71      -0.000000020500
 72       0.000000268834
 73       0.260255778576
 74      -0.301109051338
 75      -0.000000380864
 76       0.000001004196
 77       0.907926969433
 78       2.528575723140
 79       0.000001077354
 80      -0.000007566785
 81      -5.593946868189
 82      -0.193881936473
 83       0.000000094952
 84      -0.000004917736
 85      -0.222581867742
 86      -0.043685528667
 87       0.000000283280
 88       0.000000104077
 89      -0.011454240986
 90       0.048324810483
 91      -0.004602932694
 92      -0.010202050611
 93       0.026337705034
 94       0.003284907732
 95       0.029186774366
 96       0.102493010365
 97       0.058331658851
 98      -0.010838439273
 99       0.033283965891
100      -1.212091025645
101      -0.162022779421
102       0.649704456576
103       0.118660916914
104      -3.885067702934
105      -0.248970478891
106       1.378618992328
107       0.076000461304
108      -0.012355330962
109       0.010970006221
110       0.022293071057
111       0.014859981767
112       0.007062148930
113      -0.004602866890
114      -0.010201962272
115      -0.026337068259
116      -0.003284734755
117       0.029186946029
118       0.102493412469
119      -0.058330312640
120       0.010838931038
121       0.033283893364
122      -1.212106396126
123       0.162023500746
124      -0.649706724318
125       0.118664835831
126      -3.885093407291
127       0.248972439230
128      -1.378625112249
129       0.075990107766
130      -0.012355259591
131      -0.010969857278
132      -0.022293259137
133       0.014860040127
134       0.007062005282
135       0.009117109517
136       0.016248835676
137      -0.000000127939
138       0.000000032684
139       0.058760167943
140      -0.070626762805
141      -0.000000307474
142      -0.000000048923
143       0.077644787906
144       1.022764538836
145      -0.000000127728
146       0.000000835586
147       0.270993081423
148       4.454576978948
149      -0.000001996368
150       0.000001041381
151      -1.932905155889
152       0.038242790774
153       0.000000023497
154       0.000000011495
155       0.004388985688
156       0.006165532170
 Sym=     1a
 Ene= 7.76748415232028E-01
 Spin= Alpha
 Occup= 0.000000
  1       0.000090127534
  2       0.001614495470
  3       0.031104872860
  4       0.026161207883
  5       0.036085231524
  6      -0.084974848823
  7       0.123163343875
  8       0.066396383613
  9       0.097030704733
 10       0.532262789382
 11      -0.349096251958
 12      -0.577636075939
 13      -0.162503046689
 14      -1.784659456698
 15      -0.058644666911
 16      -1.425908520115
 17       1.062706775159
 18      -0.008597121352
 19      -0.031156504111
 20       0.000724213917
 21       0.008301805458
 22       0.013430145890
 23      -0.000089320197
 24      -0.001612859425
 25       0.031104484169
 26       0.026160353643
 27      -0.036085368578
 28       0.084960046237
 29       0.123161976819
 30       0.066395043393
 31      -0.097029929902
 32      -0.532208634393
 33      -0.349108153773
 34      -0.577619896433
 35       0.162503588966
 36       1.784708767377
 37      -0.058646958698
 38      -1.425912624427
 39      -1.062695403995
 40       0.008597575148
 41      -0.031156449820
 42       0.000723792558
 43      -0.008300743736
 44      -0.013430141404
 45       0.003471184440
 46      -0.132264316401
 47       0.277826667011
 48       0.003519069798
 49       0.010514263646
 50      -0.031617261174
 51       0.005579086549
 52      -0.138728527940
 53      -0.545429550695
 54      -0.015434854390
 55      -0.017677101435
 56       0.011587323025
 57      -0.005578621175
 58       0.138731166312
 59       0.545410054143
 60      -0.015433976693
 61      -0.017676906725
 62      -0.011588015846
 63      -0.003470886603
 64       0.132257786959
 65      -0.277844451015
 66       0.003518014627
 67       0.010514166695
 68       0.031616828157
 69      -0.000000103342
 70      -0.000000175056
 71       0.070457038012
 72      -0.196832467081
 73       0.000000848211
 74       0.000000674859
 75       0.291879393614
 76      -0.837941618057
 77       0.000001928595
 78      -0.000006372880
 79      -1.955316757263
 80       6.266362791397
 81      -0.000019774540
 82      -0.000035353963
 83      -0.438974787278
 84       2.098906308147
 85       0.000012759114
 86      -0.000000320638
 87       0.022458450111
 88       0.007869740726
 89       0.000000107664
 90       0.000000084115
 91      -0.002860237159
 92      -0.005802531147
 93       0.017719370098
 94      -0.029028152798
 95      -0.022977238507
 96       0.046991208475
 97       0.031332824945
 98      -0.040077805532
 99      -0.017038145128
100      -1.092050536723
101      -0.036990441216
102       0.213119739430
103      -0.548083577390
104      -5.780458993239
105      -0.280281575669
106       2.393794449582
107      -2.433875719385
108       0.005760922944
109      -0.000071365731
110       0.021524855178
111       0.016453708610
112       0.014163302528
113       0.002860180562
114       0.005802401935
115       0.017719129682
116      -0.029028231319
117       0.022976803438
118      -0.046989801518
119       0.031332165506
120      -0.040078084023
121       0.017036584722
122       1.092039545251
123      -0.036987695944
124       0.213116942413
125       0.548092401561
126       5.780422548521
127      -0.280271651020
128       2.393789251764
129       2.433889446826
130      -0.005761141555
131      -0.000071410390
132       0.021524865876
133      -0.016453635584
134      -0.014163194409
135       0.000000075293
136       0.000000145960
137       0.020527398963
138      -0.058014574194
139       0.000000418289
140      -0.000001021261
141       0.024380731040
142      -0.058094268495
143       0.000000675215
144       0.000007591500
145       0.187513975852
146      -0.651821467664
147      -0.000001805962
148       0.000022049926
149       0.102426962574
150      -0.550031492554
151      -0.000011061569
152       0.000000186822
153       0.000628576517
154      -0.009259111749
155      -0.000000037392
156      -0.000000031892
 Sym=     1a
 Ene= 8.42962208000088E-01
 Spin= Alpha
 Occup= 0.000000
  1      -0.049961069324
  2      -0.105138535181
  3      -0.007294026911
  4      -0.041475583805
  5      -0.002064080907
  6       1.080024945310
  7      -0.053027373767
  8       0.056605631731
  9       0.050818977115
 10      -3.531150566598
 11       0.222922598265
 12       0.910519105916
 13      -0.419936822522
 14      -2.894185772396
 15       0.025959634300
 16      -0.091791781234
 17      -0.729130964621
 18       0.021189574312
 19       0.023140927786
 20       0.059154115090
 21      -0.097266623572
 22      -0.008882184194
 23      -0.049960181437
 24      -0.105136744637
 25       0.007295079524
 26       0.041475893716
 27      -0.002063849355
 28       1.080007025254
 29       0.053027143906
 30      -0.056604459058
 31       0.050820841733
 32      -3.531062578432
 33      -0.222940832563
 34      -0.910539214170
 35      -0.419949654055
 36      -2.894085626462
 37      -0.025967103974
 38       0.091757937649
 39      -0.729152088920
 40       0.021190306913
 41      -0.023138540160
 42      -0.059154284299
 43      -0.097266515146
 44      -0.008877477623
 45      -0.011091944670
 46       0.343160827950
 47       0.890691132885
 48      -0.061540539982
 49      -0.007377428221
 50       0.060435060404
 51       0.001235945838
 52       0.476646233802
 53       1.316704295982
 54       0.090714364627
 55       0.004681564240
 56      -0.040051596087
 57       0.001236612244
 58       0.476644335916
 59       1.316699663718
 60      -0.090714444125
 61      -0.004677293412
 62      -0.040050956158
 63      -0.011091591859
 64       0.343151867954
 65       0.890653560484
 66       0.061539481908
 67       0.007374464686
 68       0.060431497413
 69       0.076857207393
 70       0.157050974915
 71      -0.000000131306
 72      -0.000000653303
 73      -0.117061686186
 74      -1.487111221040
 75       0.000000054346
 76      -0.000006335258
 77      -0.197298640741
 78       6.782569607620
 79      -0.000001549917
 80       0.000032751126
 81       1.112899924628
 82       4.368584122100
 83       0.000000107141
 84       0.000010076162
 85      -1.289312239560
 86       0.103560949378
 87      -0.000000154779
 88       0.000000853094
 89       0.007960320973
 90       0.037683777633
 91      -0.003136026782
 92      -0.005381017361
 93       0.004183996039
 94      -0.011565228198
 95       0.038733828896
 96       0.022421441591
 97       0.008047359235
 98      -0.028459631091
 99       0.131923002804
100       0.006539943591
101       0.015638899070
102       0.271479930044
103      -0.897701586040
104       0.593397839552
105      -0.002098303843
106       0.524434571247
107      -0.891880049396
108       0.003705138048
109      -0.004604518020
110       0.022685891403
111       0.008270070804
112      -0.003240670433
113      -0.003135974480
114      -0.005380917769
115      -0.004184282893
116       0.011565497645
117       0.038735005931
118       0.022420982846
119      -0.008048327329
120       0.028460867279
121       0.131926562433
122       0.006550019443
123      -0.015638074945
124      -0.271482483672
125      -0.897711361670
126       0.593490562454
127       0.002066795053
128      -0.524393604037
129      -0.891839550632
130       0.003705324505
131       0.004604208980
132      -0.022685702894
133       0.008269761779
134      -0.003240909772
135      -0.016671294337
136      -0.030902096591
137       0.000000008396
138      -0.000000600028
139      -0.085463881599
140       0.198711803305
141       0.000000029720
142      -0.000001060560
143      -0.098899012081
144      -1.248574130207
145       0.000000448069
146      -0.000002167471
147       0.416930319793
148      -2.875002019228
149       0.000000176750
150       0.000001644319
151       1.470449695560
152      -0.058853619173
153      -0.000000006101
154      -0.000000117048
155       0.016029797590
156       0.012820278508
 Sym=     1a
 Ene= 9.13406621208789E-01
 Spin= Alpha
 Occup= 0.000000
  1      -0.036890169054
  2      -0.079414357286
  3      -0.005877935083
  4      -0.000030081524
  5       0.007573228462
  6       1.041438337192
  7      -0.082463953932
  8      -0.004519204855
  9      -0.002295838028
 10      -6.075106036662
 11       0.024051287203
 12      -1.129875929181
 13      -0.530395307567
 14      -3.166321571033
 15       0.071209522790
 16      -0.663067284319
 17      -0.189621230334
 18      -0.050449470233
 19       0.198813736145
 20      -0.018383105768
 21       0.018622927387
 22      -0.167653816451
 23       0.036886225295
 24       0.079405810932
 25      -0.005878767100
 26      -0.000030796840
 27      -0.007569020936
 28      -1.041338915614
 29      -0.082463526519
 30      -0.004536894065
 31       0.002304307975
 32       6.074733926611
 33       0.024105271594
 34      -1.129882992763
 35       0.530276591337
 36       3.166605314660
 37       0.071217770036
 38      -0.663070909658
 39       0.189711658683
 40       0.050444909743
 41       0.198816124283
 42      -0.018377195646
 43      -0.018630510028
 44       0.167655411889
 45      -0.008766322623
 46       0.663558475021
 47       0.471852587155
 48      -0.026348643189
 49      -0.065646230375
 50       0.165025956242
 51      -0.012267322435
 52       0.607658560107
 53       0.466063276664
 54       0.027456863897
 55       0.146233009863
 56      -0.063618946237
 57       0.012267722504
 58      -0.607626144864
 59      -0.466116738127
 60       0.027451584562
 61       0.146237046896
 62       0.063627946992
 63       0.008767382383
 64      -0.663507932800
 65      -0.471883902844
 66      -0.026343720963
 67      -0.065649644858
 68      -0.165023267622
 69      -0.000004453950
 70      -0.000009429398
 71      -0.010516514684
 72       0.000184939983
 73       0.000002010689
 74       0.000099472988
 75       0.016226659904
 76      -0.167229929391
 77       0.000012341323
 78      -0.000499298998
 79      -0.142545646495
 80      -0.001171884961
 81      -0.000069240108
 82      -0.000410449158
 83       0.260806086077
 84      -0.007108748463
 85       0.000163516755
 86      -0.000006385832
 87      -0.110186140537
 88       0.008481465062
 89      -0.000000935872
 90      -0.000001207631
 91       0.000109987874
 92      -0.000772167779
 93      -0.097142093514
 94      -0.015322588097
 95      -0.036262288683
 96       0.029807111232
 97      -0.278889386126
 98      -0.031948111258
 99      -0.141725777581
100      -0.527221971403
101       0.441391946009
102       0.099088955376
103       0.860731086581
104      -2.199666668812
105      -0.765261138353
106       0.595183554534
107      -0.067504745632
108      -0.015643223323
109      -0.024602318520
110      -0.007203990466
111       0.017993596307
112      -0.007911612671
113      -0.000109569336
114       0.000773184071
115      -0.097140208505
116      -0.015323399272
117       0.036263476873
118      -0.029820540372
119      -0.278884156398
120      -0.031949358776
121       0.141732357177
122       0.527323035902
123       0.441361377284
124       0.099138982490
125      -0.860757881439
126       2.200127829493
127      -0.765294623875
128       0.595311827821
129       0.067443039963
130       0.015644831535
131      -0.024601813007
132      -0.007201131364
133      -0.017994328859
134       0.007910770510
135      -0.000000134881
136      -0.000000283018
137       0.055414392577
138      -0.015570668696
139       0.000001651629
140       0.000001323630
141       0.150920971773
142      -0.036050919963
143       0.000000048871
144       0.000063157618
145      -0.160623701080
146       0.109197818949
147      -0.000022116562
148       0.000236114802
149       0.132144573106
150       0.148518355578
151      -0.000128492803
152       0.000003147216
153       0.010328004887
154      -0.004440520174
155      -0.000000255643
156      -0.000000068368
 Sym=     1a
 Ene= 9.27382718121872E-01
 Spin= Alpha
 Occup= 0.000000
  1       0.048226305854
  2       0.105105264962
  3      -0.007353609494
  4      -0.000962018325
  5      -0.042346656405
  6      -1.213330464844
  7      -0.023509566877
  8      -0.194850700047
  9      -0.131652943657
 10       4.421247899882
 11       0.057059241993
 12      -0.234468818918
 13       1.376661769855
 14      -2.346022259452
 15       0.032449300674
 16      -0.034221315296
 17      -0.722588269503
 18       0.016538624932
 19       0.007387711319
 20       0.034399357920
 21       0.098950173123
 22      -0.007284469964
 23       0.048231270785
 24       0.105116144985
 25       0.007353217478
 26       0.000961585811
 27      -0.042347694403
 28      -1.213478370139
 29       0.023507253716
 30       0.194847455949
 31      -0.131654409654
 32       4.422108480988
 33      -0.057058169549
 34       0.234307234620
 35       1.376755688632
 36      -2.346031791999
 37      -0.032450409382
 38       0.034259965917
 39      -0.722555641974
 40       0.016541597439
 41      -0.007368686570
 42      -0.034402107801
 43       0.098949004562
 44      -0.007271791685
 45      -0.014187338196
 46      -0.482829670793
 47       0.404310039322
 48       0.058678007359
 49      -0.032578831175
 50      -0.018691372791
 51      -0.010744539774
 52      -0.597570398162
 53       0.288144401130
 54      -0.079988862995
 55       0.025669855736
 56      -0.047049692010
 57      -0.010743437832
 58      -0.597665826329
 59       0.288120700630
 60       0.079995149610
 61      -0.025656499920
 62      -0.047046470343
 63      -0.014187103618
 64      -0.482921745445
 65       0.404279732548
 66      -0.058684161745
 67       0.032575626511
 68      -0.018705663838
 69       0.077099783587
 70       0.162933620572
 71      -0.000000489877
 72      -0.000000153312
 73      -0.010316949266
 74      -1.722080776335
 75       0.000001673623
 76      -0.000003714792
 77      -0.194035144355
 78       9.009277807471
 79      -0.000011027601
 80      -0.000019008410
 81       1.188215697877
 82       7.488252111538
 83       0.000002998739
 84      -0.000006505573
 85      -3.130160130250
 86       0.103430480322
 87      -0.000007059738
 88      -0.000001977663
 89       0.014634522280
 90      -0.000100911003
 91      -0.001350132853
 92      -0.004646262653
 93       0.009743065934
 94      -0.011049596460
 95      -0.004345998316
 96       0.097301657632
 97       0.029144834284
 98      -0.024185463552
 99      -0.043463247555
100      -0.972446452681
101      -0.285643360349
102       0.512725688197
103       0.297436899684
104      -4.921832665321
105      -0.351066189720
106       1.178710310320
107       0.988134561028
108      -0.014359535823
109       0.001178873394
110       0.022162690644
111       0.005987186145
112       0.010622890375
113      -0.001350408209
114      -0.004646584501
115      -0.009752188470
116       0.011046737859
117      -0.004342983758
118       0.097298116091
119      -0.029170632575
120       0.024178376469
121      -0.043450379477
122      -0.972361671648
123       0.285679930625
124      -0.512697467806
125       0.297332981098
126      -4.921593181648
127       0.351007452601
128      -1.178665098064
129       0.988084593206
130      -0.014357452570
131      -0.001180924995
132      -0.022163845146
133       0.005984935929
134       0.010624059969
135       0.006117252850
136       0.011749152342
137       0.000003251006
138      -0.000000361914
139      -0.021235667959
140      -0.061689927346
141       0.000008970503
142      -0.000000957969
143       0.004582880127
144      -1.081944264418
145      -0.000009320144
146       0.000007175673
147       0.416960449585
148      -4.395045997569
149       0.000015519523
150       0.000003218872
151       2.398522987006
152      -0.050814634694
153       0.000000601293
154      -0.000000141304
155       0.003005936347
156      -0.001527945401
 Sym=     1a
 Ene= 9.90901763315932E-01
 Spin= Alpha
 Occup= 0.000000
  1       0.008669060837
  2       0.020939018158
  3       0.004012568433
  4       0.044459976140
  5       0.056831578864
  6      -0.187618657800
  7      -0.022562832010
  8       0.130917536363
  9      -0.017913127498
 10       0.858001349669
 11       0.391146396858
 12      -0.300874753229
 13      -0.127943854542
 14       2.385603570374
 15      -0.006535490079
 16      -0.062662910759
 17       0.865928483686
 18      -0.132171992450
 19      -0.050485776646
 20      -0.212250515362
 21       0.026796242654
 22       0.001412831171
 23       0.008668190178
 24       0.020937119861
 25      -0.004012557023
 26      -0.044459441940
 27       0.056831404991
 28      -0.187591726709
 29       0.022561334922
 30      -0.130917020699
 31      -0.017912756482
 32       0.857836614497
 33      -0.391147103113
 34       0.300902587964
 35      -0.127970995653
 36       2.385366093903
 37       0.006535202783
 38       0.062716618921
 39       0.865911087019
 40      -0.132171967703
 41       0.050486012635
 42       0.212251009516
 43       0.026795412077
 44       0.001408730755
 45      -0.010781414262
 46       0.029203282614
 47      -0.219061692361
 48       0.090807567089
 49       0.022785633117
 50       0.054685741854
 51       0.011549041815
 52       0.245052752167
 53      -0.118613064338
 54      -0.040468794546
 55       0.002764736328
 56       0.095415509304
 57       0.011548348761
 58       0.245068157225
 59      -0.118582427588
 60       0.040465324374
 61      -0.002766889372
 62       0.095417305446
 63      -0.010781937521
 64       0.029217596476
 65      -0.219057666220
 66      -0.090807718090
 67      -0.022785546409
 68       0.054686957276
 69       0.016385781613
 70       0.017426340416
 71       0.000000050691
 72       0.000000095071
 73       0.018750011316
 74       0.017627637017
 75      -0.000000837992
 76       0.000000435726
 77       0.043491778697
 78       3.350381520684
 79      -0.000000744870
 80       0.000005008070
 81      -2.762187011919
 82      -3.816499918163
 83       0.000007104682
 84       0.000006947996
 85       1.037289080064
 86      -0.046275087336
 87       0.000001139362
 88       0.000000570353
 89      -0.060118912019
 90      -0.043656957023
 91      -0.003469119572
 92      -0.009495935568
 93      -0.036068615957
 94      -0.109773784791
 95       0.063544973920
 96       0.135195135747
 97      -0.113796308235
 98      -0.349623040699
 99       0.249372554463
100      -1.052092502125
101       0.112430584182
102       1.317407653079
103      -0.975576672887
104      -2.135535606666
105      -0.369388260590
106      -0.125770398952
107       1.530221333004
108      -0.007662976323
109       0.001725915933
110      -0.030395526920
111       0.011134566758
112       0.008718638413
113      -0.003469114057
114      -0.009495970715
115       0.036068365457
116       0.109773722635
117       0.063544606072
118       0.135196530277
119       0.113795272112
120       0.349622451978
121       0.249370655092
122      -1.052110918919
123      -0.112425513075
124      -1.317409148468
125      -0.975557142160
126      -2.135598232902
127       0.369394196653
128       0.125759416702
129       1.530236361682
130      -0.007663187524
131      -0.001726083174
132       0.030395564481
133       0.011134840450
134       0.008718587863
135      -0.014900729993
136      -0.030219840593
137      -0.000000108149
138       0.000000384413
139      -0.060218488494
140       0.226102573421
141      -0.000000266812
142       0.000001228914
143      -0.205367888890
144      -0.013815161041
145       0.000000316323
146      -0.000003593751
147       0.569115748594
148       0.732988703595
149      -0.000003471792
150      -0.000000148898
151      -0.410106459282
152       0.016870260495
153      -0.000000132776
154      -0.000000029082
155       0.014706708538
156       0.009067501298
 Sym=     1a
 Ene= 9.99422559390156E-01
 Spin= Alpha
 Occup= 0.000000
  1       0.045968876034
  2       0.104621603162
  3      -0.009604204587
  4       0.030268968648
  5      -0.001747595482
  6      -1.459461520780
  7      -0.139539675659
  8       0.164841922430
  9      -0.062550701131
 10       8.024345422239
 11       0.492274999956
 12       1.105166436170
 13       0.729219259115
 14       8.074845752235
 15       0.082567145559
 16       1.342620880823
 17       1.261687264581
 18      -0.112181704149
 19       0.083460757274
 20       0.028302458733
 21       0.029675943098
 22      -0.127977147656
 23      -0.045967323048
 24      -0.104618150346
 25      -0.009603540964
 26       0.030269294771
 27       0.001745991295
 28       1.459421237869
 29      -0.139540319619
 30       0.164848854218
 31       0.062544252043
 32      -8.024204974538
 33       0.492216776853
 34       1.105174171818
 35      -0.729185100636
 36      -8.074900810387
 37       0.082540929749
 38       1.342618161260
 39      -1.261703953203
 40       0.112181541473
 41       0.083457548333
 42       0.028297673563
 43      -0.029673757921
 44       0.127974532314
 45      -0.020267790846
 46      -0.867295157976
 47      -0.509373810800
 48       0.132791108974
 49      -0.060599744192
 50       0.077462395532
 51       0.023973571465
 52      -0.748937971524
 53      -0.511438561353
 54      -0.097207737523
 55       0.013655558849
 56      -0.076487882171
 57      -0.023974935250
 58       0.748932941741
 59       0.511466384576
 60      -0.097206298136
 61       0.013651464766
 62       0.076483666325
 63       0.020267333229
 64       0.867260403086
 65       0.509376133168
 66       0.132789846479
 67      -0.060593754272
 68      -0.077459439693
 69       0.000000723966
 70       0.000001566423
 71      -0.026191030657
 72       0.041365844827
 73       0.000000209563
 74      -0.000017777158
 75      -0.109078671456
 76      -0.231894244778
 77      -0.000002723574
 78       0.000100546980
 79       0.694550641232
 80      -0.474613456279
 81       0.000014394401
 82       0.000095874784
 83       0.507618893490
 84       0.771984564915
 85      -0.000046551067
 86       0.000000517252
 87       0.082479048263
 88       0.206878358906
 89      -0.000001114804
 90       0.000000174705
 91      -0.004879360402
 92      -0.006547252681
 93      -0.045314589290
 94       0.041408169982
 95      -0.035781758892
 96      -0.048520310774
 97      -0.146095323662
 98       0.127968718265
 99      -0.121938673789
100       1.000737261326
101       0.473559238003
102      -0.708090859963
103      -0.032659358977
104       3.771956318906
105      -0.285978346379
106      -0.257223588284
107      -1.698705013296
108       0.009646205271
109      -0.023413417639
110       0.011753192536
111      -0.009629141431
112       0.011265386139
113       0.004879472830
114       0.006547433588
115      -0.045317873101
116       0.041407426163
117       0.035782522070
118       0.048520663729
119      -0.146104686614
120       0.127965905903
121       0.121940522684
122      -1.000759870393
123       0.473581681198
124      -0.708095791882
125       0.032663189836
126      -3.772103551480
127      -0.285976938868
128      -0.257253659503
129       1.698755105131
130      -0.009646086924
131      -0.023414364003
132       0.011752744639
133       0.009629031432
134      -0.011265227878
135       0.000000199288
136       0.000000380576
137      -0.045023727127
138       0.013840749360
139       0.000000104731
140      -0.000002430989
141      -0.132675836867
142       0.047001372454
143       0.000000740112
144      -0.000008972229
145       0.155029197832
146      -0.097480201867
147       0.000002360150
148      -0.000059081997
149      -0.533438062583
150       0.268631282808
151       0.000034901607
152      -0.000000482201
153      -0.006942678455
154      -0.008740905597
155      -0.000000061549
156      -0.000000091675
 Sym=     1a
 Ene= 1.05388025746795E+00
 Spin= Alpha
 Occup= 0.000000
  1       0.000343342506
  2       0.001719848904
  3       0.019900956206
  4      -0.017403369228
  5      -0.016539034144
  6      -0.008785537221
  7       0.127394909620
  8      -0.000955969272
  9      -0.091325598610
 10      -0.322287474622
 11       0.488850905963
 12       0.054128944218
 13      -0.131004048637
 14      -0.842602128188
 15      -0.755693338610
 16      -0.174977547949
 17      -0.269553754533
 18       0.018300171493
 19       0.013520291931
 20       0.099103995644
 21       0.009571286767
 22       0.010320883014
 23       0.000342862278
 24       0.001718754142
 25      -0.019900497494
 26       0.017404379357
 27      -0.016539794670
 28      -0.008767130475
 29      -0.127396572891
 30       0.000958462147
 31      -0.091324712451
 32      -0.322407481488
 33      -0.488846924514
 34      -0.054104057338
 35      -0.131028313681
 36      -0.842758052685
 37       0.755688953441
 38       0.175004510929
 39      -0.269574917581
 40       0.018302507819
 41      -0.013519309387
 42      -0.099102465770
 43       0.009569897116
 44       0.010322787928
 45      -0.003975638490
 46      -0.343028653096
 47       0.250716779947
 48       0.007196917009
 49       0.023772728639
 50      -0.049567691773
 51      -0.002769973575
 52       0.257092336788
 53      -0.005617678126
 54       0.051347082258
 55      -0.037354648199
 56       0.026589175934
 57      -0.002771071907
 58       0.257101264852
 59      -0.005603195952
 60      -0.051348612473
 61       0.037354269706
 62       0.026593225725
 63      -0.003975503133
 64      -0.343019601786
 65       0.250722086912
 66      -0.007194607257
 67      -0.023774446355
 68      -0.049568044716
 69       0.001733766681
 70       0.010522819253
 71       0.000000028574
 72       0.000000244794
 73       0.006954852864
 74      -0.154183921022
 75      -0.000000687758
 76      -0.000002358843
 77       0.127091613590
 78      -1.220389198861
 79       0.000006165809
 80       0.000001149456
 81       0.713711546677
 82       0.861660222289
 83       0.000006377211
 84       0.000005560207
 85      -0.223507379256
 86       0.018362500616
 87       0.000001639431
 88       0.000001982448
 89      -0.085070803694
 90       0.275595928815
 91       0.001447657304
 92       0.005065173151
 93      -0.172426140350
 94      -0.001904689719
 95      -0.016089687572
 96      -0.092846506173
 97      -0.551200127778
 98       0.006825043422
 99      -0.062507668688
100       0.468858455655
101       1.291496350141
102      -0.308873565118
103       0.246439549877
104       1.022751369479
105      -0.833560335271
106      -0.210103854008
107      -0.395563973849
108      -0.001107328862
109       0.037049338730
110       0.024639108709
111       0.001321158062
112      -0.005339553322
113       0.001447784551
114       0.005065351528
115       0.172426263426
116       0.001905705074
117      -0.016089639477
118      -0.092845748378
119       0.551200073132
120      -0.006821210221
121      -0.062508027238
122       0.468838440181
123      -1.291492106582
124       0.308857024815
125       0.246447944441
126       1.022708131005
127       0.833553240471
128       0.210108566223
129      -0.395546015429
130      -0.001107258906
131      -0.037049701750
132      -0.024639198542
133       0.001321065616
134      -0.005340111798
135       0.003723243495
136       0.007793324307
137      -0.000001206968
138       0.000000133230
139       0.019203273140
140      -0.058492940357
141      -0.000003610122
142       0.000000572513
143       0.075345264322
144       0.006348926235
145       0.000005923133
146      -0.000002265761
147      -0.150396586109
148      -0.138398339514
149      -0.000007798480
150       0.000001209838
151       0.094947293302
152      -0.007137670137
153      -0.000000103334
154      -0.000000120473
155      -0.015086187653
156       0.016101278478
 Sym=     1a
 Ene= 1.10713542633623E+00
 Spin= Alpha
 Occup= 0.000000
  1      -0.018483552784
  2      -0.041532165185
  3       0.015798414788
  4      -0.000862371634
  5      -0.004674414771
  6       0.563129867857
  7       0.050881073106
  8       0.034802198163
  9       0.035718304176
 10      -3.070378249154
 11       0.055644011695
 12      -0.461946283303
 13      -0.340609166233
 14      -3.568563005155
 15      -0.240619205214
 16      -1.035570718468
 17       0.235400685638
 18      -0.009194236105
 19       0.105887099385
 20       0.018122113904
 21       0.003699457680
 22      -0.105080826354
 23       0.018484163151
 24       0.041533503093
 25       0.015798028634
 26      -0.000863156653
 27       0.004674954402
 28      -0.563144733137
 29       0.050883849998
 30       0.034803232540
 31      -0.035721823552
 32       3.070419056030
 33       0.055677948248
 34      -0.461940085631
 35       0.340621458926
 36       3.568634492152
 37      -0.240620144591
 38      -1.035573318969
 39      -0.235377142884
 40       0.009192797794
 41       0.105889521375
 42       0.018124036871
 43      -0.003699305643
 44       0.105082942269
 45      -0.013145286506
 46       0.225411795976
 47       0.472052483608
 48       0.021445252460
 49      -0.015439534400
 50       0.079147059532
 51       0.008761162011
 52       0.473411672512
 53       0.194848176840
 54       0.050627652330
 55       0.034258881728
 56      -0.074517914033
 57      -0.008760899519
 58      -0.473425997134
 59      -0.194876164663
 60       0.050629931890
 61       0.034260539964
 62       0.074520010968
 63       0.013145375243
 64      -0.225404904002
 65      -0.472055339415
 66       0.021445421468
 67      -0.015440916607
 68      -0.079148149708
 69      -0.000000157448
 70      -0.000000398494
 71       0.035779925948
 72       0.018318801512
 73       0.000000830252
 74       0.000004990367
 75       0.061616770391
 76      -0.127843638998
 77      -0.000001749389
 78      -0.000012703730
 79      -0.150450525599
 80      -0.199844750804
 81      -0.000005306676
 82      -0.000052913446
 83       0.403133077258
 84       0.011062348347
 85       0.000016632358
 86      -0.000000871160
 87      -0.071696327291
 88       0.068463843620
 89       0.000000715156
 90      -0.000003506740
 91       0.002972124413
 92       0.006324590704
 93       0.084194386133
 94       0.049621711864
 95      -0.001738267871
 96      -0.059585235044
 97       0.280026118252
 98       0.186341419140
 99      -0.010918871183
100      -0.087480096687
101      -0.654900750274
102      -0.526566899715
103       0.361913099878
104      -1.158886815956
105       0.239756171846
106       0.758008036249
107       0.075490946179
108      -0.008461180622
109      -0.016835817105
110      -0.010233031604
111       0.021478925069
112      -0.000707795858
113      -0.002971824910
114      -0.006324027396
115       0.084193320287
116       0.049622567298
117       0.001738867878
118       0.059581948684
119       0.280022611296
120       0.186344401142
121       0.010921388578
122       0.087478522891
123      -0.654890740028
124      -0.526578227451
125      -0.361919169489
126       1.158862512481
127       0.239750051074
128       0.758015417326
129      -0.075468657027
130       0.008461132134
131      -0.016834703636
132      -0.010232313962
133      -0.021479142046
134       0.000708150021
135       0.000000070721
136       0.000000126480
137      -0.187384883338
138      -0.049463527680
139       0.000000654851
140      -0.000000953758
141      -0.596427860272
142      -0.152660006141
143       0.000001289402
144       0.000004237961
145       1.319708987302
146       0.341137043368
147      -0.000005309776
148       0.000009038846
149      -0.946094927804
150      -0.115525410751
151      -0.000003331834
152       0.000000234847
153       0.012664676179
154      -0.000013145724
155       0.000000101456
156      -0.000000222596
 Sym=     1a
 Ene= 1.12422864405748E+00
 Spin= Alpha
 Occup= 0.000000
  1       0.006426349223
  2       0.016576152863
  3      -0.003253330725
  4      -0.002375795001
  5      -0.009813891521
  6      -0.140453926135
  7      -0.131997984421
  8       0.034095714148
  9      -0.281920732448
 10      -0.627199948112
 11       0.090327002197
 12       0.028520375179
 13      -0.219060705452
 14       0.191052157207
 15      -0.080910854546
 16       0.179406510147
 17       0.050585750938
 18      -0.114188387627
 19      -0.112173691106
 20      -0.048805999860
 21       0.010775544895
 22       0.097868354328
 23       0.006422780598
 24       0.016567537691
 25       0.003246405785
 26       0.002375407973
 27      -0.009815683626
 28      -0.140340057128
 29       0.131978030976
 30      -0.034128406441
 31      -0.281865666113
 32      -0.627639223973
 33      -0.090333015573
 34      -0.028509277764
 35      -0.219164454475
 36       0.190317224695
 37       0.080899578830
 38      -0.179196109574
 39       0.050589961808
 40      -0.114164735203
 41       0.112189845266
 42       0.048806247145
 43       0.010757594199
 44       0.097851739012
 45      -0.019962109793
 46      -0.051804108518
 47       0.105829694745
 48       0.079383915733
 49       0.107468782152
 50      -0.002791519306
 51       0.012516908678
 52      -0.048334692676
 53       0.165538387452
 54       0.014175501275
 55      -0.173722202965
 56       0.095788444349
 57       0.012512854160
 58      -0.048209601369
 59       0.165545636885
 60      -0.014187418481
 61       0.173720866419
 62       0.095787301788
 63      -0.019963095095
 64      -0.051763544217
 65       0.105831847850
 66      -0.079383087047
 67      -0.107494769898
 68      -0.002792361827
 69       0.009014676918
 70       0.018377011065
 71       0.000000881518
 72      -0.000008300759
 73      -0.009218328249
 74      -0.012053972671
 75      -0.000029587252
 76       0.000031750276
 77       0.337439032863
 78       0.226026500162
 79      -0.000054981279
 80       0.000186181156
 81       4.196999134780
 82      -1.169890082626
 83       0.000054639656
 84       0.000194541589
 85       1.152827538205
 86      -0.041493628745
 87       0.000006916448
 88      -0.000032018880
 89       0.131401646967
 90      -0.020323737984
 91      -0.020060679888
 92      -0.033798290377
 93      -0.001567098025
 94       0.101081491642
 95       0.061908979968
 96       0.090771564420
 97      -0.028267081252
 98       0.380403102110
 99       0.268660780168
100       0.897915268723
101       0.338380722300
102      -1.608435100528
103      -0.960982981839
104       2.820825904528
105       0.101342609421
106      -0.124461768006
107       0.516762370522
108      -0.012015124192
109      -0.008872762669
110      -0.021439964711
111       0.018343726578
112       0.014749427471
113      -0.020063890087
114      -0.033803453589
115       0.001560686363
116      -0.101117898671
117       0.061910616238
118       0.090777193786
119       0.028249848224
120      -0.380543667197
121       0.268670482984
122       0.897994541003
123      -0.338359905518
124       1.608898557865
125      -0.960901992309
126       2.820951967697
127      -0.101362390800
128       0.124160861616
129       0.516972053928
130      -0.012014322967
131       0.008867965145
132       0.021443725667
133       0.018354692849
134       0.014753202661
135       0.019608860054
136       0.033170205049
137      -0.000015796562
138      -0.000007852648
139      -0.060911325462
140      -0.099783509719
141      -0.000053416294
142      -0.000025381675
143      -0.245171144358
144      -1.556172795360
145       0.000130735428
146       0.000051888579
147       1.402016665314
148      -4.110556967404
149      -0.000090041874
150      -0.000095220856
151       0.758231581378
152      -0.005465765557
153       0.000002018133
154       0.000000871299
155       0.008722927851
156      -0.001537753869
 Sym=     1a
 Ene= 1.12602056674790E+00
 Spin= Alpha
 Occup= 0.000000
  1      -0.011539652048
  2      -0.028351066453
  3       0.022870690822
  4      -0.000115321725
  5      -0.007100832484
  6       0.360159112297
  7       0.063126789728
  8       0.100554215463
  9       0.210049112271
 10      -1.140504099746
 11       0.006130858474
 12       0.053748092928
 13      -0.268190141117
 14      -2.594143578749
 15       0.029792602223
 16      -0.743824373928
 17       0.008203886952
 18       0.097079023077
 19      -0.050896553735
 20       0.003638071277
 21      -0.065140911930
 22      -0.044898218775
 23       0.011541646908
 24       0.028356197537
 25       0.022871826244
 26      -0.000114746078
 27       0.007098262007
 28      -0.360203651742
 29       0.063165750708
 30       0.100544935658
 31      -0.210131743385
 32       1.140322467764
 33       0.006122069968
 34       0.053735939373
 35       0.268131189263
 36       2.594208462081
 37       0.029814675550
 38      -0.743876732930
 39      -0.008187011538
 40      -0.097112946170
 41      -0.050864888286
 42       0.003653403612
 43       0.065143841958
 44       0.044926412192
 45      -0.003881349396
 46       0.115784387852
 47       0.016396440497
 48      -0.004079848532
 49       0.091688567040
 50      -0.004573821485
 51      -0.010810978291
 52       0.377033603835
 53       0.002048798685
 54       0.039331034467
 55       0.000287239261
 56      -0.011870058933
 57       0.010814218011
 58      -0.377053865960
 59      -0.002005510229
 60       0.039328749465
 61       0.000336290381
 62       0.011899239562
 63       0.003875934480
 64      -0.115792645369
 65      -0.016367103836
 66      -0.004101004038
 67       0.091658753255
 68       0.004572763069
 69       0.000001246002
 70       0.000002486024
 71      -0.006290185443
 72       0.056285096705
 73      -0.000001329539
 74       0.000001162164
 75       0.192591848936
 76      -0.218637937663
 77       0.000048097179
 78       0.000032220421
 79       0.385964134331
 80      -1.148647391548
 81       0.000621210786
 82      -0.000177429071
 83      -0.310257066918
 84      -1.368978869136
 85       0.000174342677
 86      -0.000006138216
 87      -0.031231809181
 88       0.217926239198
 89       0.000019314126
 90      -0.000003697950
 91      -0.011872484386
 92      -0.019084970476
 93       0.017919465932
 94       0.126956516681
 95       0.010679432473
 96       0.022179331960
 97       0.042883377126
 98       0.492643847816
 99       0.058587326522
100       0.301593699405
101      -0.023392759425
102      -1.618729557729
103       0.131118719357
104       0.443626965788
105       0.027659196983
106       1.060841116031
107       0.756124219955
108       0.003195040191
109       0.016134654621
110      -0.015640296659
111       0.037624476726
112       0.015451452232
113       0.011866534286
114       0.019074906170
115       0.017920031093
116       0.126927387241
117      -0.010661356460
118      -0.022151080436
119       0.042891802264
120       0.492533938278
121      -0.058508495396
122      -0.301334405714
123      -0.023490856119
124      -1.618262571190
125      -0.131401677169
126      -0.442792784273
127       0.027626303860
128       1.060880619549
129      -0.755975443229
130      -0.003198680148
131       0.016137561825
132      -0.015633641986
133      -0.037619087929
134      -0.015447077505
135       0.000002932837
136       0.000004965734
137       0.103436564390
138       0.051424025047
139      -0.000009090831
140      -0.000015157996
141       0.350614139515
142       0.168121827107
143      -0.000036842802
144      -0.000229457138
145      -0.862052666001
146      -0.368163567008
147       0.000208235936
148      -0.000607119453
149       0.588739421701
150       0.630434020130
151       0.000109689619
152      -0.000000709692
153      -0.015236991883
154      -0.005173898300
155       0.000001299608
156      -0.000000269146
 Sym=     1a
 Ene= 1.15760951449349E+00
 Spin= Alpha
 Occup= 0.000000
  1       0.001021229246
  2      -0.003962837107
  3      -0.002838564110
  4      -0.013409787714
  5      -0.011324444799
  6      -0.036644697881
  7       0.000662810710
  8      -0.051828861892
  9       0.329524731997
 10       2.471709735863
 11       0.024225617668
 12       0.305774459447
 13       0.865029819690
 14       2.825782674908
 15      -0.124567353095
 16       0.580360151314
 17       0.130845928958
 18       0.195260035864
 19       0.027810592764
 20       0.055602120253
 21      -0.031721770834
 22       0.038272123638
 23      -0.001021504443
 24       0.003962121496
 25      -0.002837669424
 26      -0.013409191101
 27       0.011324599782
 28       0.036652010389
 29       0.000661617091
 30      -0.051827452350
 31      -0.329513128700
 32      -2.471680200028
 33       0.024141394802
 34       0.305777061301
 35      -0.865027484445
 36      -2.825874483863
 37      -0.124596445951
 38       0.580370645036
 39      -0.130878010109
 40      -0.195252255063
 41       0.027810164239
 42       0.055603948687
 43       0.031718912051
 44      -0.038269959963
 45      -0.000849813132
 46      -0.086507365535
 47      -0.213609867299
 48      -0.051407121802
 49      -0.000003092309
 50      -0.030030792095
 51       0.027724078430
 52      -0.201357704892
 53      -0.515111051856
 54       0.018432388700
 55      -0.061846919829
 56      -0.053445118599
 57      -0.027723703603
 58       0.201377285369
 59       0.515161515574
 60       0.018427661301
 61      -0.061843167541
 62       0.053448508532
 63       0.000848959601
 64       0.086493195916
 65       0.213583247755
 66      -0.051407252704
 67      -0.000007818270
 68       0.030027219431
 69       0.000000287348
 70       0.000000767763
 71      -0.019861387454
 72      -0.006062886511
 73      -0.000000232832
 74      -0.000013236942
 75      -0.193953712575
 76      -0.028298450927
 77      -0.000002967284
 78       0.000015682094
 79      -0.437059949650
 80       1.524204372829
 81      -0.000099509513
 82       0.000098123191
 83       0.946963171634
 84      -0.020255117402
 85      -0.000059272535
 86       0.000000251131
 87       0.144684864960
 88      -0.076031115339
 89       0.000000977539
 90      -0.000001386942
 91      -0.008386653824
 92      -0.012917479182
 93      -0.091332005078
 94       0.026705671236
 95       0.070604433907
 96       0.014329187307
 97      -0.355454276180
 98       0.138791394887
 99       0.346814887764
100       0.174166668862
101       1.037553676616
102      -0.298936851632
103      -1.768916812982
104       0.156792449598
105      -0.707407150818
106       0.480249245149
107       0.466681035993
108      -0.003650475975
109       0.020112349430
110      -0.035126036319
111       0.003546616224
112       0.042766304535
113       0.008387397937
114       0.012918769012
115      -0.091333073345
116       0.026707770245
117      -0.070606468407
118      -0.014333594688
119      -0.355458178344
120       0.138799616989
121      -0.346825068166
122      -0.174202923484
123       1.037570517458
124      -0.298982562840
125       1.768962111176
126      -0.156943276352
127      -0.707409713136
128       0.480220027863
129      -0.466702458432
130       0.003650560306
131       0.020113342034
132      -0.035126829400
133      -0.003546750120
134      -0.042766548921
135      -0.000000536956
136      -0.000000921976
137      -0.073871211050
138      -0.071931421802
139       0.000001238151
140       0.000003288710
141      -0.260804042065
142      -0.225839866917
143       0.000005987988
144       0.000033969152
145       0.671605047570
146       0.302027548022
147      -0.000033462677
148       0.000089825849
149      -0.571196244740
150      -0.602356348537
151      -0.000008500000
152      -0.000000204975
153       0.003458538353
154       0.022592203488
155      -0.000000036620
156      -0.000000074416
 Sym=     1a
 Ene= 1.18777442885355E+00
 Spin= Alpha
 Occup= 0.000000
  1      -0.005562015172
  2      -0.015745450441
  3       0.000468438300
  4      -0.012732839939
  5       0.005174176974
  6       0.150408481879
  7      -0.072316756974
  8      -0.032756084247
  9       0.204143843039
 10       0.711682872235
 11       1.404826783767
 12      -0.196129650964
 13       0.177580632710
 14      -1.066931673924
 15       0.275304190948
 16       0.005953430888
 17      -0.386789628415
 18       0.138746079269
 19      -0.099389441667
 20      -0.167898038633
 21      -0.032682645529
 22       0.187266568074
 23      -0.005557984607
 24      -0.015737133445
 25      -0.000470352530
 26       0.012734656309
 27       0.005172402772
 28       0.150299778377
 29       0.072312208484
 30       0.032758587551
 31       0.204147389466
 32       0.712406080640
 33      -1.404925860638
 34       0.196059831090
 35       0.177667481051
 36      -1.064400576903
 37      -0.275341263081
 38      -0.006472114909
 39      -0.386485271609
 40       0.138742361710
 41       0.099353919890
 42       0.167886054273
 43      -0.032670242091
 44       0.187225996975
 45      -0.021069503923
 46      -0.256971952717
 47      -0.465937950955
 48       0.082938098125
 49       0.253772425298
 50      -0.060628147699
 51       0.029788285758
 52       0.301913952272
 53       0.518993581310
 54       0.092746116088
 55      -0.238870538319
 56       0.075624457928
 57       0.029790495047
 58       0.301893556191
 59       0.518901238762
 60      -0.092749304215
 61       0.238867409469
 62       0.075589635450
 63      -0.021065001225
 64      -0.257062094799
 65      -0.466117114057
 66      -0.082963150886
 67      -0.253750547849
 68      -0.060600102845
 69       0.017259166867
 70       0.043192632380
 71      -0.000001022592
 72      -0.000004593596
 73      -0.038861470775
 74      -0.560605283092
 75      -0.000008129195
 76      -0.000012889924
 77       0.153036149855
 78       0.707925069545
 79      -0.000097891493
 80       0.000099961732
 81      -2.988867456256
 82       2.858637032818
 83       0.000112086318
 84      -0.000276010014
 85      -1.408904152757
 86       0.105520658133
 87      -0.000038496439
 88       0.000038617553
 89       0.187866938391
 90      -0.118112536030
 91       0.017423285055
 92       0.031992246167
 93       0.010058949648
 94      -0.014176588656
 95      -0.053703227358
 96      -0.172097934070
 97       0.028503627175
 98      -0.068673936671
 99      -0.272708300938
100      -0.411752434400
101      -0.074468199177
102       0.466687038834
103       1.213341447612
104      -2.702931768482
105       0.018857088356
106       0.615609559212
107      -0.649852417737
108      -0.002595643949
109      -0.042344827823
110       0.020320109468
111      -0.001339133777
112       0.012956828153
113       0.017423227201
114       0.031992218580
115      -0.010078846721
116       0.014171821283
117      -0.053691206681
118      -0.172095360364
119      -0.028572642617
120       0.068660759529
121      -0.272665798308
122      -0.411670568586
123       0.074661358469
124      -0.466700106843
125       1.213162178952
126      -2.702233970195
127      -0.019003752191
128      -0.615387870124
129      -0.649859777355
130      -0.002597313257
131       0.042349437797
132      -0.020314868802
133      -0.001340982935
134       0.012954981000
135      -0.019883542508
136      -0.034899639088
137      -0.000018558934
138       0.000036256821
139      -0.010722755687
140       0.173167763238
141      -0.000068533174
142       0.000124086084
143       0.073149520445
144       0.723539669448
145       0.000205594621
146      -0.000327879676
147      -0.468640109352
148       2.807037508124
149      -0.000138092440
150       0.000286135418
151      -0.676264509874
152      -0.013283380595
153       0.000007674506
154      -0.000007879400
155      -0.000168134917
156      -0.012289507322
 Sym=     1a
 Ene= 1.19008014631186E+00
 Spin= Alpha
 Occup= 0.000000
  1       0.011462056977
  2       0.024451460512
  3       0.005072203159
  4      -0.002743705080
  5      -0.003288467409
  6      -0.327413632502
  7       0.008857252240
  8      -0.004205038143
  9      -0.019675796771
 10       2.044770477398
 11       0.276396249096
 12       0.301565921781
 13       0.245419764728
 14       6.623711517307
 15       0.104363011225
 16       1.375233163484
 17       0.799569846618
 18      -0.024667427580
 19       0.095866968883
 20       0.031728801739
 21       0.033861285466
 22      -0.113363693439
 23      -0.011463707124
 24      -0.024456475705
 25       0.005072364903
 26      -0.002738537178
 27       0.003289908351
 28       0.327460055396
 29       0.008888534878
 30      -0.004190124563
 31       0.019749010559
 32      -2.044456664625
 33       0.275805499645
 34       0.301642414963
 35      -0.245341609693
 36      -6.624179751866
 37       0.104240300607
 38       1.375235912920
 39      -0.799735313312
 40       0.024720914561
 41       0.095908297454
 42       0.031794550062
 43      -0.033873314915
 44       0.113440476228
 45       0.012471961097
 46      -0.253272016482
 47      -0.443064482500
 48       0.068163352442
 49      -0.055078053200
 50       0.071403159300
 51       0.005914900476
 52      -0.067631120449
 53      -0.202296929092
 54       0.002883627050
 55       0.013090332516
 56      -0.087995163958
 57      -0.005902953000
 58       0.067753522019
 59       0.202524514174
 60       0.002846372252
 61       0.013188530914
 62       0.088026665247
 63      -0.012480873723
 64       0.253159635701
 65       0.442880890451
 66       0.068129400139
 67      -0.055181377671
 68      -0.071429499154
 69       0.000003537538
 70       0.000008912146
 71       0.006036267364
 72       0.024675065959
 73      -0.000005909967
 74      -0.000118223965
 75       0.050571105294
 76       0.059816321052
 77       0.000025863011
 78       0.000122680100
 79       0.556990333306
 80      -0.622866593980
 81      -0.000635991724
 82       0.000609610049
 83      -0.629559258211
 84       1.381875977395
 85      -0.000328228693
 86       0.000016234039
 87       0.206123660495
 88      -0.172667810682
 89       0.000036485506
 90      -0.000024201100
 91      -0.000145548456
 92      -0.000120629052
 93       0.055022758565
 94       0.011629933485
 95       0.023924208437
 96       0.006753780114
 97       0.191921122037
 98       0.028294253862
 99       0.078181023512
100       0.260299147415
101      -0.526486351015
102       0.019472322705
103      -0.341733942536
104       1.897945600902
105       0.394169416993
106      -0.615159959668
107      -0.067455687559
108      -0.002344027259
109      -0.014709646315
110      -0.010466990727
111      -0.006500199615
112      -0.005689774007
113       0.000152642477
114       0.000133706093
115       0.055018411392
116       0.011636127067
117      -0.023944081419
118      -0.006825188455
119       0.191909245041
120       0.028323012061
121      -0.078283600089
122      -0.260464987343
123      -0.526455300719
124       0.019276105893
125       0.342201491130
126      -1.899089963746
127       0.394166748447
128      -0.615415750713
129       0.067228234181
130       0.002343119241
131      -0.014693050826
132      -0.010474792148
133       0.006499756135
134       0.005695124744
135      -0.000004119849
136      -0.000007220755
137       0.098162906800
138      -0.172955350615
139       0.000000623777
140       0.000034273778
141       0.364625381445
142      -0.593038844132
143       0.000022467190
144       0.000167849830
145      -1.107079042238
146       1.584614989769
147      -0.000131499328
148       0.000602045720
149       0.737244072363
150      -1.367287164496
151      -0.000119697736
152      -0.000002474055
153      -0.041749510038
154       0.036638495962
155       0.000000007810
156      -0.000002386615
 Sym=     1a
 Ene= 1.19882869557170E+00
 Spin= Alpha
 Occup= 0.000000
  1       0.001604516110
  2       0.003068621671
  3       0.000363477410
  4       0.000549500573
  5      -0.009569142638
  6       0.020183562465
  7      -0.045095418660
  8       0.018210331464
  9      -0.124826044622
 10      -0.306977396029
 11       0.307995865377
 12      -0.022149211718
 13      -0.258651359763
 14      -1.451510792291
 15       0.049256685317
 16      -0.146002805554
 17      -0.354837071380
 18      -0.053089167345
 19      -0.052737941432
 20      -0.038772461449
 21       0.027980665641
 22       0.031007936426
 23       0.001604773970
 24       0.003069177578
 25      -0.000363063876
 26      -0.000549475093
 27      -0.009568829252
 28       0.020179417838
 29       0.045096637447
 30      -0.018213082867
 31      -0.124827122506
 32      -0.306975662127
 33      -0.308006703145
 34       0.022159451757
 35      -0.258667238236
 36      -1.451228059397
 37      -0.049263889225
 38       0.145951782392
 39      -0.354791093147
 40      -0.053090667243
 41       0.052737374319
 42       0.038772533608
 43       0.027980624121
 44       0.031007006493
 45      -0.005993014252
 46      -0.056231817105
 47       0.201891944237
 48       0.012963394519
 49       0.041815870864
 50      -0.018926911107
 51       0.005692716984
 52       0.128339166179
 53       0.294400452252
 54      -0.002420122157
 55      -0.055524936632
 56       0.065411839009
 57       0.005692934146
 58       0.128344398238
 59       0.294392954688
 60       0.002420121684
 61       0.055523747585
 62       0.065412880215
 63      -0.005993257137
 64      -0.056231933888
 65       0.201864519575
 66      -0.012963543908
 67      -0.041816765816
 68      -0.018927370099
 69       0.002430444877
 70       0.012819413355
 71       0.000000371001
 72      -0.000000823333
 73       0.114790463679
 74      -0.385396367257
 75      -0.000000425187
 76       0.000002055481
 77      -0.294302560191
 78      -3.015361008149
 79      -0.000013103989
 80       0.000046083089
 81      -3.806631293500
 82       1.400733130813
 83      -0.000002222296
 84      -0.000031250127
 85      -2.967343770383
 86      -0.371734481124
 87      -0.000000135662
 88       0.000002812369
 89      -0.032781508595
 90       0.002254304080
 91      -0.011215027620
 92      -0.021206955472
 93       0.009301625714
 94       0.002753623386
 95       0.045682781768
 96       0.136110565526
 97       0.020425295828
 98       0.026443084653
 99       0.184089009168
100      -0.274708711992
101      -0.045847365428
102       0.110561028932
103      -0.562534526202
104      -0.843811566204
105      -0.022163423407
106       0.359510315097
107       0.632232441309
108       0.003908818968
109       0.006392443490
110      -0.014887919250
111       0.015502514810
112       0.005831220239
113      -0.011215334349
114      -0.021207534900
115      -0.009301309136
116      -0.002754967472
117       0.045682640373
118       0.136114364882
119      -0.020424300585
120      -0.026447930903
121       0.184086925022
122      -0.274702767838
123       0.045844856970
124      -0.110545558591
125      -0.562512031346
126      -0.843702647161
127       0.022154082169
128      -0.359490327145
129       0.632234736187
130       0.003909079302
131      -0.006392456077
132       0.014887930276
133       0.015502587709
134       0.005831146141
135      -0.025166588583
136      -0.045260299465
137      -0.000000224792
138       0.000004279754
139       0.212535531958
140       0.140033721664
141      -0.000000956259
142       0.000015162168
143       0.614906297301
144       2.003354881386
145       0.000002505213
146      -0.000044625623
147      -3.129537165441
148       4.753218529744
149      -0.000000794656
150       0.000032232690
151       0.564210914543
152       0.013044215619
153       0.000000094315
154      -0.000000994103
155       0.007837102097
156       0.006423652859
 Sym=     1a
 Ene= 1.23170283840390E+00
 Spin= Alpha
 Occup= 0.000000
  1      -0.001407335712
  2      -0.005941832432
  3       0.020911442605
  4      -0.011411763991
  5      -0.018501032367
  6      -0.033794986445
  7       0.077494558699
  8      -0.104195064644
  9       0.145163315450
 10       1.638373166507
 11       0.232156046258
 12       0.234175378042
 13       0.706873576615
 14      -6.153673147355
 15      -0.069411345920
 16      -1.123941976159
 17      -1.177839532632
 18       0.085782173355
 19       0.166440362326
 20       0.066987130046
 21       0.025927430601
 22      -0.200709104273
 23       0.001407903326
 24       0.005943208249
 25       0.020911490611
 26      -0.011411869946
 27       0.018500389191
 28       0.033778158726
 29       0.077492393837
 30      -0.104193083171
 31      -0.145167589582
 32      -1.638345841202
 33       0.232149722449
 34       0.234162331322
 35      -0.706853357321
 36       6.153713652159
 37      -0.069416790547
 38      -1.123935162916
 39       1.177852057317
 40      -0.085779777263
 41       0.166439472878
 42       0.066975579242
 43      -0.025929670443
 44       0.200708845863
 45       0.017216471873
 46      -0.355143746603
 47       0.305410942221
 48       0.036297353164
 49      -0.109358417338
 50       0.088179203228
 51      -0.016647105657
 52      -0.094159788704
 53       0.185062477442
 54       0.032604491141
 55      -0.023264658380
 56      -0.120223638507
 57       0.016647098682
 58       0.094157496280
 59      -0.185056677091
 60       0.032602655800
 61      -0.023264652965
 62       0.120222471410
 63      -0.017216688192
 64       0.355139206986
 65      -0.305411582890
 66       0.036300048969
 67      -0.109358051391
 68      -0.088184596459
 69      -0.000000274932
 70      -0.000000747158
 71       0.032211175057
 72      -0.040487535497
 73      -0.000000125421
 74       0.000011023715
 75      -0.027713137517
 76       0.235960014168
 77      -0.000001693820
 78       0.000059658271
 79      -0.658528251981
 80       3.785184140870
 81       0.000080029453
 82      -0.000004296012
 83      -0.253381263516
 84      -1.070609299754
 85       0.000038767339
 86       0.000004810074
 87       0.298288069470
 88      -0.012131489464
 89      -0.000002618506
 90      -0.000000280536
 91       0.010497153710
 92       0.020368411204
 93       0.043714331473
 94      -0.033137276382
 95       0.052359914414
 96      -0.134084702358
 97       0.140876680378
 98      -0.121967184034
 99       0.279368062481
100      -0.203260073294
101      -0.393819363133
102       0.656299026076
103      -1.833041144978
104      -3.074455870395
105      -0.140591971804
106       0.528660908115
107      -0.075451588456
108      -0.023375682186
109      -0.014695126956
110      -0.023888450087
111      -0.007622742543
112       0.014035505505
113      -0.010496208042
114      -0.020366562561
115       0.043713305147
116      -0.033135743660
117      -0.052359729747
118       0.134072016678
119       0.140872803568
120      -0.121960971172
121      -0.279366201032
122       0.203280892756
123      -0.393805294115
124       0.656282957676
125       1.833030141481
126       3.074459717463
127      -0.140602762814
128       0.528684302426
129       0.075461977439
130       0.023375229603
131      -0.014695404657
132      -0.023888835667
133       0.007621585241
134      -0.014036408460
135       0.000000872749
136       0.000001627078
137       0.007366252009
138       0.128126089429
139      -0.000002151764
140      -0.000008757373
141       0.048580768377
142       0.492372884703
143      -0.000007143291
144      -0.000027613699
145      -0.230291358279
146      -1.810988564001
147       0.000042367897
148      -0.000107960210
149       0.260166820189
150       0.913849400525
151       0.000006943051
152      -0.000000020941
153      -0.032597700988
154      -0.036060889107
155      -0.000000160265
156       0.000000021484
 Sym=     1a
 Ene= 1.28788457665549E+00
 Spin= Alpha
 Occup= 0.000000
  1       0.011656049200
  2       0.030033005794
  3      -0.010886638472
  4       0.003799114734
  5      -0.028748093122
  6      -0.327522790193
  7      -0.096617418265
  8      -0.011494113337
  9      -0.173614837988
 10       0.020416671906
 11      -0.248280072474
 12       0.443319691509
 13       0.299128920605
 14       0.007399959431
 15       0.270442801911
 16      -0.360573759446
 17       0.082286459222
 18       0.039618430310
 19      -0.063735082825
 20       0.348473332407
 21      -0.057585246299
 22       0.138525070538
 23       0.011656120356
 24       0.030033078880
 25       0.010887118780
 26      -0.003799848945
 27      -0.028747649695
 28      -0.327528972396
 29       0.096615123941
 30       0.011494764643
 31      -0.173614574267
 32       0.020505741098
 33       0.248271281070
 34      -0.443336421572
 35       0.299182149257
 36       0.007309552040
 37      -0.270441969763
 38       0.360594343751
 39       0.082270057692
 40       0.039620597369
 41       0.063721194702
 42      -0.348477579538
 43      -0.057583679166
 44       0.138522461902
 45      -0.006214803078
 46       0.087576503168
 47       0.418627126186
 48      -0.066259898512
 49       0.150530265658
 50      -0.170834864213
 51       0.000442422722
 52      -0.135503352359
 53       0.323779860973
 54       0.043294651881
 55      -0.179999896459
 56       0.012453224163
 57       0.000442713446
 58      -0.135511033451
 59       0.323789388820
 60      -0.043295351226
 61       0.180002338979
 62       0.012447052794
 63      -0.006214194419
 64       0.087575902124
 65       0.418633043397
 66       0.066260447340
 67      -0.150523251229
 68      -0.170835256671
 69      -0.017757339698
 70      -0.043807375719
 71      -0.000000793606
 72       0.000000242880
 73       0.100893844755
 74       0.495234477321
 75      -0.000000428083
 76      -0.000003213775
 77      -0.326221845476
 78       1.865539396929
 79       0.000010508215
 80      -0.000049128801
 81       2.538267851631
 82       0.855426507262
 83       0.000004142091
 84       0.000006425282
 85       0.267045242662
 86       0.116607051070
 87      -0.000006450170
 88       0.000000691199
 89      -0.171604863568
 90       0.103277339680
 91       0.020168680922
 92       0.041004105945
 93       0.030323796184
 94      -0.054809836109
 95       0.036442201054
 96      -0.324874758538
 97       0.116296400292
 98      -0.219086650983
 99       0.202772861125
100       0.770385831587
101      -0.334630754805
102       0.642687207809
103      -0.985764807111
104      -0.138123716890
105       0.199685043504
106      -0.598128217725
107       0.686092587150
108      -0.036278944944
109       0.018662956990
110       0.012453771460
111      -0.023780356347
112      -0.031466420658
113       0.020168538831
114       0.041003834973
115      -0.030325648050
116       0.054810045490
117       0.036443163728
118      -0.324872821717
119      -0.116302117298
120       0.219087351806
121       0.202779476507
122       0.770382448687
123       0.334643568475
124      -0.642697964340
125      -0.985820192681
126      -0.138153553309
127      -0.199689400897
128       0.598119603772
129       0.686078690400
130      -0.036279756854
131      -0.018661890420
132      -0.012452590023
133      -0.023780550463
134      -0.031466151800
135       0.038055306538
136       0.072319858684
137       0.000000256834
138      -0.000000804814
139       0.023558352052
140      -0.456428887610
141      -0.000000012237
142      -0.000003654498
143       0.005823535275
144      -0.494917027018
145       0.000004055171
146       0.000016890195
147       0.545602841706
148      -3.691814742212
149      -0.000002451886
150      -0.000005687408
151       0.969221795265
152       0.005325101053
153       0.000000873581
154       0.000000429144
155       0.003880068675
156       0.015728296463
 Sym=     1a
 Ene= 1.35903204584173E+00
 Spin= Alpha
 Occup= 0.000000
  1      -0.011389832263
  2      -0.023638450841
  3      -0.060411151107
  4       0.023030651673
  5       0.042944077110
  6       0.337426574247
  7      -0.111668485999
  8       0.032559529335
  9      -0.123079425053
 10      -2.387726574962
 11      -0.166732822400
 12       0.048791641804
 13      -0.121679752606
 14      -0.943806625602
 15       0.223353399040
 16      -0.133709458621
 17      -0.284904802622
 18      -0.017131580493
 19       0.084938401398
 20       0.129864583155
 21      -0.020603474137
 22       0.258353783525
 23       0.011390208022
 24       0.023639651524
 25      -0.060412087116
 26       0.023030518471
 27      -0.042947497027
 28      -0.337435185756
 29      -0.111666964191
 30       0.032555844733
 31       0.123069860938
 32       2.387653243150
 33      -0.166734034723
 34       0.048767575452
 35       0.121661512845
 36       0.943771259173
 37       0.223364563474
 38      -0.133676520471
 39       0.284897259489
 40       0.017136854315
 41       0.084939768570
 42       0.129840205873
 43       0.020595528968
 44      -0.258354541347
 45      -0.029845777055
 46       0.721552274407
 47      -0.218817248462
 48      -0.058877748396
 49      -0.091649932513
 50      -0.074316706227
 51       0.071020693516
 52      -0.041117023575
 53       0.512725590577
 54       0.056115758611
 55      -0.082108188901
 56      -0.086709175682
 57      -0.071022558996
 58       0.041132485291
 59      -0.512715545840
 60       0.056111043869
 61      -0.082115301999
 62       0.086695843268
 63       0.029845975805
 64      -0.721555694175
 65       0.218845373780
 66      -0.058881696037
 67      -0.091649348054
 68       0.074325365366
 69      -0.000000833906
 70      -0.000001902445
 71       0.036948509542
 72       0.004486966786
 73       0.000004331268
 74       0.000019796060
 75       0.027448091466
 76      -0.119077839287
 77      -0.000006224992
 78      -0.000025233307
 79       0.490293423986
 80      -1.703922023585
 81       0.000091050614
 82       0.000010600922
 83      -0.136482994178
 84      -0.282284015064
 85       0.000001835480
 86       0.000005224845
 87       0.724235515744
 88       0.293654142185
 89       0.000019415579
 90      -0.000036320645
 91      -0.007694151729
 92      -0.015061181440
 93       0.014217295957
 94      -0.006819064394
 95      -0.044536447990
 96       0.105938658357
 97      -0.027197297164
 98       0.005951921614
 99      -0.195100674325
100       0.031388543836
101       0.242831218127
102      -0.216318810151
103       1.177891862368
104       0.437659341574
105      -0.129848301883
106      -0.246470991447
107       0.338056373532
108       0.019948091625
109      -0.019287208888
110      -0.008208734750
111      -0.027433478487
112       0.064175204604
113       0.007694553628
114       0.015062131574
115       0.014219482268
116      -0.006817924831
117       0.044538692642
118      -0.105949246322
119      -0.027181671951
120       0.005960127380
121       0.195113726183
122      -0.031334784687
123       0.242761276022
124      -0.216335715531
125      -1.177952692343
126      -0.437506517088
127      -0.129839827631
128      -0.246399608045
129      -0.338028710850
130      -0.019950675743
131      -0.019281369141
132      -0.008207820212
133       0.027427295044
134      -0.064169628633
135       0.000000662518
136       0.000001237384
137      -0.046935412577
138      -0.010297955965
139       0.000002224419
140      -0.000006892600
141      -0.060548090557
142      -0.036196622699
143       0.000005663277
144      -0.000024218955
145      -0.427142950130
146       0.171668499578
147       0.000004992550
148      -0.000095219103
149       0.253969465036
150       0.144217058573
151       0.000036470783
152       0.000000375352
153      -0.090375576244
154      -0.023149705347
155       0.000001780212
156      -0.000002631962
 Sym=     1a
 Ene= 1.36987050282225E+00
 Spin= Alpha
 Occup= 0.000000
  1      -0.004459727575
  2      -0.012120348209
  3      -0.012515066773
  4      -0.003423889558
  5       0.021753292553
  6       0.096848351975
  7      -0.004841476827
  8      -0.010006018472
  9       0.094043441657
 10       0.573797140183
 11      -0.273972759138
 12      -0.235200067067
 13       0.130731088370
 14       0.309971079559
 15       0.169681182601
 16       0.287338528164
 17       0.113037895237
 18      -0.002238314870
 19      -0.062000252810
 20      -0.183185729522
 21       0.041129154625
 22      -0.021074634165
 23      -0.004458410992
 24      -0.012117592763
 25       0.012508912011
 26       0.003425737691
 27       0.021749612717
 28       0.096808648716
 29       0.004833356509
 30       0.010009520281
 31       0.094051805767
 32       0.574062446778
 33       0.273957699020
 34       0.235202140520
 35       0.130766696693
 36       0.310152192879
 37      -0.169659713833
 38      -0.287372493426
 39       0.113071866916
 40      -0.002234486219
 41       0.062012208486
 42       0.183199274608
 43       0.041129404575
 44      -0.021099065596
 45       0.005436738852
 46       0.035782615291
 47      -0.120461057875
 48      -0.068917773002
 49      -0.005719056383
 50      -0.071041543973
 51       0.001804947077
 52      -0.151714321906
 53      -0.129662022224
 54      -0.061767021266
 55      -0.036287540545
 56       0.179033452853
 57       0.001798543500
 58      -0.151712324681
 59      -0.129713984364
 60       0.061772068618
 61       0.036279734449
 62       0.179038296670
 63       0.005439678042
 64       0.035713130603
 65      -0.120438656334
 66       0.068912513976
 67       0.005708562573
 68      -0.071035548928
 69       0.011531795458
 70       0.026625790715
 71       0.000002121172
 72       0.000000404084
 73      -0.074495978763
 74      -0.287063311862
 75       0.000002371472
 76      -0.000006184759
 77       0.051570102308
 78       0.713908353547
 79       0.000021297546
 80      -0.000086481038
 81      -1.351862192142
 82      -0.029803476582
 83      -0.000008601452
 84      -0.000017959939
 85      -0.034769865749
 86      -0.087418827139
 87       0.000035552059
 88       0.000014212885
 89      -0.428280196529
 90       0.747485788864
 91      -0.001536580599
 92      -0.004289502114
 93       0.025220782313
 94       0.006593662879
 95      -0.019365979533
 96       0.063945333913
 97       0.184965518815
 98       0.062455559047
 99      -0.096901346402
100      -0.377261640997
101      -0.795735502361
102      -0.106046628821
103       0.407442863271
104      -1.350041034949
105       0.208002532547
106       0.556365648856
107      -0.137774493469
108       0.019674830750
109       0.053311433185
110       0.008323458762
111       0.060594457948
112      -0.073212981852
113      -0.001536124537
114      -0.004288611919
115      -0.025218919718
116      -0.006593904354
117      -0.019362286037
118       0.063939246718
119      -0.184965991389
120      -0.062453169889
121      -0.096883765441
122      -0.377264882666
123       0.795752156530
124       0.106019886489
125       0.407323897088
126      -1.350055880609
127      -0.208010644549
128      -0.556380820981
129      -0.137819509796
130       0.019673124748
131      -0.053314173818
132      -0.008324516155
133       0.060596427040
134      -0.073218986761
135      -0.006019556163
136      -0.010777902339
137      -0.000002436215
138      -0.000000564299
139      -0.039024320770
140       0.043933776870
141      -0.000003195643
142      -0.000002000100
143      -0.104130613292
144       0.438025500495
145      -0.000020434268
146       0.000009284479
147      -0.016908586978
148       1.112135229625
149       0.000013039033
150       0.000007720924
151      -0.469133946551
152      -0.005770513550
153      -0.000004542467
154      -0.000001104444
155      -0.037969046740
156       0.056351221519
 Sym=     1a
 Ene= 1.41474974586768E+00
 Spin= Alpha
 Occup= 0.000000
  1       0.009991347100
  2       0.023997827099
  3      -0.052540435415
  4       0.021155372426
  5       0.002893047751
  6      -0.353030943442
  7      -0.010179200477
  8       0.046274391294
  9      -0.095321989740
 10       2.200502005535
 11      -0.235874900293
 12       0.587594725847
 13       0.835232832071
 14      -0.207096982878
 15       0.214080361227
 16      -0.274762086826
 17       0.233825960513
 18      -0.077231147410
 19       0.366321528924
 20       0.067067511978
 21      -0.002498771604
 22       0.394049848886
 23      -0.009991654512
 24      -0.023998524338
 25      -0.052540107696
 26       0.021155264183
 27      -0.002894849390
 28       0.353037975335
 29      -0.010176009375
 30       0.046267042618
 31       0.095317465355
 32      -2.200493843682
 33      -0.235877804560
 34       0.587615874391
 35      -0.835246652775
 36       0.207079933974
 37       0.214060976528
 38      -0.274759221252
 39      -0.233822945816
 40       0.077230852064
 41       0.366326041396
 42       0.067056669948
 43       0.002506030818
 44      -0.394048758612
 45      -0.082691852864
 46       0.531516930547
 47      -0.257457498980
 48      -0.027515973351
 49      -0.225687702923
 50      -0.006357406077
 51       0.054681195194
 52      -0.733861952455
 53       0.565332312987
 54       0.006642433465
 55       0.108051498160
 56      -0.000553950382
 57      -0.054678187239
 58       0.733845450631
 59      -0.565313075156
 60       0.006643549910
 61       0.108049131211
 62       0.000551436592
 63       0.082694183057
 64      -0.531533767958
 65       0.257464380523
 66      -0.027520909277
 67      -0.225693433574
 68       0.006359567233
 69      -0.000000104665
 70      -0.000000154133
 71       0.013959246314
 72      -0.038074480593
 73       0.000000685311
 74       0.000000595644
 75       0.004538729900
 76       0.144250791909
 77       0.000001228383
 78       0.000007634780
 79      -0.248084020208
 80       1.232472114037
 81       0.000019484395
 82       0.000026024625
 83      -0.255508198130
 84      -0.071457935156
 85      -0.000011047853
 86       0.000004276069
 87      -0.356281404618
 88      -0.218464727613
 89      -0.000000673349
 90       0.000001020214
 91      -0.027033201257
 92      -0.055159254623
 93       0.002988281420
 94       0.016839566861
 95       0.016573111743
 96       0.465414965856
 97       0.057106368555
 98       0.093613190795
 99       0.054744965947
100      -0.909953919248
101      -0.268106458225
102      -0.129937724007
103      -0.576301699888
104       1.040956474723
105       0.355229740139
106       0.138072453854
107      -0.426197824956
108       0.012673451027
109      -0.018593375313
110      -0.024693021441
111       0.031106149799
112      -0.054178275400
113       0.027034232973
114       0.055161417353
115       0.002987621136
116       0.016839929978
117      -0.016573120015
118      -0.465434380179
119       0.057103531340
120       0.093615109342
121      -0.054744138608
122       0.910004765399
123      -0.268098940495
124      -0.129933886097
125       0.576291589847
126      -1.040982825013
127       0.355224918844
128       0.138085714443
129       0.426215493512
130      -0.012674219720
131      -0.018593313125
132      -0.024694401831
133      -0.031106496549
134       0.054177081099
135       0.000000136354
136       0.000000275264
137       0.035478166429
138       0.027509230067
139       0.000000336209
140      -0.000001600533
141       0.075955628699
142       0.103680769741
143       0.000002231494
144      -0.000008332123
145       0.073693928971
146      -0.378730734037
147       0.000002739267
148      -0.000027779196
149       0.003524789464
150       0.015407142162
151       0.000012453728
152      -0.000000228872
153       0.038589502573
154      -0.001130597021
155      -0.000000027165
156       0.000000012274
 Sym=     1a
 Ene= 1.48923104526617E+00
 Spin= Alpha
 Occup= 0.000000
  1       0.017833437068
  2       0.039055364877
  3       0.024228226409
  4      -0.012093837831
  5       0.029616756252
  6      -0.349132459269
  7      -0.023603180201
  8      -0.264370987173
  9      -0.052681363203
 10      -0.339637063197
 11       0.990688139484
 12       0.791540119280
 13       0.187086961609
 14      -0.492046877370
 15      -0.142729720526
 16      -0.306817016278
 17      -0.355209403577
 18       0.174254840524
 19      -0.069543195850
 20      -0.178992808494
 21      -0.533195381823
 22      -0.082646232294
 23       0.017833222551
 24       0.039054771130
 25      -0.024228734247
 26       0.012095161846
 27       0.029616555779
 28      -0.349122025456
 29       0.023604408441
 30       0.264371870457
 31      -0.052677243102
 32      -0.339701875785
 33      -0.990706783748
 34      -0.791513234635
 35       0.187046235102
 36      -0.492071323818
 37       0.142734939706
 38       0.306820435793
 39      -0.355209866337
 40       0.174256549714
 41       0.069544484776
 42       0.178991384070
 43      -0.533195159490
 44      -0.082654225526
 45      -0.080752753209
 46       0.170063164301
 47      -0.237870573784
 48      -0.100276826780
 49      -0.258096386262
 50      -0.042508402100
 51      -0.141235066725
 52       1.060637538760
 53      -0.133350514371
 54      -0.092023801310
 55      -0.097199878248
 56       0.039532182673
 57      -0.141236332634
 58       1.060656355798
 59      -0.133359147746
 60       0.092028976044
 61       0.097196557815
 62       0.039539337627
 63      -0.080750420142
 64       0.170045243466
 65      -0.237869609849
 66       0.100284801178
 67       0.258094707406
 68      -0.042510259515
 69       0.004290690127
 70       0.009204076116
 71      -0.000000250945
 72      -0.000000741858
 73       0.072215526636
 74      -0.103971022741
 75      -0.000000961923
 76       0.000001702939
 77       0.071279001189
 78       0.002007949206
 79       0.000001178681
 80       0.000012743244
 81       0.279718190938
 82       1.145675961537
 83      -0.000002024881
 84       0.000001183335
 85      -0.405203835019
 86       0.090642086009
 87      -0.000007010289
 88      -0.000002320276
 89      -0.002932690568
 90      -0.052785803123
 91       0.011005650824
 92       0.021583670943
 93      -0.018836799458
 94       0.005774763724
 95       0.026363599540
 96      -0.144105903968
 97      -0.055503133500
 98       0.032961063697
 99       0.064323016445
100       0.085927211984
101       0.196508232777
102      -0.012432559298
103       0.026910778260
104       0.220918546495
105       0.054308797479
106       0.051438268831
107      -0.226896984206
108       0.001189299118
109      -0.024114729171
110      -0.007262737449
111      -0.008347050831
112       0.002667205111
113       0.011006176618
114       0.021584753661
115       0.018836645428
116      -0.005775295405
117       0.026363119296
118      -0.144115281682
119       0.055502677450
120      -0.032962841303
121       0.064322182510
122       0.085934635223
123      -0.196504339561
124       0.012440179926
125       0.026920752905
126       0.220902816929
127      -0.054310343281
128      -0.051442250023
129      -0.226885571206
130       0.001187912454
131       0.024116137781
132       0.007263184508
133      -0.008346824402
134       0.002668804114
135       0.003803005387
136       0.007485830617
137       0.000000849885
138       0.000000363408
139       0.022550008588
140      -0.042701378346
141       0.000001727418
142       0.000001088983
143       0.080133552490
144      -0.155296553013
145       0.000000487875
146      -0.000003801491
147      -0.030448385662
148      -0.036917410920
149      -0.000000576029
150       0.000000362388
151       0.064930723795
152       0.003273122533
153       0.000000996731
154       0.000000062243
155      -0.004519608927
156      -0.000501649523
 Sym=     1a
 Ene= 1.51327590766120E+00
 Spin= Alpha
 Occup= 0.000000
  1      -0.006170108533
  2      -0.017424897455
  3      -0.044902635705
  4      -0.065595847789
  5      -0.041679716168
  6       0.298103123115
  7       0.126612361231
  8      -0.043170098166
  9       0.239806570693
 10      -1.711200487757
 11      -0.681042066959
 12      -0.961553132730
 13      -0.448702215517
 14      -4.581062671208
 15       0.104164380919
 16      -0.977239241662
 17      -0.572634742939
 18      -0.024227510137
 19       0.083000427250
 20      -0.268363989692
 21       0.105342013972
 22       0.252368720552
 23       0.006170053679
 24       0.017424715338
 25      -0.044902386169
 26      -0.065596294366
 27       0.041680531231
 28      -0.298101196432
 29       0.126606788807
 30      -0.043166243666
 31      -0.239799865262
 32       1.711209871548
 33      -0.681004348889
 34      -0.961556394551
 35       0.448710244707
 36       4.581078269643
 37       0.104169087420
 38      -0.977244862331
 39       0.572639540889
 40       0.024221129365
 41       0.082976619390
 42      -0.268364809078
 43      -0.105342951702
 44      -0.252360090840
 45      -0.054329819458
 46       0.454097322420
 47      -0.200454701274
 48       0.350036762789
 49       0.279718641000
 50       0.152373128692
 51       0.067698773383
 52      -0.552445172655
 53       0.127608804424
 54       0.166895587872
 55       0.102353033031
 56      -0.070213988033
 57      -0.067695392105
 58       0.552418799863
 59      -0.127603626416
 60       0.166888686993
 61       0.102355250210
 62       0.070217157998
 63       0.054326150907
 64      -0.454064737172
 65       0.200441512729
 66       0.350039422571
 67       0.279715731526
 68      -0.152378070282
 69       0.000000068508
 70       0.000000006930
 71      -0.021135937366
 72       0.019990193090
 73      -0.000001834505
 74       0.000000205953
 75       0.034635842484
 76      -0.132260218493
 77      -0.000000937260
 78       0.000026822666
 79      -0.291710207342
 80       0.366534239147
 81      -0.000033339857
 82      -0.000024266088
 83      -0.206013567415
 84      -0.396243642418
 85       0.000009963387
 86      -0.000003029318
 87       0.066823336678
 88       0.112389148274
 89       0.000001744544
 90       0.000000370583
 91       0.033004180990
 92       0.067380771950
 93      -0.007966109760
 94       0.011722004533
 95       0.024873522296
 96      -0.578156787864
 97      -0.046755162898
 98      -0.019251184195
 99       0.096068428286
100       0.958437620251
101       0.269439597474
102       0.066365655592
103      -0.291907932671
104      -2.698462858225
105      -0.162405846352
106       0.750370772253
107       0.393062921319
108      -0.033024085359
109       0.028407844550
110       0.024337281736
111      -0.002472160903
112       0.011003726623
113      -0.033005387960
114      -0.067383304209
115      -0.007967308048
116       0.011722213155
117      -0.024874285754
118       0.578179293511
119      -0.046755764077
120      -0.019248948783
121      -0.096071862491
122      -0.958490326166
123       0.269443839804
124       0.066345515659
125       0.291919817037
126       2.698433755857
127      -0.162392901708
128       0.750350556600
129      -0.393080525992
130       0.033025538969
131       0.028405587804
132       0.024337072934
133       0.002471027044
134      -0.011002018714
135      -0.000000527119
136      -0.000001052261
137       0.003022352699
138      -0.000991705656
139      -0.000000756153
140       0.000007807202
141       0.005740720034
142       0.000167369537
143      -0.000002590149
144      -0.000003592805
145      -0.033937723356
146      -0.073405475451
147       0.000002284141
148       0.000041332087
149       0.117582598279
150       0.181485118423
151      -0.000018059484
152       0.000000120039
153      -0.007288421014
154      -0.002626318416
155       0.000000404884
156       0.000000043756
 Sym=     1a
 Ene= 1.55455056472041E+00
 Spin= Alpha
 Occup= 0.000000
  1      -0.008318560349
  2      -0.016604380873
  3       0.017439393124
  4      -0.009266959312
  5      -0.014788392148
  6       0.196941093572
  7      -0.127901673531
  8       0.301672912584
  9      -0.158705033347
 10      -0.193386440169
 11       1.366221529557
 12      -0.582457061241
 13      -0.469837286030
 14      -0.183175217640
 15       0.077471406490
 16      -0.008916669256
 17       0.054944211343
 18       0.212997635656
 19      -0.385810059045
 20       0.022550648726
 21       0.174684198445
 22      -0.173646886647
 23      -0.008318571170
 24      -0.016604204564
 25      -0.017440000977
 26       0.009262858707
 27      -0.014784867750
 28       0.196936867438
 29       0.127902385866
 30      -0.301675606479
 31      -0.158720198770
 32      -0.193381025384
 33      -1.366232943222
 34       0.582417934873
 35      -0.469841546721
 36      -0.183177972721
 37      -0.077475164483
 38       0.008923847275
 39       0.054953130946
 40       0.212997587341
 41       0.385801236505
 42      -0.022569905037
 43       0.174677154951
 44      -0.173652906671
 45       0.120471562083
 46      -0.925782432152
 47       0.132967924839
 48      -0.083224387293
 49      -0.017032539543
 50       0.093938499586
 51      -0.022609214417
 52       0.595581998315
 53       0.119712556522
 54      -0.191988995971
 55       0.177899557304
 56       0.134478916957
 57      -0.022609246363
 58       0.595595110180
 59       0.119733019146
 60       0.191983382636
 61      -0.177885702271
 62       0.134481041819
 63       0.120471225229
 64      -0.925780044400
 65       0.132970083024
 66       0.083231952276
 67       0.017042495638
 68       0.093929854622
 69       0.002665777189
 70       0.011597144642
 71      -0.000000583475
 72       0.000000751808
 73       0.041797458323
 74      -0.120089250964
 75       0.000000611791
 76      -0.000002187172
 77       0.310082184788
 78      -0.601860874828
 79      -0.000009895469
 80       0.000023173747
 81       1.637014876539
 82       0.851364535828
 83       0.000000095198
 84      -0.000002187049
 85      -0.509041993708
 86       0.222920073280
 87       0.000002291510
 88       0.000002006933
 89       0.169527310909
 90      -0.015802460332
 91       0.039195442739
 92       0.082401208426
 93      -0.017681949805
 94       0.008767577199
 95       0.031420921511
 96      -0.755877320573
 97      -0.033945766251
 98       0.045172312138
 99       0.109708244761
100       1.910996734812
101       0.323050631520
102      -0.680334980390
103      -0.276943783158
104      -0.059670773754
105       0.238113409530
106      -0.316526018703
107       0.502415971480
108      -0.036202150977
109      -0.038419433314
110       0.016163646433
111       0.025780340416
112      -0.015413579243
113       0.039193631759
114       0.082397523187
115       0.017681900782
116      -0.008766360274
117       0.031418422925
118      -0.755845932644
119       0.033943439910
120      -0.045173395218
121       0.109699090440
122       1.910937847156
123      -0.323035922755
124       0.680343124789
125      -0.276901313004
126      -0.059563258360
127      -0.238126747823
128       0.316560430387
129       0.502409625854
130      -0.036200758629
131       0.038421735259
132      -0.016161290840
133       0.025781754090
134      -0.015414260214
135      -0.001280000232
136      -0.002314762818
137      -0.000000080199
138      -0.000000173794
139       0.021462610634
140       0.063808555511
141      -0.000000275789
142      -0.000000312932
143       0.145748461844
144      -0.882654323544
145       0.000001619020
146      -0.000002989543
147       0.230670022391
148      -1.362208097747
149       0.000001672168
150       0.000002162236
151       0.658062687064
152      -0.008265251245
153      -0.000000184077
154      -0.000000002783
155       0.001115814422
156      -0.004007627343
 Sym=     1a
 Ene= 1.58869485376601E+00
 Spin= Alpha
 Occup= 0.000000
  1       0.004852112297
  2       0.011599684973
  3      -0.002758674761
  4       0.012834057562
  5      -0.069143375468
  6      -0.126544720884
  7      -0.051892509267
  8      -0.123904840163
  9       0.249546252666
 10       0.306187182945
 11       0.864296230206
 12       0.209437002349
 13      -0.232955724704
 14      -0.658356810996
 15       0.020409967890
 16      -0.183802365737
 17      -0.164065777727
 18      -0.143221544410
 19      -0.162343554617
 20       0.283435927230
 21      -0.105606770412
 22       0.006126680250
 23       0.004851783030
 24       0.011599898245
 25       0.002757716105
 26      -0.012848235074
 27      -0.069131126696
 28      -0.126580061215
 29       0.051881640035
 30       0.123896820770
 31       0.249520375864
 32       0.306428365201
 33      -0.864229874168
 34      -0.209588297611
 35      -0.232778583262
 36      -0.658229004601
 37      -0.020380619766
 38       0.183787382601
 39      -0.164097161113
 40      -0.143179755277
 41       0.162357711357
 42      -0.283445705542
 43      -0.105656718592
 44       0.006129830193
 45       0.056670661319
 46      -0.575454416041
 47       0.050788975781
 48      -0.173647594932
 49      -0.013364895128
 50       0.055275923445
 51       0.010896720553
 52       0.107768226409
 53       0.341961061913
 54      -0.073902144844
 55      -0.001475931180
 56       0.284122120966
 57       0.010874526189
 58       0.107824900758
 59       0.341867022273
 60       0.073861382822
 61       0.001523760735
 62       0.284041763635
 63       0.056668824737
 64      -0.575407669501
 65       0.050850961669
 66       0.173612478920
 67       0.013361193019
 68       0.055286327970
 69      -0.014405477744
 70      -0.042742117942
 71       0.000004028028
 72       0.000001622276
 73       0.024645992816
 74       0.389155830600
 75       0.000001669715
 76       0.000009732908
 77       0.058062724001
 78       2.360510988273
 79      -0.000037686636
 80       0.000062817426
 81       1.927856534908
 82       0.527367621068
 83      -0.000028104682
 84      -0.000013340268
 85      -0.252664466382
 86       0.368700640399
 87       0.000022309629
 88      -0.000001364421
 89       0.241605030636
 90       0.041770454851
 91      -0.044863779239
 92      -0.089615536746
 93       0.007811607280
 94      -0.012378044941
 95      -0.053105203216
 96       0.686264349301
 97       0.014599811771
 98      -0.090991830105
 99      -0.111411218321
100      -0.918620387838
101       0.079521337451
102       0.255449442646
103       0.156637955674
104       0.766472680476
105       0.080326256101
106      -0.187134753657
107      -0.105479522121
108      -0.035561345279
109      -0.006729836798
110       0.011956716651
111      -0.046591987618
112      -0.020943048594
113      -0.044864670408
114      -0.089616897742
115      -0.007812516681
116       0.012383795681
117      -0.053114085737
118       0.686262330114
119      -0.014596029520
120       0.091004716897
121      -0.111437576823
122      -0.918496409088
123      -0.079559292755
124      -0.255438342769
125       0.156704079704
126       0.766601980376
127      -0.080316175754
128       0.187200650226
129      -0.105499224027
130      -0.035558727100
131       0.006718721687
132      -0.011959389862
133      -0.046592953650
134      -0.020943795130
135      -0.038478424057
136      -0.079516817803
137      -0.000002175835
138      -0.000000460740
139       0.021489857221
140       0.756690058404
141      -0.000003455958
142       0.000000676126
143       0.136640784754
144      -2.823848494741
145      -0.000000816710
146      -0.000013921027
147       0.905594345774
148      -1.037232705978
149       0.000020897130
150       0.000003502393
151       0.510286697352
152       0.016616403665
153      -0.000003441281
154      -0.000001171259
155       0.032098256574
156       0.011565472412
 Sym=     1a
 Ene= 1.59400208458830E+00
 Spin= Alpha
 Occup= 0.000000
  1      -0.001058858328
  2       0.004651929664
  3       0.015507002796
  4       0.093820095403
  5       0.072828002973
  6      -0.330028155502
  7       0.085072473052
  8       0.069325984872
  9      -0.107278766589
 10       2.410288149752
 11      -0.281327563416
 12       1.208565804935
 13       1.346501585490
 14       0.852602671502
 15      -0.164637812017
 16       0.104876496838
 17      -0.363484003476
 18       0.288111533947
 19       0.110140461442
 20      -0.014442644032
 21      -0.347703254779
 22      -0.059061030832
 23       0.001059230697
 24      -0.004650945410
 25       0.015508648733
 26       0.093817056708
 27      -0.072839135129
 28       0.330014161586
 29       0.085080109302
 30       0.069337422686
 31       0.107323216433
 32      -2.410209478698
 33      -0.281487772494
 34       1.208555746601
 35      -1.346538274304
 36      -0.852722384364
 37      -0.164649261388
 38       0.104905465128
 39       0.363455355439
 40      -0.288122153412
 41       0.110188584967
 42      -0.014490758624
 43       0.347693000949
 44       0.059054116096
 45      -0.053249430269
 46       0.377612011902
 47       0.129879985741
 48       0.145938078319
 49       0.046499221963
 50      -0.062251702642
 51      -0.160622714031
 52       0.372915984326
 53      -0.573145686300
 54       0.207833909959
 55      -0.320439542265
 56      -0.331516737142
 57       0.160623866273
 58      -0.372884659873
 59       0.573205236028
 60       0.207837912576
 61      -0.320442735680
 62       0.331553707821
 63       0.053264656484
 64      -0.377739067898
 65      -0.129851599877
 66       0.145961781786
 67       0.046494067191
 68       0.062269649102
 69      -0.000001367452
 70      -0.000003889041
 71      -0.036651538490
 72       0.022395658988
 73       0.000001022944
 74       0.000033649680
 75       0.009159409390
 76      -0.178887829014
 77      -0.000000524057
 78       0.000221697009
 79       0.442678681493
 80      -0.751215781942
 81       0.000144311531
 82       0.000057200315
 83       0.205627208981
 84       0.167433175095
 85      -0.000027688240
 86       0.000029642312
 87      -0.267348535823
 88      -0.021777689142
 89       0.000013544896
 90       0.000006094891
 91       0.004690880827
 92       0.013223617392
 93      -0.001284991293
 94      -0.024944578812
 95      -0.066194268949
 96      -0.222404796487
 97      -0.005452729952
 98      -0.064526447758
 99      -0.177090730593
100       1.360824360455
101       0.165810510060
102      -0.151784150262
103       0.204860493394
104       0.622308441824
105       0.035231163203
106      -0.414207735931
107      -0.051940409486
108      -0.018680741020
109       0.036749588203
110       0.015998981830
111       0.002674038865
112      -0.012257951069
113      -0.004698745911
114      -0.013239429062
115      -0.001284897724
116      -0.024942144563
117       0.066185275645
118       0.222529581849
119      -0.005457418063
120      -0.064511069599
121       0.177073189335
122      -1.361015253719
123       0.165819662747
124      -0.151838714844
125      -0.204841386269
126      -0.622206308138
127       0.035204545476
128      -0.414175956856
129       0.051954780778
130       0.018674432938
131       0.036753878365
132       0.015998183545
133      -0.002679826137
134       0.012250570696
135      -0.000002931505
136      -0.000006072954
137       0.027203571015
138       0.004327265336
139       0.000001438367
140       0.000058191613
141       0.050551015355
142      -0.012829841056
143       0.000009746221
144      -0.000219786496
145      -0.016104213425
146       0.219200862323
147       0.000074665597
148      -0.000108766349
149      -0.182291267876
150      -0.094564919922
151       0.000052565197
152       0.000001244380
153       0.037729489569
154       0.022314425425
155       0.000002204610
156       0.000001345394
 Sym=     1a
 Ene= 1.61463008774565E+00
 Spin= Alpha
 Occup= 0.000000
  1       0.000658862569
  2      -0.000208713175
  3      -0.004858189794
  4       0.004981310672
  5       0.000731737846
  6       0.156674345799
  7       0.105351978107
  8      -0.053074850554
  9      -0.220412223671
 10      -1.402613580013
 11      -0.381641180002
 12      -0.134223029328
 13      -0.639948941249
 14       1.865412763076
 15      -0.117793981598
 16       0.453380439896
 17       0.732974113562
 18      -0.222694181446
 19      -0.384185441147
 20       0.235242754853
 21       0.158459469282
 22      -0.001691851161
 23      -0.000659789973
 24       0.000206810311
 25      -0.004865388768
 26       0.004977585155
 27      -0.000723531084
 28      -0.156683022955
 29       0.105380261862
 30      -0.053086115579
 31       0.220442185614
 32       1.402872741591
 33      -0.382035894045
 34      -0.134133702990
 35       0.640038593399
 36      -1.865386995248
 37      -0.117819716530
 38       0.453356596301
 39      -0.732983105712
 40       0.222735772544
 41      -0.384191287120
 42       0.235245582960
 43      -0.158435008007
 44       0.001701331428
 45       0.150836584784
 46      -0.447474830002
 47       0.726442995560
 48       0.266278575292
 49      -0.011909527117
 50       0.209343841262
 51       0.028425749257
 52      -0.039645360170
 53      -0.174078940594
 54       0.213032454311
 55      -0.170583836572
 56      -0.247705614472
 57      -0.028417076021
 58       0.039709995799
 59       0.174209436406
 60       0.213061212637
 61      -0.170610667469
 62       0.247733682607
 63      -0.150844279060
 64       0.447376771557
 65      -0.726526058173
 66       0.266357687894
 67      -0.011929711648
 68      -0.209410664321
 69       0.000000168798
 70      -0.000000409269
 71       0.002177788358
 72      -0.100244465527
 73      -0.000013266638
 74      -0.000002169582
 75      -0.106198002968
 76       0.278197293433
 77      -0.000011394465
 78       0.000257527815
 79       0.086779456302
 80       0.143606353676
 81      -0.000177943650
 82      -0.000045044368
 83       0.304973114496
 84       0.138393327018
 85       0.000009227603
 86      -0.000018557233
 87      -0.085578947177
 88       0.031303796537
 89      -0.000006157314
 90      -0.000027241776
 91      -0.037323333027
 92      -0.079358712690
 93      -0.000227552106
 94      -0.026532279311
 95       0.042361380230
 96       0.774043122071
 97      -0.033022361428
 98      -0.039070923128
 99       0.072498098411
100      -2.049928831954
101      -0.003105087768
102       0.308359018401
103       0.373982141506
104       1.020614007078
105      -0.096328653517
106      -0.181333348212
107      -0.080664298888
108       0.092909443760
109       0.026699902263
110      -0.008608174811
111      -0.020934392666
112      -0.000085294346
113       0.037316825000
114       0.079344390030
115      -0.000226732209
116      -0.026533825601
117      -0.042360289868
118      -0.773893540580
119      -0.033010436830
120      -0.039068641278
121      -0.072500565124
122       2.049414759434
123      -0.003137660413
124       0.308216202889
125      -0.373934286637
126      -1.020787226746
127      -0.096315765009
128      -0.181380552705
129       0.080777746855
130      -0.092897367019
131       0.026696351315
132      -0.008603571514
133       0.020929347610
134       0.000088873557
135      -0.000002361165
136      -0.000004767740
137       0.005574561735
138       0.000395164653
139      -0.000005720156
140       0.000036366468
141      -0.001309410464
142       0.011396065105
143      -0.000019613255
144      -0.000013447108
145       0.094354856432
146      -0.158302117920
147       0.000037413818
148       0.000030627348
149      -0.152993934592
150      -0.017059323359
151      -0.000014547013
152       0.000000541484
153       0.024265910434
154      -0.027124761702
155       0.000000359682
156      -0.000001829240
 Sym=     1a
 Ene= 1.63021872680974E+00
 Spin= Alpha
 Occup= 0.000000
  1      -0.004081851484
  2      -0.007580873217
  3       0.045656463228
  4       0.007046920610
  5       0.068133466317
  6      -0.077655375907
  7      -0.127220198075
  8       0.076117496364
  9       0.052281769610
 10       1.272388454909
 11       1.857820415717
 12      -0.451401772855
 13       0.600409249200
 14       0.363398678735
 15       0.191629509290
 16       0.157441357394
 17      -0.020979555365
 18       0.283094071629
 19       0.145636130516
 20      -0.091501376074
 21       0.106508552484
 22       0.066851392264
 23      -0.004081784094
 24      -0.007581267618
 25      -0.045655531307
 26      -0.007043270764
 27       0.068132932113
 28      -0.077608665918
 29       0.127197075307
 30      -0.076107301332
 31       0.052244998650
 32       1.271966788073
 33      -1.857738018417
 34       0.451518599338
 35       0.600262385427
 36       0.363652463809
 37      -0.191603333894
 38      -0.157506708747
 39      -0.020858825435
 40       0.283054560267
 41      -0.145563797401
 42       0.091461815031
 43       0.106542427458
 44       0.066848098543
 45      -0.095968377288
 46      -0.236608761983
 47      -0.610171496403
 48      -0.352288378159
 49       0.095300442525
 50      -0.417116173456
 51       0.041329968496
 52       0.309395136115
 53       0.630723910513
 54      -0.144922595277
 55       0.147599586462
 56       0.074876934889
 57       0.041334071054
 58       0.309398965548
 59       0.630685770979
 60       0.144878215111
 61      -0.147572036294
 62       0.074831598240
 63      -0.095937908404
 64      -0.236685496681
 65      -0.610032475370
 66       0.352238925100
 67      -0.095313165115
 68      -0.417078190791
 69       0.003844308100
 70       0.002110026340
 71      -0.000000400139
 72       0.000009482842
 73      -0.123978050661
 74      -0.075890547998
 75       0.000010049037
 76      -0.000028896680
 77      -0.071675960848
 78       2.313270179832
 79      -0.000001540910
 80      -0.000030071370
 81      -1.782855652195
 82      -0.671640897311
 83      -0.000026919621
 84      -0.000007229993
 85       0.199260089438
 86      -0.207370376826
 87       0.000004472536
 88      -0.000002743384
 89      -0.148638265097
 90      -0.294788590573
 91      -0.017531907708
 92      -0.042058043863
 93      -0.007152735522
 94       0.018036498891
 95       0.033275182149
 96       0.534138807971
 97      -0.074216332892
 98       0.025767824530
 99       0.051667427129
100      -2.337227034254
101       0.157379761225
102       0.617742997507
103       0.138392544728
104      -0.965081982849
105      -0.079424283184
106       0.256135094893
107       0.580661081711
108       0.075478810023
109       0.023287965766
110      -0.022238886484
111      -0.022785377745
112       0.026844825648
113      -0.017538892274
114      -0.042072969299
115       0.007152644668
116      -0.018031662329
117       0.033283788910
118       0.534286640757
119       0.074221485221
120      -0.025759613014
121       0.051683998566
122      -2.337647799174
123      -0.157370867150
124      -0.617815464899
125       0.138454640848
126      -0.964935901445
127       0.079441059038
128      -0.256114940540
129       0.580638345181
130       0.075495575345
131      -0.023291629662
132       0.022240546340
133      -0.022789608879
134       0.026844927849
135      -0.020456467865
136      -0.041316612860
137      -0.000000215671
138       0.000000025359
139      -0.054855324576
140       0.309510338616
141       0.000000770777
142      -0.000001400960
143      -0.189536078954
144      -0.013761954148
145      -0.000009531066
146       0.000019099510
147       0.311467832352
148       0.419777971969
149       0.000013746920
150      -0.000002359961
151      -0.222142778026
152       0.003996565354
153      -0.000001867767
154       0.000003045458
155      -0.006650270713
156      -0.022145042055
 Sym=     1a
 Ene= 1.67045064013846E+00
 Spin= Alpha
 Occup= 0.000000
  1      -0.003140416189
  2      -0.011243167407
  3       0.032111883091
  4       0.019381801246
  5      -0.020055146790
  6       0.277064721492
  7      -0.166619922285
  8      -0.057447445957
  9      -0.008751391043
 10      -1.045664035704
 11       1.286527845535
 12       0.082426571794
 13      -0.864343135148
 14      -0.806435248716
 15       0.411000922674
 16      -0.186095316487
 17      -0.188532574580
 18      -0.367658831029
 19       0.057575795303
 20       0.018776751782
 21       0.074180391064
 22       0.100022275945
 23      -0.003140550971
 24      -0.011243680532
 25      -0.032110403261
 26      -0.019378648534
 27      -0.020057620890
 28       0.277083301517
 29       0.166621325363
 30       0.057447476837
 31      -0.008741922715
 32      -1.045800438290
 33      -1.286539747533
 34      -0.082381483681
 35      -0.864410738019
 36      -0.806623021999
 37      -0.411006783836
 38       0.186134914924
 39      -0.188547585817
 40      -0.367663573222
 41      -0.057564323047
 42      -0.018783454931
 43       0.074190218731
 44       0.100025759007
 45      -0.034273625795
 46      -0.161786415011
 47      -0.512127052548
 48      -0.245022614956
 49      -0.187935373917
 50      -0.094446860900
 51       0.118861315083
 52       0.006970306101
 53       0.953814757181
 54      -0.140506263873
 55      -0.026031843302
 56       0.267461388500
 57       0.118866284555
 58       0.006970596845
 59       0.953839715442
 60       0.140504579458
 61       0.026021268276
 62       0.267463534568
 63      -0.034271525375
 64      -0.161796616311
 65      -0.512129192018
 66       0.245026548891
 67       0.187938442380
 68      -0.094434321089
 69       0.023394171818
 70       0.061344095109
 71       0.000000451410
 72       0.000000957202
 73      -0.052793163464
 74      -0.478351019539
 75      -0.000000407107
 76       0.000000993897
 77      -0.134980444624
 78      -4.621656023381
 79      -0.000005694911
 80       0.000017794243
 81      -3.399522869817
 82       1.322104542883
 83      -0.000001134295
 84       0.000010364402
 85      -0.525426857769
 86      -0.589051846703
 87      -0.000001795605
 88      -0.000003118735
 89       0.350137408205
 90      -0.062539332715
 91       0.013763003380
 92       0.032252538006
 93       0.023280680453
 94      -0.032913751275
 95      -0.042815419771
 96      -0.402806503038
 97      -0.026647929637
 98      -0.056276433332
 99      -0.133394576075
100       1.251312211465
101       0.447513548524
102      -0.182759984615
103       0.342633992681
104      -0.229289552874
105       0.029109292852
106       0.003224462647
107      -0.248685415446
108      -0.017564852488
109       0.038959539115
110       0.001741338979
111       0.029964483857
112       0.080206151811
113       0.013763681717
114       0.032253829075
115      -0.023281115315
116       0.032913568418
117      -0.042812860705
118      -0.402815028307
119       0.026648244334
120       0.056274275010
121      -0.133389511477
122       1.251301188082
123      -0.447514983672
124       0.182768985927
125       0.342652336004
126      -0.229318363927
127      -0.029104851102
128      -0.003232589579
129      -0.248666598079
130      -0.017562660750
131      -0.038960822714
132      -0.001741141290
133       0.029965056607
134       0.080207554618
135       0.042744929628
136       0.089926173396
137       0.000000008025
138       0.000000111819
139      -0.043944014275
140      -0.938301575113
141      -0.000000145770
142       0.000000686868
143      -0.244340898339
144       4.401727976201
145       0.000000001736
146      -0.000001952244
147      -1.453573301949
148       1.980052962842
149      -0.000000740041
150      -0.000003147969
151      -0.717157050865
152      -0.022917239401
153       0.000000196003
154      -0.000000056253
155       0.018675072580
156      -0.013418808293
 Sym=     1a
 Ene= 1.69401435220653E+00
 Spin= Alpha
 Occup= 0.000000
  1      -0.000600492683
  2      -0.006877680785
  3      -0.036032480710
  4       0.039454561714
  5      -0.058093618726
  6       0.159518153062
  7       0.018644037158
  8      -0.076935259922
  9       0.124832348003
 10      -0.090340844491
 11       1.062678399882
 12      -0.093609377817
 13      -0.389513775595
 14       0.013285277073
 15      -0.155968555286
 16      -0.008147704729
 17       0.140676933691
 18      -0.032419891723
 19      -0.349708572926
 20       0.072678696925
 21      -0.062024076773
 22      -0.163448336903
 23      -0.000601026183
 24      -0.006878337713
 25       0.036034406290
 26      -0.039464019225
 27      -0.058092640900
 28       0.159509911669
 29      -0.018642296758
 30       0.076931352325
 31       0.124835898841
 32      -0.090218513421
 33      -1.062677093792
 34       0.093467904762
 35      -0.389555436352
 36       0.012884324673
 37       0.155972495282
 38       0.008249513416
 39       0.140656505630
 40      -0.032411675080
 41       0.349726248767
 42      -0.072706217411
 43      -0.062041982230
 44      -0.163438316438
 45       0.151851208826
 46      -0.789335395752
 47       0.361661160716
 48       0.025870369935
 49       0.074400500871
 50       0.114544517172
 51      -0.040109024788
 52       0.603809784215
 53       0.048774103680
 54       0.012072893107
 55      -0.048764200399
 56      -0.058132145092
 57      -0.040111376053
 58       0.603814167214
 59       0.048786291607
 60      -0.012079651137
 61       0.048780063896
 62      -0.058137147847
 63       0.151853020287
 64      -0.789356494905
 65       0.361688614328
 66      -0.025871684476
 67      -0.074373047342
 68       0.114569944622
 69       0.011529352358
 70       0.031138278441
 71       0.000000868115
 72       0.000001505178
 73      -0.085003935502
 74      -0.562277243582
 75      -0.000002056678
 76       0.000011004471
 77      -0.250639195034
 78       1.332467807181
 79      -0.000037167005
 80       0.000081766526
 81      -4.787079162860
 82      -0.312453206968
 83      -0.000008228547
 84       0.000009570947
 85      -0.088054498531
 86      -0.355664272613
 87       0.000007447772
 88      -0.000006825552
 89      -0.696866944165
 90      -0.458862206918
 91      -0.013842849959
 92      -0.031289755320
 93      -0.024608905640
 94       0.004461142626
 95      -0.080608798285
 96       0.392160118806
 97      -0.047879897798
 98       0.058121218438
 99      -0.187879344431
100      -2.004063497814
101      -0.059412863189
102       0.848540263923
103      -0.046823982768
104      -1.048709889861
105      -0.003073306149
106       0.286244668369
107       0.319099113682
108       0.041963921562
109      -0.024766617434
110      -0.056530621629
111       0.010307555773
112      -0.015504000664
113      -0.013841295159
114      -0.031286426779
115       0.024607652713
116      -0.004458394122
117      -0.080609175263
118       0.392126684348
119       0.047879921831
120      -0.058122185310
121      -0.187884872742
122      -2.003958420355
123       0.059401657318
124      -0.848487683309
125      -0.046761234582
126      -1.048708457893
127       0.003090406837
128      -0.286224746202
129       0.319155093166
130       0.041967947138
131       0.024763120114
132       0.056532959404
133       0.010311133297
134      -0.015500921777
135       0.025352087723
136       0.053758245643
137      -0.000000791059
138       0.000000056190
139      -0.037893250157
140      -0.575334512161
141      -0.000002078221
142       0.000002250190
143      -0.182679056538
144       3.047878403174
145       0.000005555438
146      -0.000016298838
147      -0.745558669998
148       1.579677981408
149       0.000002765682
150       0.000000515958
151      -0.470225471531
152      -0.019392642726
153      -0.000000658603
154      -0.000001220545
155      -0.073083895059
156      -0.041911430819
 Sym=     1a
 Ene= 1.70143425542369E+00
 Spin= Alpha
 Occup= 0.000000
  1       0.006753304726
  2       0.011027621338
  3       0.026812975958
  4      -0.117277657332
  5       0.056416500570
  6       0.102882767392
  7      -0.005975320588
  8      -0.002564827229
  9      -0.206456020805
 10      -2.426471397047
 11       0.083455941947
 12      -2.349685011194
 13       0.676701420807
 14       7.535062129692
 15      -0.002937844048
 16       1.823643603821
 17       0.439437558374
 18       0.013789510814
 19       0.109585793952
 20      -0.251233465760
 21       0.048137082981
 22      -0.136305893143
 23      -0.006753464114
 24      -0.011027553594
 25       0.026809977768
 26      -0.117275212878
 27      -0.056408500653
 28      -0.102897379750
 29      -0.005971426251
 30      -0.002569473849
 31       0.206452875710
 32       2.426539572317
 33       0.083508322023
 34      -2.349674823363
 35      -0.676639363172
 36      -7.535042934386
 37      -0.002942526074
 38       1.823638322219
 39      -0.439446520626
 40      -0.013773767985
 41       0.109569104907
 42      -0.251224875940
 43      -0.048132857282
 44       0.136315832531
 45      -0.010757695172
 46       0.298987359566
 47      -0.300563253998
 48       0.019652681824
 49       0.383083717572
 50      -0.321943609675
 51      -0.058037401680
 52       0.349882278137
 53      -0.452384297822
 54      -0.070422300954
 55       0.250166274258
 56      -0.223376245884
 57       0.058036991276
 58      -0.349913657219
 59       0.452364902232
 60      -0.070420531196
 61       0.250158614743
 62       0.223365653515
 63       0.010749799771
 64      -0.298947568384
 65       0.300553014718
 66       0.019657328106
 67       0.383083779024
 68       0.321932683096
 69      -0.000000617358
 70      -0.000001658662
 71       0.026052586480
 72      -0.010901346048
 73       0.000002773920
 74       0.000024873824
 75      -0.089417058286
 76       0.412090091035
 77      -0.000002420135
 78      -0.000043135777
 79      -0.846627887330
 80       2.081590417461
 81       0.000127903032
 82      -0.000007656995
 83      -0.084990818012
 84       0.414243471740
 85       0.000009356173
 86       0.000007553640
 87       0.172549221170
 88      -0.164139241783
 89       0.000022682743
 90       0.000019675941
 91      -0.047215553867
 92      -0.097841308443
 93       0.005578949271
 94       0.003008624633
 95      -0.025329103182
 96       0.893576598913
 97       0.020923181373
 98      -0.081724727526
 99      -0.009177807688
100      -2.245629018990
101      -0.165847768223
102       0.925307020386
103      -0.523551802568
104       0.902792216308
105       0.226476361304
106       0.042267838391
107      -1.117038132448
108      -0.020679524267
109      -0.011254570313
110       0.025794942558
111      -0.055288458683
112      -0.035341284900
113       0.047214877278
114       0.097839919134
115       0.005578321550
116       0.003009465796
117       0.025336309690
118      -0.893567266362
119       0.020918183998
120      -0.081717798270
121       0.009192887118
122       2.245656473677
123      -0.165831724338
124       0.925332546879
125       0.523569499462
126      -0.902729556651
127       0.226475916762
128       0.042292041993
129       1.117048444648
130       0.020677390878
131      -0.011253670389
132       0.025791691647
133       0.055287369397
134       0.035340018119
135      -0.000000477890
136      -0.000001053269
137      -0.020688516552
138      -0.001380350323
139       0.000001065626
140       0.000011939548
141      -0.059299560755
142       0.056855509599
143       0.000003279401
144      -0.000067939314
145       0.206798300126
146      -0.469679207481
147       0.000017004249
148      -0.000060687697
149      -0.016015002766
150       0.049419411213
151       0.000019001228
152       0.000000810209
153      -0.006554909518
154      -0.051644418499
155       0.000002591859
156       0.000002071824
 Sym=     1a
 Ene= 1.72653212583883E+00
 Spin= Alpha
 Occup= 0.000000
  1       0.006725359215
  2       0.011452728358
  3      -0.001560583700
  4      -0.007013068850
  5      -0.094249739149
  6       0.018898223841
  7      -0.047470319851
  8      -0.056286107635
  9      -0.179979459011
 10      -1.096424053951
 11      -0.710817916926
 12       0.454059450435
 13      -0.313529186921
 14      -0.713501018614
 15       0.068138291758
 16       0.010992591182
 17      -0.125708380812
 18      -0.379315360054
 19       0.140850651995
 20       0.073665442765
 21       0.001738442222
 22       0.055483940088
 23       0.006725336332
 24       0.011452581028
 25       0.001560864508
 26       0.007011566127
 27      -0.094254913861
 28       0.018899281643
 29       0.047468071091
 30       0.056287349978
 31      -0.179968404778
 32      -1.096376812710
 33       0.710806328407
 34      -0.454113980914
 35      -0.313562508039
 36      -0.713725300852
 37      -0.068148155589
 38      -0.010941539525
 39      -0.125723145322
 40      -0.379323192406
 41      -0.140861395589
 42      -0.073665677765
 43       0.001748940192
 44       0.055481848453
 45      -0.038062090241
 46       0.402126944402
 47       0.029811855445
 48      -0.011861587474
 49      -0.002299439031
 50      -0.128893737305
 51       0.093368842703
 52      -0.408027830685
 53       0.391158836928
 54      -0.061809924395
 55       0.002223743784
 56       0.122885800070
 57       0.093375114120
 58      -0.408046787111
 59       0.391197698982
 60       0.061808173040
 61      -0.002217890003
 62       0.122911591000
 63      -0.038062284384
 64       0.402121293368
 65       0.029801050517
 66       0.011865993424
 67       0.002308406914
 68      -0.128890298522
 69       0.012046629719
 70       0.026572454200
 71      -0.000000156124
 72      -0.000002055717
 73      -0.070939935993
 74      -0.368092787788
 75      -0.000001244478
 76       0.000005498316
 77       0.730373566383
 78       3.884414176963
 79      -0.000001016383
 80       0.000011505097
 81       2.670757076933
 82       1.173907046144
 83       0.000005762960
 84       0.000006079598
 85      -0.476663885528
 86       0.314424142515
 87       0.000000038616
 88       0.000002859009
 89      -0.498736824958
 90      -0.327793304768
 91       0.038548267581
 92       0.081041518951
 93       0.017973163993
 94       0.033894723294
 95      -0.043839433920
 96      -0.743960376272
 97      -0.020053695010
 98       0.153931863703
 99      -0.044014380816
100       1.782151721544
101       0.195278735002
102      -0.625527033558
103      -0.777830190241
104      -0.393830475457
105      -0.213053148055
106       0.469341600314
107      -0.671022497004
108       0.021836131097
109       0.056740008691
110      -0.032849009764
111       0.015788365561
112       0.047917808742
113       0.038550192291
114       0.081045385674
115      -0.017972116634
116      -0.033897043339
117      -0.043837592063
118      -0.743992151825
119       0.020053841262
120      -0.153938560297
121      -0.044011450715
122       1.782205512287
123      -0.195278553055
124       0.625552151635
125      -0.777832892744
126      -0.393879404537
127       0.213048646443
128      -0.469347928428
129      -0.670989170265
130       0.021834661458
131      -0.056736958766
132       0.032849532231
133       0.015789570909
134       0.047918080149
135      -0.049763530467
136      -0.102373552729
137      -0.000000032017
138      -0.000000266037
139       0.003713599071
140       0.995300526461
141      -0.000000333378
142      -0.000000106598
143       0.167440375910
144      -4.047806688906
145       0.000003484337
146      -0.000004570378
147       1.260775339883
148      -0.337499684318
149      -0.000003908472
150       0.000002794635
151       0.152648038936
152      -0.003905036203
153       0.000000529075
154      -0.000001172759
155      -0.053952257670
156      -0.040689179220
 Sym=     1a
 Ene= 1.77025483119048E+00
 Spin= Alpha
 Occup= 0.000000
  1      -0.004651237939
  2      -0.009900168144
  3       0.039568736217
  4       0.062641261006
  5      -0.045533120855
  6       0.149256386176
  7       0.141792753388
  8      -0.038295217833
  9      -0.083077699347
 10      -0.599935236901
 11      -0.331240161705
 12       0.417494394695
 13      -0.852645808456
 14       0.092751256058
 15      -0.006088002354
 16       0.009464765752
 17       0.171612495118
 18      -0.234890723196
 19       0.292136847684
 20      -0.071931536046
 21       0.093966147106
 22      -0.259065696188
 23       0.004650829263
 24       0.009899281818
 25       0.039567420920
 26       0.062644125835
 27       0.045536709231
 28      -0.149247174700
 29       0.141792713759
 30      -0.038306641441
 31       0.083059506570
 32       0.599891181112
 33      -0.331161403909
 34       0.417501592362
 35       0.852649352480
 36      -0.092725950582
 37      -0.006080971413
 38       0.009455626030
 39      -0.171606014661
 40       0.234894333863
 41       0.292128562133
 42      -0.071920896112
 43      -0.093957543563
 44       0.259069431404
 45       0.042311862660
 46       0.037409552304
 47      -0.065549382816
 48       0.118120569966
 49       0.108194383956
 50      -0.165436387274
 51       0.002285099711
 52      -0.039612490534
 53      -0.058289680644
 54       0.182839838749
 55      -0.490295200809
 56       0.458492897938
 57      -0.002283345764
 58       0.039589153509
 59       0.058267745435
 60       0.182842864879
 61      -0.490299253303
 62      -0.458503073981
 63      -0.042313334628
 64      -0.037375746547
 65       0.065553633246
 66       0.118114336622
 67       0.108192179511
 68       0.165427890858
 69       0.000000029526
 70       0.000000152308
 71       0.038161266743
 72       0.048196361598
 73       0.000002039583
 74      -0.000001235259
 75      -0.032063790900
 76       0.139316973439
 77       0.000011151005
 78       0.000016176913
 79      -0.155119001339
 80       0.266236409931
 81       0.000085516121
 82      -0.000017373231
 83      -0.150705662338
 84       0.102014847153
 85       0.000009526053
 86       0.000009295651
 87       0.065825964224
 88      -0.147897765840
 89      -0.000003627332
 90      -0.000001251862
 91      -0.012806281973
 92      -0.028890234191
 93      -0.035805619895
 94       0.023683167093
 95       0.009241675139
 96       0.329129687167
 97      -0.006205980923
 98       0.033357912859
 99       0.002267747152
100      -1.213695874038
101      -0.192175137890
102       0.170371018618
103       0.118717277702
104      -0.092855590950
105       0.208003059555
106      -0.149886944134
107       0.381468353618
108      -0.024539489655
109      -0.102820439140
110      -0.006934413946
111      -0.007730364550
112      -0.027492698963
113       0.012809207504
114       0.028896201249
115      -0.035805024825
116       0.023681392949
117      -0.009236241148
118      -0.329180740923
119      -0.006203701695
120       0.033351439629
121      -0.002254338384
122       1.213812822811
123      -0.192184031350
124       0.170415725099
125      -0.118761393750
126       0.092889796715
127       0.208008021437
128      -0.149883197732
129      -0.381474162501
130       0.024540568368
131      -0.102820900195
132      -0.006935086142
133       0.007730611139
134       0.027493752676
135      -0.000000297308
136      -0.000000647449
137      -0.007740034872
138       0.000364898757
139       0.000001054342
140       0.000008491762
141      -0.010545962096
142       0.018134403202
143       0.000005722307
144      -0.000064689340
145       0.012428493617
146      -0.045144541322
147       0.000016994886
148      -0.000034037839
149       0.106509392738
150      -0.209360464907
151       0.000010309328
152       0.000000123780
153      -0.011335051679
154      -0.006307918759
155      -0.000000394789
156      -0.000000259945
 Sym=     1a
 Ene= 1.82991383267387E+00
 Spin= Alpha
 Occup= 0.000000
  1      -0.009272149221
  2      -0.020283089019
  3       0.015028111503
  4      -0.021532351653
  5      -0.047481634816
  6       0.200516323786
  7      -0.025877609514
  8       0.187379519970
  9       0.123141824556
 10      -0.274111117687
 11       0.128728943480
 12       0.063018141539
 13      -0.330234240591
 14       0.284005170300
 15       0.292745765271
 16      -0.015870511712
 17       0.115176852937
 18       0.373117100773
 19       0.279122763553
 20       0.017454167525
 21       0.149887845671
 22       0.053273800177
 23      -0.009272650512
 24      -0.020284172032
 25      -0.015026399937
 26       0.021529460041
 27      -0.047486078047
 28       0.200526859642
 29       0.025882475060
 30      -0.187378498126
 31       0.123147995617
 32      -0.274133007836
 33      -0.128731639355
 34      -0.063032036707
 35      -0.330273744639
 36       0.283979560050
 37      -0.292749429796
 38       0.015879819062
 39       0.115167989202
 40       0.373114156617
 41      -0.279121322769
 42      -0.017442031592
 43       0.149885149310
 44       0.053278806566
 45      -0.106362624020
 46       0.334955195567
 47      -0.372371414244
 48       0.071452775309
 49      -0.247179496345
 50       0.309222963778
 51       0.118317094531
 52      -0.133247528040
 53       0.457903518048
 54       0.039019215277
 55      -0.201486688485
 56       0.475016574039
 57       0.118318194232
 58      -0.133244514502
 59       0.457902672236
 60      -0.039016158291
 61       0.201487295662
 62       0.475019457310
 63      -0.106367963493
 64       0.334967790629
 65      -0.372395165138
 66      -0.071454422378
 67       0.247190780617
 68       0.309233127342
 69      -0.008851668911
 70      -0.013947643548
 71       0.000001417333
 72      -0.000000135686
 73       0.083760676944
 74      -0.187511836517
 75      -0.000001178104
 76       0.000000448120
 77      -0.210801332258
 78       2.492772036937
 79       0.000000559773
 80      -0.000000393634
 81      -2.053186412354
 82      -0.467649753909
 83       0.000000443198
 84       0.000000627109
 85       0.271237087302
 86       0.314080854810
 87      -0.000003141345
 88       0.000000812693
 89      -0.315835129676
 90      -0.256157073969
 91      -0.002619692744
 92      -0.008771056796
 93       0.007542660145
 94       0.031493788022
 95       0.017415775647
 96       0.217732105257
 97      -0.022967511460
 98       0.010270813222
 99       0.056552181045
100      -1.281409526886
101      -0.124450857569
102       0.838412921630
103      -0.229035167008
104      -0.639444009804
105      -0.067432212546
106       0.079143685710
107       0.103909700496
108       0.015217023349
109       0.023487104415
110       0.078264267305
111      -0.090838295489
112      -0.037964573565
113      -0.002619335491
114      -0.008770384116
115      -0.007541828177
116      -0.031495264090
117       0.017416773722
118       0.217727941234
119       0.022970738643
120      -0.010273084278
121       0.056553048786
122      -1.281419728146
123       0.124442935882
124      -0.838410220201
125      -0.229033123285
126      -0.639476609560
127       0.067441046621
128      -0.079147309979
129       0.103927100021
130       0.015216875932
131      -0.023487780735
132      -0.078265449100
133      -0.090839057108
134      -0.037964719452
135       0.028694855200
136       0.059438803545
137       0.000000337841
138      -0.000000032155
139       0.036203822698
140      -0.497561106946
141       0.000000703499
142      -0.000000174843
143       0.159555836130
144       0.979970935296
145       0.000000419684
146       0.000000094025
147      -0.226498761273
148       0.194069127402
149      -0.000002377867
150       0.000001802428
151      -0.078694566880
152      -0.005799353941
153       0.000000776670
154      -0.000000025896
155      -0.019360747264
156      -0.024391818449
 Sym=     1a
 Ene= 1.84472722746166E+00
 Spin= Alpha
 Occup= 0.000000
  1      -0.018972110509
  2      -0.036281063146
  3       0.006312019089
  4       0.109192969773
  5      -0.049133689145
  6       0.172864784172
  7      -0.080688161020
  8       0.001974478620
  9       0.114520338852
 10       0.926265145286
 11       0.156673689004
 12       0.684595601828
 13      -0.436777976118
 14       2.613036452166
 15       0.032755600953
 16       0.760639077790
 17      -0.267844590550
 18      -0.077853393773
 19       0.004823012751
 20      -0.337242528927
 21      -0.303166298227
 22       0.038984481223
 23       0.018972066889
 24       0.036280966396
 25       0.006312744300
 26       0.109193132323
 27       0.049132860767
 28      -0.172864737510
 29      -0.080694169604
 30       0.001974617895
 31      -0.114516653796
 32      -0.926250923810
 33       0.156675159894
 34       0.684599450332
 35       0.436777623968
 36      -2.613011066388
 37       0.032757103378
 38       0.760636570596
 39       0.267852902329
 40       0.077859093223
 41       0.004820230620
 42      -0.337242973020
 43       0.303165323260
 44      -0.038987288228
 45      -0.150970148232
 46       0.300861062159
 47      -0.735877695922
 48       0.026765044819
 49      -0.169845856064
 50       0.097940956961
 51      -0.066058001782
 52       0.187926263931
 53      -0.344336587456
 54      -0.145791551963
 55      -0.039322221638
 56       0.072917890481
 57       0.066057094359
 58      -0.187923555318
 59       0.344328622846
 60      -0.145794803075
 61      -0.039319519053
 62      -0.072913605622
 63       0.150971044232
 64      -0.300864388637
 65       0.735874463030
 66       0.026759479382
 67      -0.169845745455
 68      -0.097936210158
 69      -0.000000103759
 70      -0.000000187165
 71       0.002004519973
 72      -0.163246803998
 73       0.000001147132
 74      -0.000000668696
 75      -0.063360330767
 76       0.337585282029
 77      -0.000004577529
 78       0.000001968401
 79       0.231721404572
 80      -0.920588795345
 81      -0.000033087179
 82      -0.000020516160
 83       0.099851033153
 84      -0.322695990770
 85       0.000007161644
 86       0.000001687389
 87      -0.108908428003
 88       0.783177410811
 89      -0.000001602333
 90       0.000000029477
 91      -0.025288956926
 92      -0.049118903036
 93       0.024139818048
 94      -0.053270410072
 95       0.065667578898
 96       0.312198849866
 97       0.044049996166
 98      -0.195282246346
 99       0.218639988877
100      -0.044286226796
101       0.029982476556
102       0.139502438475
103      -0.458780988256
104       0.894432135996
105      -0.048027723664
106      -0.555879410140
107       0.833719321368
108       0.002895984619
109       0.030292746274
110       0.064293014393
111      -0.001964991448
112       0.004388152173
113       0.025288339196
114       0.049117574958
115       0.024139794846
116      -0.053270546136
117      -0.065667921896
118      -0.312184865098
119       0.044049921365
120      -0.195281494857
121      -0.218641615360
122       0.044240249269
123       0.029987993249
124       0.139483189574
125       0.458790581902
126      -0.894442802622
127      -0.048028214866
128      -0.555878184619
129      -0.833713858791
130      -0.002896172708
131       0.030292787926
132       0.064291938800
133       0.001963319459
134      -0.004388656348
135       0.000000410348
136       0.000000855367
137       0.016618349636
138      -0.094277200519
139       0.000000340811
140      -0.000007916155
141       0.033037925956
142      -0.175994725448
143       0.000000682935
144       0.000026454259
145      -0.043276595278
146       0.062355677159
147      -0.000007927300
148       0.000009716594
149       0.073497133204
150       0.003091370780
151      -0.000003396596
152      -0.000000116037
153       0.023969090861
154      -0.166141675363
155      -0.000000188412
156      -0.000000169916
 Sym=     1a
 Ene= 1.86573371494817E+00
 Spin= Alpha
 Occup= 0.000000
  1      -0.012211237421
  2      -0.026016820421
  3      -0.010570962718
  4       0.111502970982
  5      -0.121889497757
  6       0.291620922679
  7      -0.062074533585
  8      -0.048001235652
  9      -0.078852597196
 10      -1.444688633798
 11      -0.071024848592
 12       0.012063944714
 13      -1.180335059861
 14       2.892336387362
 15      -0.014420071766
 16       0.403411128735
 17       0.531477263964
 18      -0.104482294327
 19      -0.215873601951
 20      -0.406355576367
 21      -0.162808708988
 22       0.079190409874
 23       0.012211215519
 24       0.026016751934
 25      -0.010570218364
 26       0.111503269038
 27       0.121887241318
 28      -0.291620759365
 29      -0.062078256920
 30      -0.048000919116
 31       0.078858573826
 32       1.444692744935
 33      -0.070971339022
 34       0.012057318936
 35       1.180338289231
 36      -2.892317333076
 37      -0.014415564064
 38       0.403407719586
 39      -0.531470231445
 40       0.104484886445
 41      -0.215880262317
 42      -0.406355476389
 43       0.162810069833
 44      -0.079186483173
 45      -0.068082188182
 46       0.218620616558
 47      -0.337174302888
 48       0.115482663991
 49      -0.278321107079
 50       0.209303828891
 51      -0.077417592434
 52       0.363983459735
 53      -0.582986877142
 54      -0.126772767067
 55      -0.045068899106
 56      -0.020999001154
 57       0.077418145191
 58      -0.364000823913
 59       0.582973523086
 60      -0.126776294650
 61      -0.045062604258
 62       0.021007026817
 63       0.068081978022
 64      -0.218601608891
 65       0.337182716006
 66       0.115478638075
 67      -0.278318262854
 68      -0.209295212678
 69      -0.000000180238
 70      -0.000000369190
 71      -0.078684741727
 72       0.133475927273
 73       0.000001414727
 74      -0.000000393514
 75       0.030382393392
 76       0.009783822402
 77      -0.000002096235
 78       0.000046389491
 79      -0.686099315264
 80       2.182012641764
 81      -0.000005552827
 82      -0.000015800021
 83       0.033344687671
 84       0.841526933224
 85       0.000008288785
 86       0.000005820111
 87       0.340407279892
 88      -0.731617929687
 89      -0.000003510940
 90      -0.000001828918
 91      -0.006419004511
 92      -0.018499901749
 93      -0.001604927761
 94       0.088467059439
 95      -0.024750108739
 96       0.348326722430
 97      -0.042477525880
 98       0.136369059118
 99      -0.129901545863
100      -2.093567322522
101      -0.059835518814
102       0.479265142604
103       0.176645261963
104      -1.726435215007
105      -0.323009239136
106       0.445237540355
107      -0.369903334163
108      -0.021209885812
109       0.058613688538
110       0.040771733526
111      -0.089567453319
112      -0.033316771449
113       0.006418322319
114       0.018498467365
115      -0.001605223006
116       0.088466579271
117       0.024749167286
118      -0.348312426921
119      -0.042477819178
120       0.136369686610
121       0.129899459744
122       2.093529706598
123      -0.059827160091
124       0.479244023357
125      -0.176643876764
126       1.726418235338
127      -0.323000273942
128       0.445230182472
129       0.369896932208
130       0.021209036670
131       0.058612868636
132       0.040769925304
133       0.089565017212
134       0.033316146281
135       0.000000189524
136       0.000000392868
137      -0.037600095317
138       0.063412831261
139       0.000000775812
140      -0.000002398693
141      -0.081733888197
142       0.156733068200
143       0.000003079118
144      -0.000007025705
145       0.128167693354
146      -0.309535385148
147       0.000002984513
148      -0.000000429840
149       0.077436976220
150      -0.315733108878
151      -0.000001074329
152       0.000000201900
153      -0.048578173482
154       0.082126180859
155      -0.000000222108
156      -0.000000091457
 Sym=     1a
 Ene= 1.97690922510041E+00
 Spin= Alpha
 Occup= 0.000000
  1       0.011604122253
  2       0.025696767939
  3      -0.106190049191
  4       0.065402362225
  5      -0.004222701888
  6      -0.321363860176
  7       0.198798163750
  8      -0.036610121547
  9      -0.251969120630
 10      -0.101270116083
 11      -0.904004124726
 12       0.644974853348
 13       0.348950350768
 14       0.091999988115
 15      -0.480706699807
 16      -0.061385082704
 17       0.101063573177
 18       0.197278980281
 19       0.025286030004
 20       0.186413215746
 21       0.085905320683
 22      -0.146388713517
 23       0.011604466152
 24       0.025697488264
 25       0.106192491034
 26      -0.065401146645
 27      -0.004221268234
 28      -0.321371427320
 29      -0.198806175818
 30       0.036610383977
 31      -0.251971898478
 32      -0.101235047295
 33       0.904010571879
 34      -0.644980703198
 35       0.348967894297
 36       0.092103926968
 37       0.480713446061
 38       0.061360781634
 39       0.101090120244
 40       0.197289329213
 41      -0.025284870007
 42      -0.186417992378
 43       0.085905273711
 44      -0.146388182843
 45       0.099922846100
 46      -0.070156589144
 47       0.795169338628
 48       0.065776546093
 49      -0.190074045471
 50       0.125023363176
 51      -0.204187082403
 52       0.255149601636
 53      -0.549002006498
 54       0.154649748802
 55      -0.316755110059
 56       0.098852718977
 57      -0.204191153900
 58       0.255155842918
 59      -0.549020239507
 60      -0.154651333975
 61       0.316751460047
 62       0.098852622587
 63       0.099931965700
 64      -0.070175947383
 65       0.795193558735
 66      -0.065783743523
 67       0.190075025148
 68       0.125030864870
 69       0.002072465093
 70      -0.007838321020
 71       0.000000134332
 72       0.000001222121
 73      -0.308288354603
 74       0.512494924706
 75      -0.000000409009
 76       0.000001215998
 77       0.250336306477
 78       0.045780545971
 79       0.000000485729
 80       0.000011387671
 81       2.189315683168
 82      -0.284363594713
 83      -0.000004282075
 84      -0.000003684477
 85       0.084560032741
 86      -0.707235297139
 87      -0.000000765993
 88      -0.000002187772
 89       0.150182029602
 90       0.030459808818
 91       0.013397290889
 92       0.028393835179
 93       0.011141012783
 94      -0.020337391160
 95      -0.023450913823
 96      -0.291847219306
 97       0.008023277454
 98      -0.066106440974
 99       0.101534027168
100       1.092872163445
101       0.076699013984
102      -0.165783619483
103      -0.439232801667
104      -0.083681015223
105      -0.193058314640
106       0.091225484905
107      -0.065264825365
108       0.060730293463
109       0.045571347316
110      -0.046521292627
111       0.075875719577
112       0.039095777862
113       0.013397381772
114       0.028394098644
115      -0.011140971856
116       0.020338320345
117      -0.023451387608
118      -0.291851958992
119      -0.008021498852
120       0.066106864737
121       0.101532528415
122       1.092898836299
123      -0.076709553251
124       0.165792445687
125      -0.439230228796
126      -0.083650933536
127       0.193059924369
128      -0.091228088105
129      -0.065271843856
130       0.060731534449
131      -0.045573593576
132       0.046521817434
133       0.075876511954
134       0.039097018876
135      -0.061064478370
136      -0.126660312504
137       0.000000010203
138       0.000000173916
139      -0.106137204664
140       1.096338824816
141      -0.000000026200
142       0.000000678729
143      -0.381809762508
144      -2.263927781262
145      -0.000000230706
146      -0.000002870640
147       0.882449763451
148      -0.112349742619
149       0.000002088176
150      -0.000000684346
151      -0.142340959322
152      -0.005708121321
153      -0.000000085372
154      -0.000000110771
155       0.039561564738
156       0.005529677953
 Sym=     1a
 Ene= 2.08235008103653E+00
 Spin= Alpha
 Occup= 0.000000
  1      -0.006909125350
  2      -0.012452259808
  3      -0.144462393813
  4      -0.027983258370
  5      -0.115446927792
  6       0.124096551242
  7       0.128399346387
  8      -0.017888984452
  9       0.066575060792
 10       0.362222429520
 11      -0.103783376887
 12      -0.657021270317
 13      -0.401352118747
 14       1.190537047348
 15      -0.206256873802
 16       0.050639610221
 17       0.325700830733
 18       0.054755597228
 19       0.330774680982
 20       0.189089352061
 21      -0.287738285958
 22      -0.376576083775
 23      -0.006907684873
 24      -0.012449777299
 25       0.144468837019
 26       0.028010336852
 27      -0.115451851045
 28       0.124105543572
 29      -0.128385913227
 30       0.017891045237
 31       0.066566518138
 32       0.361947241031
 33       0.103787021512
 34       0.657187240596
 35      -0.401431011225
 36       1.191047864882
 37       0.206257834002
 38      -0.050759188521
 39       0.325751482613
 40       0.054833640930
 41      -0.330788759019
 42      -0.189083560228
 43      -0.287693231427
 44      -0.376560932892
 45      -0.046706421304
 46      -0.074744445964
 47      -0.313542793099
 48       0.334391482124
 49       0.521652482392
 50      -0.028203762633
 51      -0.142297055049
 52       0.337003363684
 53      -0.860155308850
 54      -0.247621387077
 55       0.159176397968
 56       0.345584512136
 57      -0.142299290777
 58       0.337026615474
 59      -0.860206484039
 60       0.247640224876
 61      -0.159168307208
 62       0.345620700928
 63      -0.046705269249
 64      -0.074731192911
 65      -0.313578637340
 66      -0.334414123607
 67      -0.521640124477
 68      -0.028162911783
 69       0.008163837717
 70       0.017152007220
 71      -0.000001472970
 72       0.000006720231
 73       0.046131714637
 74      -0.106537771286
 75      -0.000000284917
 76      -0.000003524285
 77      -0.090592608892
 78      -2.413239063071
 79      -0.000002426493
 80       0.000035367534
 81      -1.698125176157
 82      -1.916212048255
 83       0.000002401496
 84      -0.000005439137
 85       0.550097045523
 86      -0.182844706377
 87      -0.000001668221
 88      -0.000007273014
 89       0.137782735778
 90       0.039891191126
 91       0.002875958431
 92       0.006101926887
 93       0.027390686286
 94      -0.000376664701
 95       0.005444549769
 96      -0.053683527149
 97      -0.009181346220
 98       0.015264410886
 99      -0.001827471753
100       0.046105431322
101       0.096245061710
102      -0.128193380506
103       0.293481779942
104       0.123122947206
105      -0.083289085662
106      -0.222395708073
107       0.185755179341
108       0.042815864794
109       0.078211086063
110       0.017362533744
111      -0.034699409051
112       0.028046992933
113       0.002873469219
114       0.006097060266
115      -0.027393057339
116       0.000381228855
117       0.005438919626
118      -0.053648648306
119       0.009178401764
120      -0.015261948578
121      -0.001846744167
122       0.046042443361
123      -0.096243484541
124       0.128202489551
125       0.293541051064
126       0.123200492495
127       0.083288722940
128       0.222377706968
129       0.185717887584
130       0.042817234660
131      -0.078212476214
132      -0.017353784028
133      -0.034694664977
134       0.028051457945
135       0.008803889793
136       0.019117965660
137       0.000000234338
138       0.000000919674
139      -0.014952178441
140      -0.245458039516
141       0.000000195752
142       0.000001827356
143      -0.080277357225
144       1.669716915740
145      -0.000000448983
146      -0.000005039421
147      -0.579154005990
148       1.284664677357
149      -0.000000863655
150      -0.000008989083
151      -0.464939109879
152      -0.010006674723
153       0.000000510601
154       0.000001542208
155       0.012472976839
156      -0.008747411001
 Sym=     1a
 Ene= 2.10723476536628E+00
 Spin= Alpha
 Occup= 0.000000
  1       0.014600566315
  2       0.025550954431
  3      -0.034656394528
  4      -0.253097149245
  5      -0.033771667211
  6       0.022069909881
  7      -0.048993618299
  8      -0.037997723444
  9      -0.137312731953
 10      -2.089754519531
 11      -0.063288088062
 12      -1.266723860584
 13      -0.585794988350
 14       4.075845827134
 15      -0.027066789011
 16       0.964951221696
 17       0.401434004215
 18       0.713760728574
 19       0.074571202562
 20      -0.056295423439
 21       0.453570406029
 22       0.055195756538
 23      -0.014601109272
 24      -0.025551707541
 25      -0.034647415769
 26      -0.253095614767
 27       0.033752587709
 28      -0.022064405868
 29      -0.048999380309
 30      -0.037993118309
 31       0.137321546001
 32       2.089806512380
 33      -0.063249920722
 34      -1.266650991020
 35       0.585749320547
 36      -4.075688723927
 37      -0.027053688450
 38       0.964948256671
 39      -0.401393530388
 40      -0.713743917100
 41       0.074537923606
 42      -0.056327436792
 43      -0.453612196405
 44      -0.055213899529
 45       0.048063503066
 46       0.003466968342
 47      -0.158988711066
 48       0.209949377174
 49      -0.132756377020
 50       0.313596934781
 51      -0.053954329923
 52       0.202713024717
 53      -0.448587893132
 54      -0.141742296201
 55      -0.124395306002
 56       0.276029537802
 57       0.053939546837
 58      -0.202696580299
 59       0.448492153234
 60      -0.141705304657
 61      -0.124425065582
 62      -0.275986774749
 63      -0.048078322141
 64      -0.003443219239
 65       0.158937793223
 66       0.209904692945
 67      -0.132813830521
 68      -0.313585263725
 69       0.000000412440
 70       0.000000722826
 71       0.041681385504
 72      -0.102010498770
 73      -0.000001167922
 74       0.000001032097
 75      -0.016115119506
 76       0.050234992240
 77      -0.000004695340
 78      -0.000137397729
 79       0.081106736571
 80      -0.689210971595
 81      -0.000090908504
 82      -0.000127156810
 83       0.043639306282
 84       0.103169717231
 85       0.000036796368
 86      -0.000022012626
 87       0.001015100568
 88       0.104045205798
 89       0.000005046164
 90       0.000003510016
 91      -0.024480200793
 92      -0.047764639751
 93       0.025064124242
 94      -0.038641227044
 95      -0.062728841454
 96       0.343442410785
 97       0.031516533385
 98      -0.023835102234
 99      -0.197421549301
100      -0.530778803573
101      -0.010533822789
102      -0.074718461741
103       0.574461122681
104       0.810461119988
105       0.028212999401
106       0.061020412621
107      -0.313951370627
108       0.005209215781
109       0.030425426438
110      -0.071052300660
111       0.033986340932
112       0.045210306625
113       0.024480645291
114       0.047765582813
115       0.025062646831
116      -0.038640902209
117       0.062727402848
118      -0.343450498376
119       0.031518272369
120      -0.023835603247
121       0.197422919789
122       0.530790761125
123      -0.010538557860
124      -0.074707987957
125      -0.574442047368
126      -0.810452418375
127       0.028222404323
128       0.061047644270
129       0.313982278702
130      -0.005204362785
131       0.030420608716
132      -0.071051983603
133      -0.033987052989
134      -0.045208194918
135      -0.000000168484
136      -0.000000303137
137      -0.003770129573
138      -0.012832829319
139      -0.000002339361
140      -0.000002398853
141      -0.005704270197
142      -0.026091206053
143      -0.000010513314
144       0.000081573005
145       0.014335714316
146       0.105850308553
147      -0.000025747162
148       0.000076901924
149      -0.041879822870
150       0.135250107526
151      -0.000029813998
152      -0.000000896564
153       0.004459348745
154      -0.021084447420
155       0.000000430361
156      -0.000000073379
 Sym=     1a
 Ene= 2.15104935839062E+00
 Spin= Alpha
 Occup= 0.000000
  1       0.004643579647
  2       0.013203881624
  3       0.245738407742
  4       0.040037035948
  5      -0.114984747982
  6      -0.125000857787
  7      -0.269702962691
  8      -0.041069208580
  9       0.053644356772
 10       0.162341626104
 11       0.208592214665
 12      -0.144907685163
 13      -0.205998833233
 14      -0.008309844085
 15       0.552105818955
 16      -0.119790681013
 17      -0.082224175150
 18       0.201391189988
 19      -0.120509832084
 20       0.179516389641
 21      -0.274919946300
 22       0.543248832149
 23       0.004643620429
 24       0.013204194947
 25      -0.245728713072
 26      -0.040021180963
 27      -0.114986324468
 28      -0.124999659148
 29       0.269698650608
 30       0.041056132680
 31       0.053640439117
 32       0.162232103724
 33      -0.208581151716
 34       0.144973157989
 35      -0.206037755571
 36      -0.008028955976
 37      -0.552096008900
 38       0.119731113772
 39      -0.082217713780
 40       0.201416945687
 41       0.120498249902
 42      -0.179528466322
 43      -0.274919688713
 44       0.543257738472
 45      -0.253886572931
 46       0.540722033314
 47      -0.738221038521
 48       0.227129906197
 49      -0.021248198866
 50       0.289316325095
 51       0.166388814558
 52      -0.392520434444
 53       0.587878982548
 54      -0.138655042671
 55       0.458103274648
 56       0.059327866719
 57       0.166364908697
 58      -0.392470427138
 59       0.587810854206
 60       0.138666022640
 61      -0.458108034930
 62       0.059345566734
 63      -0.253892236436
 64       0.540738260386
 65      -0.738245608700
 66      -0.227147704391
 67       0.021242885753
 68       0.289333108794
 69      -0.001189796325
 70      -0.005459933076
 71      -0.000000586424
 72       0.000002848069
 73      -0.115490676110
 74       0.179310391911
 75      -0.000000581587
 76      -0.000001477820
 77       0.006241055845
 78      -0.410818946696
 79      -0.000000702184
 80       0.000017629016
 81      -0.137514930545
 82       0.097756889411
 83      -0.000003101059
 84      -0.000003081774
 85      -0.123762507699
 86      -0.380379263061
 87      -0.000002518113
 88      -0.000000369885
 89      -0.109064917312
 90       0.075029332436
 91       0.003477009019
 92       0.007264051233
 93      -0.014753109813
 94       0.002166541545
 95      -0.028030187206
 96      -0.064606475569
 97       0.026787929283
 98      -0.002973438054
 99       0.031419023210
100       0.158456755020
101      -0.185233903855
102      -0.016558094901
103      -0.230052304872
104      -0.012380715826
105       0.201878109761
106      -0.105137519847
107       0.278919558976
108      -0.017111144626
109      -0.099093178828
110      -0.038171344447
111       0.059477970282
112      -0.014312360314
113       0.003475992196
114       0.007262046107
115       0.014752192479
116      -0.002163863615
117      -0.028033592430
118      -0.064590780577
119      -0.026788994498
120       0.002973728453
121       0.031408645285
122       0.158426205345
123       0.185236688059
124       0.016561189450
125      -0.230015975559
126      -0.012364599767
127      -0.201880047862
128       0.105126260282
129       0.278912381798
130      -0.017109507362
131       0.099093935355
132       0.038178452821
133       0.059484068590
134      -0.014310840126
135      -0.015923659662
136      -0.032987071661
137       0.000000516515
138       0.000000066496
139      -0.043719820136
140       0.258815241146
141       0.000000552490
142       0.000000407226
143      -0.180648230868
144      -0.006464911752
145      -0.000000528075
146      -0.000003042795
147       0.085079864883
148       0.014571159459
149       0.000001219378
150      -0.000002044482
151       0.002406072987
152      -0.017632906151
153       0.000001000969
154      -0.000000289033
155      -0.023235872403
156       0.025735573899
 Sym=     1a
 Ene= 2.20109459104855E+00
 Spin= Alpha
 Occup= 0.000000
  1       0.020800240837
  2       0.035215556224
  3       0.136759133181
  4       0.077318218005
  5       0.050376116319
  6      -0.263221643793
  7      -0.211071005862
  8      -0.311184036388
  9      -0.024065738358
 10       1.728823419603
 11       0.243777946580
 12       0.875277104586
 13       0.868259396427
 14      -6.385661363235
 15       0.161354458331
 16      -1.371989416318
 17      -0.387092956536
 18       0.110360766530
 19      -0.056751274144
 20      -0.432564920350
 21       0.593104113108
 22      -0.023423012530
 23      -0.020800288856
 24      -0.035215774663
 25       0.136767065042
 26       0.077319257330
 27      -0.050369706360
 28       0.263225481198
 29      -0.211077533141
 30      -0.311185718419
 31       0.024063041765
 32      -1.728837902633
 33       0.243771439480
 34       0.875266253533
 35      -0.868252280285
 36       6.385635774742
 37       0.161366113222
 38      -1.371995300735
 39       0.387092235899
 40      -0.110372214185
 41      -0.056761548433
 42      -0.432556583152
 43      -0.593092013719
 44       0.023413579139
 45       0.105177396034
 46      -0.266293646190
 47       0.507765033070
 48      -0.340575515931
 49      -0.316008581851
 50      -0.143282258347
 51       0.441736190458
 52      -1.002907317493
 53       1.360702850016
 54       0.174669905918
 55      -0.260933270772
 56      -0.295854305936
 57      -0.441735808188
 58       1.002915661419
 59      -1.360702352076
 60       0.174659751653
 61      -0.260916553126
 62       0.295852619511
 63      -0.105168581093
 64       0.266273811417
 65      -0.507743214403
 66      -0.340565120790
 67      -0.316007153959
 68       0.143270358491
 69      -0.000000046307
 70       0.000000022725
 71      -0.037843744266
 72       0.020836922342
 73       0.000001877538
 74      -0.000004046926
 75       0.026696534029
 76      -0.071659020278
 77       0.000002388289
 78       0.000025700601
 79       0.131459326840
 80       0.043305926485
 81       0.000025627683
 82       0.000025404365
 83      -0.058967011145
 84      -0.389994447197
 85      -0.000006490390
 86       0.000012464539
 87      -0.107608434387
 88       0.123549059713
 89       0.000002177112
 90       0.000000189218
 91       0.002699359735
 92       0.007579483721
 93       0.001366720994
 94       0.034468579070
 95      -0.004634201748
 96      -0.152232843957
 97       0.010101162321
 98      -0.007720478514
 99       0.012263899114
100       0.899778680884
101       0.082449378876
102      -0.160305513875
103      -0.396934962921
104       0.037497766754
105       0.000580894907
106      -0.189308898534
107       0.048327036348
108      -0.100947546877
109       0.048513187100
110       0.116762720558
111      -0.090012648235
112      -0.014271242505
113      -0.002699428671
114      -0.007579599215
115       0.001365103474
116       0.034468469468
117       0.004635518734
118       0.152232478053
119       0.010100520246
120      -0.007721031000
121      -0.012265366541
122      -0.899768479848
123       0.082447127938
124      -0.160297737225
125       0.396941837446
126      -0.037501090622
127       0.000582295241
128      -0.189316340233
129      -0.048343379880
130       0.100946752854
131       0.048508594833
132       0.116760827301
133       0.090010455526
134       0.014273411189
135       0.000000327582
136       0.000000685419
137       0.023215456455
138      -0.012961278346
139       0.000001251215
140      -0.000004402822
141       0.024179715413
142      -0.006206859670
143       0.000005816981
144      -0.000017267786
145      -0.045556028859
146      -0.058505686932
147       0.000003893316
148      -0.000017527643
149      -0.013512352998
150       0.101136304693
151       0.000006738772
152       0.000000484673
153       0.043481521852
154      -0.057544677776
155       0.000000586268
156      -0.000000059382
 Sym=     1a
 Ene= 2.37459883552544E+00
 Spin= Alpha
 Occup= 0.000000
  1       0.011427315658
  2       0.020736128352
  3      -0.530339838997
  4       0.131177484602
  5       0.151892980197
  6      -0.123309968903
  7       0.679347578930
  8      -0.119611981793
  9      -0.118069591032
 10       0.368061061689
 11      -0.423411009737
 12       0.310859253494
 13       0.173858171314
 14      -2.070935589773
 15      -0.446486660258
 16      -0.530481120676
 17       0.307912814065
 18       0.020291956463
 19       0.088428702839
 20      -0.175929768356
 21      -0.009522210135
 22       0.074856515452
 23      -0.011430602572
 24      -0.020742616479
 25      -0.530334369247
 26       0.131202808641
 27      -0.151921281871
 28       0.123348217567
 29       0.679361952948
 30      -0.119629760657
 31       0.118090321514
 32      -0.368038621679
 33      -0.423397375680
 34       0.310882465699
 35      -0.173900569216
 36       2.071099998027
 37      -0.446485868980
 38      -0.530483213418
 39      -0.307887154479
 40      -0.020306863738
 41       0.088439591953
 42      -0.175942352866
 43       0.009556223791
 44      -0.074840944825
 45       0.705635430094
 46      -1.108696954404
 47       1.509306780254
 48      -0.148349054762
 49      -0.006271139492
 50       0.078678843280
 51      -0.338746282725
 52       0.627226947005
 53      -0.796981236403
 54       0.063928212466
 55       0.041891808215
 56       0.012435528150
 57       0.338695863911
 58      -0.627199949838
 59       0.796884818550
 60       0.063968098108
 61       0.041915591746
 62      -0.012455725885
 63      -0.705692169652
 64       1.108764647235
 65      -1.509416020736
 66      -0.148360826839
 67      -0.006250825107
 68      -0.078693775493
 69      -0.000000488685
 70      -0.000000969085
 71      -0.021419942793
 72       0.027728322087
 73      -0.000004313130
 74       0.000010624883
 75       0.029623426451
 76      -0.017745377927
 77       0.000002017919
 78      -0.000006987724
 79      -0.111523237341
 80       0.333982102859
 81       0.000004624591
 82      -0.000110337033
 83       0.332483699830
 84       0.003840904869
 85       0.000045932865
 86      -0.000001375508
 87       0.003573402250
 88       0.039521613941
 89      -0.000001374707
 90      -0.000001497298
 91      -0.000219859658
 92      -0.000324807298
 93      -0.010526612589
 94       0.029014851794
 95       0.011583907263
 96      -0.014326813220
 97       0.004357848399
 98       0.002012047436
 99       0.015738937857
100       0.085105652015
101      -0.014597921377
102      -0.036068151575
103      -0.217257214536
104      -0.412405282464
105       0.029162580163
106       0.213278968212
107       0.017719833001
108      -0.109521357592
109      -0.083556188817
110       0.045418723603
111      -0.001098610050
112      -0.067949897715
113       0.000219300236
114       0.000323682563
115      -0.010525753618
116       0.029015725931
117      -0.011586237872
118       0.014336082618
119       0.004357220635
120       0.002015179852
121      -0.015739854870
122      -0.085112764745
123      -0.014595464197
124      -0.036078976706
125       0.217245131455
126       0.412455197710
127       0.029155748677
128       0.213300074838
129      -0.017726868773
130       0.109518479652
131      -0.083553275159
132       0.045417505713
133       0.001099878647
134       0.067947104192
135      -0.000000164019
136      -0.000000331593
137      -0.010271284914
138      -0.015998577535
139      -0.000000532253
140       0.000003434239
141      -0.013396892062
142      -0.001025733012
143      -0.000000433623
144      -0.000011386988
145       0.072827015202
146      -0.056530667674
147       0.000006425097
148       0.000010305977
149      -0.165055344731
150       0.007095619582
151      -0.000010894754
152      -0.000000391150
153      -0.011188655023
154      -0.070316647645
155       0.000000337375
156       0.000000021326
 Sym=     1a
 Ene= 2.40072443859794E+00
 Spin= Alpha
 Occup= 0.000000
  1       0.036816088917
  2       0.074263070467
  3       0.052252247556
  4       0.266286273444
  5       0.282421368610
  6      -0.472612749074
  7       0.277224459066
  8      -0.192316773645
  9      -0.223352586868
 10      -0.274082214496
 11       0.353439137764
 12       0.346242721446
 13       0.454600411722
 14      -2.283387651019
 15      -0.040267534931
 16      -0.194720745315
 17      -0.505264431416
 18       0.215059789920
 19       0.064467290182
 20      -0.101862982982
 21      -0.406817032675
 22      -0.166398663520
 23       0.036814888746
 24       0.074260833907
 25      -0.052304643494
 26      -0.266273430610
 27       0.282403674186
 28      -0.472600090911
 29      -0.277161753782
 30       0.192307535208
 31      -0.223339539897
 32      -0.274101274055
 33      -0.353481962699
 34      -0.346213889491
 35       0.454580202354
 36      -2.283226840488
 37       0.040221504181
 38       0.194680247168
 39      -0.505299508317
 40       0.215055626572
 41      -0.064460177828
 42       0.101846999817
 43      -0.406815557255
 44      -0.166403582320
 45       0.602631431114
 46      -0.857104972842
 47       1.274278445350
 48      -0.087005432768
 49       0.155024712741
 50       0.105721787193
 51       0.446039767988
 52       0.006703921841
 53       1.136523291624
 54       0.513681658574
 55       0.289271312034
 56       0.245901158292
 57       0.446071518124
 58       0.006643934717
 59       1.136596897113
 60      -0.513681176118
 61      -0.289264254443
 62       0.245891345962
 63       0.602562654010
 64      -0.857002259173
 65       1.274127432063
 66       0.086988940695
 67      -0.155023330601
 68       0.105711913806
 69       0.010801662229
 70       0.019798555784
 71      -0.000000091909
 72       0.000001732007
 73       0.068946293421
 74      -0.188094300329
 75       0.000000435760
 76      -0.000000991853
 77      -0.041732714084
 78       0.296637155226
 79      -0.000003332533
 80       0.000010562428
 81      -0.022642615222
 82       3.112820334524
 83       0.000012619995
 84       0.000001600902
 85      -1.225958728561
 86      -0.053001005757
 87       0.000000166210
 88       0.000001124582
 89       0.024907650777
 90       0.024669619185
 91       0.006523261040
 92       0.012967568886
 93       0.010440796674
 94       0.009499042195
 95       0.020654572177
 96      -0.100462179918
 97      -0.011455421786
 98       0.026142372801
 99       0.030207629488
100       0.034683029474
101       0.047254705631
102      -0.068370725779
103       0.073959162413
104      -0.414984342430
105      -0.073644471091
106       0.213604621697
107       0.070472720126
108       0.045302494300
109       0.031391472614
110      -0.002187663788
111      -0.035067656057
112       0.038515339506
113       0.006523604461
114       0.012968254212
115      -0.010440836730
116      -0.009496762820
117       0.020654338361
118      -0.100467023391
119       0.011456216927
120      -0.026142548305
121       0.030208374006
122       0.034685614571
123      -0.047255531848
124       0.068369553158
125       0.073968821729
126      -0.414968629087
127       0.073645075806
128      -0.213593472209
129       0.070477936537
130       0.045310497617
131      -0.031394838268
132       0.002192035986
133      -0.035066908490
134       0.038520518709
135      -0.000838395872
136      -0.001900085453
137      -0.000000466603
138      -0.000000571581
139      -0.000174903930
140       0.003960982485
141      -0.000000531839
142       0.000000003271
143      -0.029860958528
144       0.137410123790
145       0.000002823481
146      -0.000001634083
147      -0.070003348845
148      -0.355438573643
149      -0.000006278962
150       0.000000659473
151       0.284265308468
152       0.003109847367
153      -0.000000262183
154      -0.000002572808
155      -0.004555191439
156       0.003052217802
 Sym=     1a
 Ene= 2.50458300530179E+00
 Spin= Alpha
 Occup= 0.000000
  1      -0.017900294354
  2      -0.035154251914
  3      -0.173942363691
  4      -0.238771623809
  5      -0.240262565372
  6       0.069424628016
  7       0.619713014204
  8       0.067451163555
  9       0.103178291560
 10       1.714833091741
 11       0.028483919966
 12       0.114627143081
 13       0.160558515089
 14       8.327235282015
 15      -0.181510474018
 16       1.955743860590
 17       0.259431563371
 18      -0.137397805249
 19      -0.344474949209
 20       0.039855869987
 21       0.434309561408
 22      -0.152146006904
 23       0.017900697107
 24       0.035155444364
 25      -0.173951982405
 26      -0.238772784882
 27       0.240266895778
 28      -0.069433258596
 29       0.619712019180
 30       0.067444975910
 31      -0.103175220028
 32      -1.714849931861
 33       0.028443846746
 34       0.114620201387
 35      -0.160558514060
 36      -8.327253078112
 37      -0.181517320499
 38       1.955747621952
 39      -0.259443252031
 40       0.137396898438
 41      -0.344472745843
 42       0.039861261302
 43      -0.434310250602
 44       0.152150925284
 45      -0.229977850614
 46      -0.483613257661
 47      -0.539711826510
 48       0.225131679162
 49      -0.437093273889
 50      -0.517764072090
 51      -0.564071878696
 52       0.909831634195
 53      -1.454298560397
 54       0.077775732434
 55      -0.091050646043
 56      -0.213519770094
 57       0.564068501538
 58      -0.909800908273
 59       1.454318689556
 60       0.077759973709
 61      -0.091058637655
 62       0.213521280727
 63       0.229973630777
 64       0.483614518733
 65       0.539701895544
 66       0.225127907692
 67      -0.437093051921
 68       0.517767478575
 69       0.000000066439
 70       0.000000163184
 71       0.329180440912
 72       0.055341659889
 73      -0.000000124890
 74      -0.000002749466
 75      -0.397290764286
 76      -0.127708784393
 77       0.000001558822
 78       0.000010280021
 79       0.628844262524
 80      -0.274312572667
 81      -0.000002219458
 82       0.000014012228
 83       0.252879823810
 84       0.249142471886
 85      -0.000004871035
 86       0.000001758291
 87      -0.073447931647
 88       0.066009000409
 89      -0.000000251842
 90      -0.000000364453
 91       0.009902156278
 92       0.021120742547
 93      -0.013660933231
 94       0.010449699416
 95       0.013215237401
 96      -0.222723349829
 97      -0.015130072818
 98       0.027629632600
 99       0.049727762611
100       0.663513790594
101       0.079939826799
102      -0.251010059668
103      -0.215666175815
104       0.884944059662
105      -0.171958821354
106      -0.118973652104
107       0.136795903947
108      -0.040685576166
109      -0.136719433782
110      -0.026915718384
111      -0.020737800351
112       0.097223969048
113      -0.009902008957
114      -0.021120430167
115      -0.013662368280
116       0.010449186115
117      -0.013214936508
118       0.222720166565
119      -0.015130326679
120       0.027629126907
121      -0.049727217171
122      -0.663509312544
123       0.079938130476
124      -0.251008647412
125       0.215663103253
126      -0.884949988807
127      -0.171956841989
128      -0.118979157260
129      -0.136797251214
130       0.040685913109
131      -0.136724557686
132      -0.026917138877
133       0.020735341923
134      -0.097220277474
135       0.000000060212
136       0.000000132253
137       0.022421043443
138      -0.011973907811
139       0.000000198552
140      -0.000000960970
141       0.028702109906
142      -0.016853377269
143       0.000000911742
144      -0.000001002722
145      -0.062577521079
146       0.098254984142
147       0.000000168893
148       0.000000312575
149      -0.148399312202
150      -0.139855456904
151       0.000000479128
152      -0.000000012343
153       0.093976330462
154       0.010363796724
155       0.000000029866
156      -0.000000137475
 Sym=     1a
 Ene= 2.53722911336045E+00
 Spin= Alpha
 Occup= 0.000000
  1       0.003173042901
  2       0.004002075226
  3       0.003983518490
  4       0.109747414113
  5       0.082193486993
  6      -0.011255168356
  7      -0.140533128832
  8      -0.096810284300
  9      -0.072169532717
 10       0.161757479720
 11      -0.060138025221
 12       0.209275914498
 13      -0.041756529727
 14       1.104884527398
 15       0.041289589825
 16       0.381197092852
 17       0.100576229237
 18       0.047835536431
 19       0.053584623427
 20      -0.020610359323
 21      -0.187040123763
 22       0.061609223115
 23      -0.003173385139
 24      -0.004002552197
 25       0.003975596148
 26       0.109749152885
 27      -0.082198106848
 28       0.011261112657
 29      -0.140564442188
 30      -0.096814890631
 31       0.072170057337
 32      -0.161768195741
 33      -0.060209794905
 34       0.209284530361
 35       0.041735569044
 36      -1.104877534452
 37       0.041289710915
 38       0.381198335053
 39      -0.100576787282
 40      -0.047831241020
 41       0.053604972052
 42      -0.020613525924
 43       0.187038238411
 44      -0.061635611331
 45       0.095499939900
 46      -0.008508517883
 47       0.152254324821
 48       0.003312763017
 49       0.105139965989
 50       0.166169716687
 51       0.257967056294
 52      -0.474780434202
 53       0.203487296032
 54      -0.083090322342
 55       0.043740267432
 56       0.034317034765
 57      -0.257983092057
 58       0.474862188344
 59      -0.203496142178
 60      -0.083119235966
 61       0.043731568282
 62      -0.034307377757
 63      -0.095500199974
 64       0.008459103172
 65      -0.152269973447
 66       0.003297481251
 67       0.105150822809
 68      -0.166192678225
 69       0.000000122766
 70       0.000000270751
 71       0.992853308781
 72       0.312262913526
 73       0.000000059127
 74      -0.000004640263
 75      -1.196112786817
 76      -0.350064033181
 77       0.000000487700
 78      -0.000003822458
 79       1.044762536013
 80       0.510156131054
 81      -0.000027205128
 82       0.000000225253
 83       0.187762166460
 84       0.118580240442
 85      -0.000003916812
 86       0.000001202087
 87      -0.032691197113
 88      -0.026097972614
 89       0.000001217407
 90      -0.000002002823
 91      -0.003847291054
 92      -0.007932601562
 93       0.030770294581
 94       0.005061069029
 95       0.001171507836
 96       0.075156320363
 97       0.002281850585
 98      -0.018981573374
 99      -0.002643888484
100      -0.177173246376
101       0.005443121246
102       0.092407506646
103      -0.020762694354
104      -0.053241455776
105      -0.342720313557
106      -0.121387061020
107      -0.015120574704
108      -0.015096050334
109      -0.067005288679
110       0.004385411342
111      -0.157209850058
112       0.206026123377
113       0.003847126699
114       0.007932287428
115       0.030770454626
116       0.005061516806
117      -0.001172202071
118      -0.075153734174
119       0.002282393143
120      -0.018981886716
121       0.002642104027
122       0.177163750473
123       0.005434442463
124       0.092404822220
125       0.020768799168
126       0.053237240392
127      -0.342727074003
128      -0.121385992902
129       0.015124314059
130       0.015095324086
131      -0.067005283788
132       0.004387048461
133       0.157211304544
134      -0.206030435980
135       0.000000148538
136       0.000000320719
137       0.037486574394
138       0.010391662888
139       0.000000061593
140      -0.000003525224
141       0.047348336940
142       0.019047326429
143       0.000000542388
144       0.000016400364
145      -0.041280439227
146      -0.049219333224
147      -0.000005287831
148       0.000010857403
149      -0.304856336260
150      -0.115255995202
151      -0.000001123191
152      -0.000000404208
153       0.245927699792
154       0.049668237203
155       0.000000277492
156      -0.000000827839
 Sym=     1a
 Ene= 2.55806402776059E+00
 Spin= Alpha
 Occup= 0.000000
  1       0.008017205054
  2       0.015360649013
  3      -0.391962359811
  4       0.017178726504
  5       0.167229018171
  6      -0.151447215953
  7      -0.660200134513
  8      -0.041052149511
  9       0.004288179341
 10      -0.007394892713
 11      -2.273214097627
 12       0.233988331499
 13       0.535962307517
 14       0.071266340575
 15      -0.233368847905
 16       0.108064581714
 17       0.085558995803
 18      -0.137396861313
 19       0.585586565789
 20      -0.111898666441
 21       0.046483835412
 22       0.719387440069
 23       0.008018095867
 24       0.015362598499
 25       0.391942073243
 26      -0.017179126756
 27       0.167232211961
 28      -0.151465386898
 29       0.660171875611
 30       0.041043875014
 31       0.004285995505
 32      -0.007345868786
 33       2.273168390944
 34      -0.234013731398
 35       0.536009590506
 36       0.071393878247
 37       0.233373581248
 38      -0.108094633168
 39       0.085581155172
 40      -0.137388717538
 41      -0.585563358887
 42       0.111903724459
 43       0.046490591100
 44       0.719365157759
 45      -0.010338124709
 46       1.593826741997
 47       0.562803260280
 48      -0.570166398199
 49       0.338821162413
 50       0.674623331994
 51       0.228715044730
 52      -1.863462232524
 53      -0.207437039046
 54      -0.773715274021
 55      -0.258790057137
 56      -0.291395863902
 57       0.228700861174
 58      -1.863384004021
 59      -0.207434272144
 60       0.773680794579
 61       0.258762793775
 62      -0.291375098711
 63      -0.010328140788
 64       1.593769485776
 65       0.562821206494
 66       0.570140269360
 67      -0.338806992322
 68       0.674610003996
 69      -0.006458583341
 70      -0.012506675657
 71       0.000017171741
 72       0.000002968179
 73      -0.028869748380
 74       0.170875526218
 75      -0.000021169393
 76      -0.000003845036
 77       0.016956097024
 78       0.505464217830
 79       0.000020144789
 80       0.000012692960
 81       1.023637381256
 82      -0.374522714797
 83       0.000000135929
 84      -0.000005232605
 85       0.299779720390
 86      -0.018652658795
 87      -0.000001266326
 88      -0.000001051079
 89      -0.113314735366
 90       0.093319673809
 91       0.002381968570
 92       0.004553235623
 93      -0.004868826794
 94       0.013673854744
 95       0.004972994479
 96      -0.037010623201
 97       0.016392852143
 98      -0.000495276993
 99       0.024340590184
100       0.199622246198
101      -0.259362010639
102      -0.030594145967
103      -0.172737444838
104      -0.035099425519
105      -0.250757041865
106       0.147191006671
107      -0.193172061426
108      -0.010771850559
109      -0.031611430040
110       0.021102080014
111      -0.017623896922
112       0.099327827326
113       0.002381756170
114       0.004552847437
115       0.004869905549
116      -0.013674411798
117       0.004972167120
118      -0.037008515217
119      -0.016392984436
120       0.000494899375
121       0.024338875321
122       0.199643238398
123       0.259361385911
124       0.030601942148
125      -0.172739567768
126      -0.035032519321
127       0.250746438647
128      -0.147178917820
129      -0.193190657100
130      -0.010771990902
131       0.031607970764
132      -0.021105893427
133      -0.017619432746
134       0.099320729319
135      -0.005389124994
136      -0.011813765486
137       0.000001126865
138       0.000000442170
139       0.003395015732
140       0.138514007019
141       0.000001033947
142       0.000000583412
143      -0.007298305688
144      -0.749958903249
145      -0.000001879481
146      -0.000002525074
147       0.221703728343
148      -0.199257818989
149      -0.000004991728
150      -0.000001281213
151      -0.057016496909
152       0.006847741893
153       0.000004943166
154       0.000000681000
155      -0.031976215077
156       0.038178788599
 Sym=     1a
 Ene= 2.57435198286808E+00
 Spin= Alpha
 Occup= 0.000000
  1      -0.011140686290
  2      -0.019720370759
  3      -0.305819299334
  4      -0.105533671794
  5       0.021338142087
  6       0.139643270998
  7      -0.801053984641
  8       0.085228874699
  9       0.212320212959
 10      -0.353515891681
 11      -0.929684159699
 12      -0.165528121219
 13       0.096192897130
 14       0.431088098028
 15       0.151020391229
 16       0.053027700131
 17      -0.208922580164
 18      -0.307514484190
 19       0.483923520924
 20      -0.058826162367
 21       0.291103885282
 22       0.475985189728
 23       0.011140049818
 24       0.019718726636
 25      -0.305843037888
 26      -0.105530935887
 27      -0.021354930018
 28      -0.139625273653
 29      -0.801056750967
 30       0.085234164570
 31      -0.212321597679
 32       0.353520403516
 33      -0.929763513854
 34      -0.165503506292
 35      -0.096233681294
 36      -0.431125135104
 37       0.150988225403
 38       0.053035616241
 39       0.208909562926
 40       0.307524770563
 41       0.483936379735
 42      -0.058839187143
 43      -0.291114786557
 44      -0.476018339627
 45      -0.450294485434
 46       1.869818645102
 47      -0.623704412025
 48      -0.548626803831
 49       0.410205511664
 50       0.411219139797
 51       0.150685965957
 52      -1.556741385074
 53      -0.075963220430
 54      -0.794456576430
 55      -0.571036285728
 56      -0.314623656655
 57      -0.150671092650
 58       1.556763036485
 59       0.076007041883
 60      -0.794482601098
 61      -0.571038223194
 62       0.314625490980
 63       0.450289218112
 64      -1.869868891846
 65       0.623663360402
 66      -0.548648160901
 67       0.410215812893
 68      -0.411249467262
 69       0.000000037463
 70       0.000000103525
 71       0.001443281462
 72      -0.045895326322
 73      -0.000000069617
 74      -0.000002271908
 75      -0.005842911541
 76       0.020513053124
 77       0.000000324078
 78      -0.000022710063
 79       0.029850867599
 80       0.273277380246
 81      -0.000018189261
 82       0.000030178485
 83      -0.207189958455
 84      -0.078971222175
 85      -0.000013451518
 86       0.000002203639
 87      -0.050713708535
 88      -0.046113169775
 89       0.000004414004
 90      -0.000000514887
 91       0.004380725191
 92       0.008193899502
 93       0.000890242014
 94       0.003069588288
 95       0.012538122484
 96      -0.050751351526
 97      -0.001129055070
 98       0.012471293814
 99       0.019192068813
100      -0.012529599355
101       0.039269695542
102       0.039119211379
103       0.001174292405
104      -0.843039731196
105       0.064962152417
106       0.333159797063
107       0.214723321051
108       0.051728442925
109       0.009169356521
110      -0.004077026527
111      -0.044798681937
112      -0.048007578266
113      -0.004380803600
114      -0.008194034367
115       0.000890012775
116       0.003070391254
117      -0.012537653318
118       0.050751802508
119      -0.001129136718
120       0.012470831125
121      -0.019192795281
122       0.012537733209
123       0.039262101835
124       0.039127138942
125      -0.001163439179
126       0.843052923147
127       0.064948713006
128       0.333168634542
129      -0.214718784925
130      -0.051724896069
131       0.009170427642
132      -0.004076608403
133       0.044800731460
134       0.047998484116
135       0.000000203351
136       0.000000439049
137       0.020196033433
138       0.016110144963
139      -0.000000073826
140      -0.000004665426
141       0.014847181014
142       0.012515182039
143       0.000001127139
144       0.000018630864
145      -0.053358837703
146      -0.071227354066
147      -0.000006121374
148       0.000000382241
149       0.037210938874
150      -0.030827923015
151       0.000003204947
152      -0.000000380170
153       0.033855693971
154       0.012607148092
155       0.000002352356
156      -0.000000514738
 Sym=     1a
 Ene= 2.61711803889616E+00
 Spin= Alpha
 Occup= 0.000000
  1      -0.018326513123
  2      -0.045730940098
  3      -0.199804437316
  4      -0.248576846472
  5       0.177909792869
  6       0.348907034290
  7       0.741085847962
  8       0.087271657254
  9      -0.488180332286
 10       1.056555752346
 11       0.981331005202
 12      -0.614076923523
 13      -0.079181117488
 14       0.544995485960
 15      -0.386476536198
 16       0.124500381994
 17       0.284266560619
 18       0.068049590757
 19      -0.285923599945
 20       0.120868207673
 21       0.047395005157
 22       0.332127437035
 23      -0.018326726753
 24      -0.045731897091
 25       0.199804250086
 26       0.248574289173
 27       0.177903205688
 28       0.348919958146
 29      -0.741104066878
 30      -0.087255892929
 31      -0.488188459164
 32       1.056528957861
 33      -0.981341046825
 34       0.614097837711
 35      -0.079228905180
 36       0.544947599567
 37       0.386479407660
 38      -0.124488213383
 39       0.284283803674
 40       0.068057287610
 41       0.285935005360
 42      -0.120875658271
 43       0.047392552489
 44       0.332119064000
 45       0.596699510006
 46      -1.988306949946
 47       0.544186364773
 48       0.453821961454
 49      -0.355981361200
 50      -0.302309084953
 51      -0.398290493252
 52       0.843783569249
 53      -0.572955853884
 54      -0.111720764474
 55       0.256608667013
 56       0.091644338740
 57      -0.398287727605
 58       0.843798965935
 59      -0.572958165883
 60       0.111713930901
 61      -0.256618569526
 62       0.091653608159
 63       0.596714983867
 64      -1.988371137861
 65       0.544200163206
 66      -0.453838970855
 67       0.355993916847
 68      -0.302324903268
 69       0.001014234896
 70       0.003417768757
 71       0.000000167067
 72      -0.000002920459
 73      -0.036030525656
 74      -0.139666851089
 75      -0.000000132461
 76       0.000002771019
 77       0.043513409078
 78       0.662254959858
 79       0.000001693646
 80      -0.000008302417
 81      -1.193129217582
 82      -0.677872216334
 83       0.000000782032
 84      -0.000003851881
 85      -0.032639357765
 86      -0.007187589496
 87      -0.000000842191
 88      -0.000000057325
 89      -0.077556389646
 90      -0.042563856883
 91      -0.007110665399
 92      -0.014541569361
 93       0.018641100759
 94       0.009996356590
 95      -0.008512777047
 96       0.137097963528
 97       0.004394796401
 98      -0.011978887819
 99      -0.044965893900
100      -0.587319704773
101       0.050118281924
102       0.188773854111
103       0.019277876926
104      -0.844793113038
105      -0.021488409626
106      -0.014686317302
107       0.646751982512
108      -0.056370779732
109       0.147435301855
110       0.073236283459
111      -0.121446281414
112       0.170828899193
113      -0.007110929143
114      -0.014542096205
115      -0.018641211873
116      -0.009997423227
117      -0.008512940151
118       0.137102735847
119      -0.004395709877
120       0.011979598373
121      -0.044965197015
122      -0.587346015623
123      -0.050113373218
124      -0.188776650001
125       0.019280311425
126      -0.844813587534
127       0.021495253692
128       0.014681264592
129       0.646745326691
130      -0.056376401818
131      -0.147432512303
132      -0.073240488392
133      -0.121448141113
134       0.170828047703
135       0.003810870588
136       0.008267999366
137       0.000000107747
138       0.000000348412
139       0.000621643501
140      -0.091147518063
141       0.000000205133
142      -0.000000122408
143       0.009316804878
144       0.501024765506
145      -0.000000281950
146       0.000000597439
147      -0.092493473246
148       0.071886197366
149      -0.000001039116
150      -0.000000115275
151       0.116853312369
152      -0.010587977318
153       0.000000052739
154       0.000001568845
155      -0.091092374396
156      -0.023887326680
 Sym=     1a
 Ene= 2.71769688635846E+00
 Spin= Alpha
 Occup= 0.000000
  1      -0.008962064267
  2      -0.049781757979
  3       0.076876137536
  4      -0.323316553176
  5      -0.166950257901
  6       0.307840363948
  7      -0.321925374309
  8      -0.128612971622
  9      -0.251554964715
 10       1.790719770763
 11      -0.246474800459
 12      -0.377189069944
 13       0.247393426596
 14      -0.747114617698
 15       0.330680044610
 16      -0.026918533359
 17      -0.061719390331
 18      -0.060312975688
 19      -0.049243627558
 20       0.151768858131
 21       0.168353338485
 22      -0.114430894184
 23      -0.008961676150
 24      -0.049780388341
 25      -0.076874738376
 26       0.323318949987
 27      -0.166942158788
 28       0.307832622581
 29       0.321954363334
 30       0.128596188663
 31      -0.251546846772
 32       1.790642791236
 33       0.246506374668
 34       0.377200590425
 35       0.247414953363
 36      -0.747161533443
 37      -0.330688392468
 38       0.026930891997
 39      -0.061738554468
 40      -0.060316215771
 41       0.049231447946
 42      -0.151760641743
 43       0.168350634058
 44      -0.114421900851
 45       0.400179997932
 46      -1.272586609486
 47       0.389970291631
 48       0.402465174210
 49      -0.178579170211
 50      -0.293289417489
 51       0.785234754891
 52      -2.167940481458
 53       0.867524966641
 54      -0.532253728359
 55      -0.312730256805
 56      -0.179507396396
 57       0.785236087575
 58      -2.167956999762
 59       0.867533974390
 60       0.532259243164
 61       0.312738021357
 62      -0.179505828663
 63       0.400161175170
 64      -1.272495913367
 65       0.389951962720
 66      -0.402438469343
 67       0.178563408942
 68      -0.293272975257
 69      -0.006269614886
 70      -0.016261438799
 71       0.000003248295
 72       0.000001540445
 73      -0.070086052928
 74       0.314023926942
 75      -0.000004102854
 76      -0.000002893765
 77       0.017560479634
 78      -0.323205447848
 79       0.000005867610
 80      -0.000006264955
 81       1.608219983598
 82       0.943522385055
 83       0.000003990506
 84       0.000002843354
 85      -0.253636297690
 86      -0.066585983867
 87       0.000000429541
 88       0.000001495539
 89       0.098458542344
 90       0.078392968735
 91      -0.003990041598
 92      -0.008645060115
 93      -0.012846553938
 94      -0.023057573934
 95       0.014802746146
 96       0.077069482051
 97       0.009284312805
 98      -0.032929763284
 99       0.006048638339
100      -0.060075437374
101      -0.041061097219
102      -0.105752189547
103       0.158767294644
104       0.118773426649
105       0.040113934767
106      -0.288702028406
107       0.426513266937
108       0.078891092428
109      -0.078609101209
110      -0.014740400089
111      -0.016511879135
112      -0.070839802424
113      -0.003990196017
114      -0.008645442479
115       0.012845985862
116       0.023057993081
117       0.014803368434
118       0.077074897649
119      -0.009285801619
120       0.032930316955
121       0.006048091571
122      -0.060093070368
123       0.041065518258
124       0.105743668636
125       0.158771369245
126       0.118747392846
127      -0.040118806311
128       0.288697325668
129       0.426515592210
130       0.078896040207
131       0.078609530887
132       0.014742535418
133      -0.016511223113
134      -0.070843856617
135      -0.007432269615
136      -0.015578956448
137       0.000000035214
138      -0.000000445689
139      -0.022057232149
140       0.167017354734
141      -0.000000063532
142      -0.000000252895
143      -0.036233273466
144      -0.724352731048
145       0.000000292728
146       0.000001865072
147       0.318738865795
148      -1.531506150895
149      -0.000001528441
150      -0.000000811171
151       0.529699569166
152       0.005956408182
153       0.000001109531
154      -0.000000567131
155       0.098576513712
156       0.044584851693
 Sym=     1a
 Ene= 2.75166165966685E+00
 Spin= Alpha
 Occup= 0.000000
  1      -0.000837089559
  2      -0.007923777176
  3      -0.169955574711
  4       0.388911752093
  5      -0.546812363948
  6       0.099349133686
  7       0.315919440854
  8      -0.398503467040
  9       0.636531159200
 10      -0.279980389560
 11       0.333736998218
 12       0.161905411860
 13      -0.489042025175
 14      -0.178754320335
 15      -0.084926692192
 16      -0.127441427445
 17      -0.001630518066
 18      -0.054257527607
 19      -0.068365304512
 20      -0.101636610115
 21       0.008698432775
 22       0.143165476718
 23      -0.000837538876
 24      -0.007925271051
 25       0.169961402192
 26      -0.388914583403
 27      -0.546818227515
 28       0.099361743550
 29      -0.315923748041
 30       0.398519773430
 31       0.636526507279
 32      -0.279957214887
 33      -0.333729165079
 34      -0.161898856466
 35      -0.489064202443
 36      -0.178886473978
 37       0.084923525594
 38       0.127475596239
 39      -0.001626339416
 40      -0.054257109471
 41       0.068368422549
 42       0.101626811268
 43       0.008701540805
 44       0.143166030423
 45       0.220236532500
 46      -0.455833896481
 47       0.036087156368
 48      -0.032077063925
 49      -0.094881925212
 50      -0.104396085022
 51      -0.122825109810
 52       0.370013946407
 53      -0.126881988095
 54       0.034277749512
 55       0.089463526370
 56      -0.059551972740
 57      -0.122811939334
 58       0.369972852346
 59      -0.126868567856
 60      -0.034263016816
 61      -0.089460910553
 62      -0.059553291681
 63       0.220243275887
 64      -0.455866002053
 65       0.036097348708
 66       0.032064506268
 67       0.094883081923
 68      -0.104401054101
 69      -0.004762910397
 70      -0.007251532561
 71       0.000002916364
 72      -0.000001983664
 73      -0.069092063178
 74       0.003589205563
 75      -0.000003776189
 76       0.000002804068
 77       0.111699936272
 78      -0.452416003082
 79       0.000004733477
 80      -0.000011562225
 81      -0.797070439663
 82       0.032430815991
 83       0.000003238777
 84      -0.000000954423
 85      -0.091612627674
 86       0.153429383450
 87       0.000000696268
 88       0.000000294182
 89       0.021186961025
 90       0.078045806483
 91       0.005969483400
 92       0.009669496990
 93      -0.005777772381
 94       0.002434482156
 95       0.053553950879
 96      -0.028315465732
 97      -0.013643467788
 98       0.003954418429
 99       0.065119096254
100      -0.165253587076
101       0.030080346325
102       0.054434200489
103       0.110084540812
104       0.353779218836
105       0.039520810342
106      -0.051353373036
107      -0.211968213758
108       0.244309341086
109      -0.105067444517
110       0.066615202152
111      -0.157687481406
112       0.088939646088
113       0.005969255188
114       0.009669076101
115       0.005777835644
116      -0.002434424279
117       0.053553552302
118      -0.028312139354
119       0.013643339916
120      -0.003953437986
121       0.065119451861
122      -0.165263661430
123      -0.030078396309
124      -0.054437352594
125       0.110083679011
126       0.353744881238
127      -0.039522752009
128       0.051340605172
129      -0.211975917847
130       0.244302273265
131       0.105071088653
132      -0.066617137923
133      -0.157687647691
134       0.088936751356
135       0.009347975119
136       0.020418066051
137      -0.000000130841
138       0.000000135798
139       0.003731328048
140      -0.200566430363
141       0.000000106310
142      -0.000000291504
143       0.097154749070
144       0.523484926988
145      -0.000000030508
146       0.000001488714
147      -0.197008778067
148       0.556955893189
149      -0.000001314537
150      -0.000000523797
151      -0.129868815427
152      -0.015570750353
153      -0.000000000714
154       0.000001697972
155       0.053128923604
156       0.364944462486
 Sym=     1a
 Ene= 2.78086462138338E+00
 Spin= Alpha
 Occup= 0.000000
  1       0.024338369785
  2       0.076585821932
  3       0.079543799051
  4      -0.092101881346
  5       0.354968049190
  6      -0.368707127279
  7       0.045952901878
  8       0.726278941824
  9       0.115005341143
 10      -4.296163547418
 11       0.045934837613
 12      -0.637488456747
 13       0.028163622886
 14       4.360113980974
 15      -0.032659071748
 16       1.123461019649
 17      -0.280238981954
 18       0.140805829420
 19       0.047627681133
 20      -0.430958376386
 21      -0.255911160716
 22      -0.037849741492
 23      -0.024338146482
 24      -0.076585794725
 25       0.079541857575
 26      -0.092094172673
 27      -0.354963981485
 28       0.368704717100
 29       0.045987741780
 30       0.726277608157
 31      -0.115009912429
 32       4.296184918779
 33       0.046006037363
 34      -0.637489986673
 35      -0.028141287285
 36      -4.360127126537
 37      -0.032670152985
 38       1.123460874704
 39       0.280234257134
 40      -0.140808046093
 41       0.047619926753
 42      -0.430958825997
 43       0.255913423303
 44       0.037851160299
 45      -0.432918389698
 46       1.995787652415
 47      -0.628861373740
 48      -0.602716630496
 49       0.155467681990
 50       0.463745730900
 51      -0.481714654898
 52       2.108834059248
 53      -0.614540490336
 54       0.765310176573
 55       0.200718230055
 56       0.159716659356
 57       0.481737686247
 58      -2.108916145946
 59       0.614556729624
 60       0.765329818674
 61       0.200726196317
 62      -0.159716486322
 63       0.432913924063
 64      -1.995751801154
 65       0.628867887345
 66      -0.602708752198
 67       0.155464469698
 68      -0.463742413778
 69       0.000000082224
 70       0.000000035854
 71       0.119898922481
 72      -0.054316997151
 73       0.000002814283
 74       0.000003620344
 75      -0.160967042800
 76       0.122993577446
 77      -0.000005640578
 78      -0.000013706078
 79       0.117998842256
 80      -0.441281103658
 81       0.000023216015
 82       0.000005902042
 83       0.056568648446
 84      -0.048798768763
 85       0.000001107260
 86      -0.000005397322
 87       0.054788730198
 88      -0.014684599982
 89       0.000000715284
 90      -0.000000377621
 91      -0.000018189254
 92      -0.002753916247
 93       0.002745061061
 94       0.015757967101
 95       0.021427514472
 96       0.089954540943
 97      -0.005392033329
 98       0.011904019889
 99      -0.023768386463
100      -0.672168586363
101      -0.046466326568
102       0.063265840501
103       0.383856561862
104       0.151715813965
105      -0.036574669401
106      -0.181862509808
107       0.334438394700
108       0.174250169825
109      -0.103352953491
110      -0.037778645903
111      -0.030393341417
112      -0.014705234627
113       0.000018136341
114       0.002753812839
115       0.002746917902
116       0.015758290466
117      -0.021428313432
118      -0.089953892211
119      -0.005390942378
120       0.011904232540
121       0.023767329667
122       0.672172263589
123      -0.046465829473
124       0.063267309125
125      -0.383854872068
126      -0.151702231530
127      -0.036572875376
128      -0.181857635590
129      -0.334438476236
130      -0.174250823207
131      -0.103349827535
132      -0.037776091893
133       0.030399108859
134       0.014694426088
135      -0.000000252822
136      -0.000000543674
137      -0.019921461887
138       0.007556433407
139      -0.000000377613
140       0.000004774184
141      -0.002751772900
142      -0.004601238416
143      -0.000003292902
144      -0.000006498314
145       0.024689620897
146       0.045353831394
147       0.000002246513
148      -0.000012551039
149       0.016888349833
150      -0.038479963926
151       0.000002647011
152      -0.000000006716
153      -0.066976579494
154       0.062075117916
155       0.000002965394
156      -0.000008725002
 Sym=     1a
 Ene= 2.81651973741030E+00
 Spin= Alpha
 Occup= 0.000000
  1      -0.002102086808
  2      -0.001422924471
  3       0.156561218408
  4      -0.125020817632
  5       0.157902751893
  6      -0.008267501198
  7      -0.215807436203
  8       0.139700491851
  9      -0.194815782515
 10       0.053210014185
 11      -0.037262531060
 12      -0.016407966124
 13       0.146132866099
 14      -0.063887964374
 15       0.016482790524
 16       0.001287034236
 17      -0.047076865149
 18       0.025611560130
 19       0.024535898559
 20       0.060439466972
 21       0.043916436240
 22      -0.206273706068
 23      -0.002102330315
 24      -0.001423781406
 25      -0.156561259244
 26       0.125019321573
 27       0.157893207764
 28      -0.008265606738
 29       0.215808789484
 30      -0.139692640954
 31      -0.194810496677
 32       0.053285783893
 33       0.037259712357
 34       0.016389818812
 35       0.146137434104
 36      -0.063973263306
 37      -0.016482143123
 38      -0.001267117143
 39      -0.047076968286
 40       0.025606809336
 41      -0.024536411537
 42      -0.060443157826
 43       0.043918191275
 44      -0.206274154038
 45      -0.127545210606
 46       0.174629218340
 47      -0.061447600024
 48       0.031913586766
 49       0.036615771633
 50      -0.009591426615
 51       0.049594402225
 52      -0.113940630238
 53       0.125279028927
 54       0.032865956742
 55      -0.102432162634
 56       0.044179653296
 57       0.049598968645
 58      -0.113965516999
 59       0.125289066622
 60      -0.032857664831
 61       0.102434913388
 62       0.044175702716
 63      -0.127536343818
 64       0.174599153898
 65      -0.061435698182
 66      -0.031918703458
 67      -0.036613323665
 68      -0.009600136435
 69       0.002236535891
 70       0.003051608512
 71      -0.000000361132
 72       0.000002025033
 73       0.031794028141
 74       0.011123437026
 75       0.000000325096
 76      -0.000002165917
 77      -0.058347128804
 78       0.169430667697
 79      -0.000001029117
 80       0.000003496994
 81       0.499085800768
 82       0.189258213710
 83      -0.000001063976
 84       0.000002163991
 85      -0.007027782709
 86      -0.057772461791
 87       0.000000140301
 88      -0.000000214169
 89      -0.000379394268
 90       0.009407546583
 91      -0.002035293492
 92      -0.003162183477
 93       0.019974634915
 94      -0.002917636875
 95      -0.017238005449
 96       0.005229202422
 97      -0.003546797517
 98      -0.004730366991
 99      -0.019691832868
100       0.115271722012
101       0.014274571049
102      -0.029730673638
103      -0.036348543888
104      -0.020442577764
105      -0.070106751461
106      -0.021591882480
107       0.033941420455
108      -0.104096912661
109      -0.106321053243
110      -0.080959399349
111      -0.081323158429
112       0.217541804912
113      -0.002035197819
114      -0.003161939645
115      -0.019974662220
116       0.002918239311
117      -0.017238612946
118       0.005225741690
119       0.003546773930
120       0.004730005764
121      -0.019692254610
122       0.115290650321
123      -0.014275920427
124       0.029732387588
125      -0.036355466096
126      -0.020434132454
127       0.070106407147
128       0.021595015707
129       0.033942429488
130      -0.104099351722
131       0.106315721605
132       0.080960780066
133      -0.081321020417
134       0.217544276291
135      -0.004494932434
136      -0.009686650418
137      -0.000000162389
138       0.000000089171
139      -0.003482582901
140       0.096785863994
141      -0.000000079884
142       0.000000133618
143      -0.041114814076
144      -0.293530907325
145       0.000000309575
146      -0.000000425323
147       0.108330877740
148      -0.343380958013
149       0.000000679414
150      -0.000000745309
151       0.087717300286
152       0.011854023526
153      -0.000000423096
154      -0.000000076679
155      -0.516911087406
156       0.670201197346
 Sym=     1a
 Ene= 2.87600856459655E+00
 Spin= Alpha
 Occup= 0.000000
  1      -0.018903663346
  2      -0.035718075851
  3       0.028532806698
  4      -0.089782824500
  5       0.323709840824
  6       0.234654631622
  7       0.003409611313
  8      -0.102121650512
  9      -0.529983558435
 10       0.658598356290
 11       0.031690781276
 12      -0.337647941012
 13       0.263325520568
 14       0.265160119519
 15       0.012207521873
 16      -0.175172323381
 17       0.280591463019
 18       0.113319884055
 19      -0.082436340542
 20       0.216690183220
 21       0.181991552534
 22       0.016943437437
 23       0.018903921300
 24       0.035718728622
 25       0.028537547737
 26      -0.089776176498
 27      -0.323703803781
 28      -0.234658306517
 29       0.003401808487
 30      -0.102132371776
 31       0.529979011238
 32      -0.658602018545
 33       0.031704410992
 34      -0.337641001559
 35      -0.263323329280
 36      -0.265129501040
 37       0.012206551193
 38      -0.175178959112
 39      -0.280581855160
 40      -0.113319545771
 41      -0.082432346192
 42       0.216691975988
 43      -0.181993276567
 44      -0.016936303976
 45      -0.105379297324
 46      -0.374241135739
 47       0.068715936776
 48       0.278332629721
 49      -0.144395790229
 50      -0.065721670692
 51      -0.025205428208
 52      -0.297379786086
 53      -0.026690958540
 54      -0.205717618779
 55      -0.053361411540
 56       0.037018805530
 57       0.025205576994
 58       0.297381105396
 59       0.026682951286
 60      -0.205718378879
 61      -0.053364839405
 62      -0.037022554831
 63       0.105373921976
 64       0.374259042712
 65      -0.068717997706
 66       0.278333500372
 67      -0.144398053925
 68       0.065731246674
 69      -0.000000012564
 70       0.000000011403
 71      -0.322014731937
 72       0.899026402432
 73      -0.000002640745
 74      -0.000001788370
 75       0.402783171819
 76      -1.096009431954
 77       0.000006538881
 78       0.000006412016
 79      -0.620942449809
 80       2.000471816566
 81      -0.000012766085
 82      -0.000028120494
 83      -0.113630594618
 84       0.566468211477
 85       0.000009094195
 86       0.000003033365
 87      -0.051744778654
 88       0.086435153620
 89      -0.000005039968
 90      -0.000001455358
 91      -0.010121391984
 92      -0.020209364143
 93      -0.001580574737
 94      -0.022943659828
 95       0.082825278497
 96       0.150139273270
 97       0.023992530248
 98      -0.109722839864
 99       0.154438331373
100      -0.323303719840
101      -0.011381455256
102       0.073007630529
103      -0.335625012082
104      -1.014583603235
105      -0.028099104512
106       0.511924252716
107      -0.865999704083
108       0.008149463248
109      -0.134194125881
110       0.316437370398
111      -0.016962149844
112      -0.005769469040
113       0.010121455381
114       0.020209490591
115      -0.001581151575
116      -0.022944847569
117      -0.082827765199
118      -0.150140613459
119       0.023991400437
120      -0.109723320641
121      -0.154438726693
122       0.323301971045
123      -0.011375687251
124       0.073008206172
125       0.335621253467
126       1.014574443587
127      -0.028094219639
128       0.511920808138
129       0.866009311286
130      -0.008146566801
131      -0.134203262977
132       0.316437139271
133       0.016958024202
134       0.005776766138
135       0.000000173104
136       0.000000369422
137      -0.003712834274
138       0.011132411542
139       0.000000163035
140      -0.000003178311
141      -0.011845274967
142       0.036602617830
143       0.000002390136
144       0.000002819083
145       0.071825375045
146      -0.209517413280
147      -0.000000248340
148       0.000007291644
149       0.010682986450
150      -0.135021255779
151      -0.000002724550
152      -0.000000314931
153      -0.028608694049
154       0.079439917426
155       0.000020723896
156       0.000008798860
 Sym=     1a
 Ene= 2.88237471337912E+00
 Spin= Alpha
 Occup= 0.000000
  1       0.004117229200
  2       0.012522342509
  3       0.036733616080
  4      -0.161254916475
  5       0.176381167119
  6      -0.070749323369
  7      -0.014238816055
  8       0.255007395121
  9      -0.161746709138
 10      -0.083652675749
 11       0.075616172123
 12      -0.174040399497
 13       0.040859455966
 14       0.598244971956
 15      -0.019754420894
 16       0.110234551737
 17       0.168358149522
 18       0.035120395053
 19      -0.043090391963
 20      -0.004015590522
 21      -0.030146179865
 22      -0.004565835554
 23       0.004117178545
 24       0.012522315101
 25      -0.036730785517
 26       0.161256956214
 27       0.176381265071
 28      -0.070746874022
 29       0.014232080521
 30      -0.255006952609
 31      -0.161748407227
 32      -0.083684904788
 33      -0.075613403664
 34       0.174058493332
 35       0.040852540414
 36       0.598238896020
 37       0.019754911932
 38      -0.110218910538
 39       0.168370113820
 40       0.035125119312
 41       0.043093864043
 42       0.004006419229
 43      -0.030140973745
 44      -0.004565798290
 45      -0.102142536891
 46       0.219238458064
 47      -0.119104137889
 48      -0.023683909116
 49       0.033949485242
 50       0.081247787875
 51      -0.055953984560
 52       0.266847977737
 53      -0.130851074584
 54       0.080951122271
 55       0.058036801133
 56       0.040256649055
 57      -0.055955796156
 58       0.266855439114
 59      -0.130859182741
 60      -0.080952172864
 61      -0.058036945012
 62       0.040256647103
 63      -0.102151605066
 64       0.219244837117
 65      -0.119107975134
 66       0.023679656292
 67      -0.033947081191
 68       0.081248829169
 69       0.006112390558
 70       0.010917697402
 71       0.000009496698
 72      -0.000029183347
 73      -0.037839657438
 74      -0.148513337009
 75      -0.000011697238
 76       0.000035307667
 77       0.169507725867
 78       0.104516198463
 79       0.000018082983
 80      -0.000061089005
 81      -0.564332952767
 82      -1.033504756832
 83       0.000004713033
 84      -0.000017105960
 85       0.307194424036
 86       0.059775833374
 87       0.000001223366
 88      -0.000002523292
 89      -0.183303148803
 90      -0.109457509953
 91       0.001814523002
 92       0.003828588135
 93       0.001658976948
 94       0.025483306977
 95      -0.062360780953
 96      -0.040936259792
 97       0.000025808123
 98       0.016578026376
 99      -0.020410080682
100      -0.034674142235
101      -0.002766577245
102      -0.026298757184
103      -0.040435973150
104      -0.126680762887
105      -0.015099553106
106       0.029486882432
107       0.247232547070
108      -0.002960890592
109       0.092379458397
110      -0.080584558501
111      -0.028958512294
112       0.050363662591
113       0.001813313480
114       0.003826232706
115      -0.001659636198
116      -0.025480114074
117      -0.062357775367
118      -0.040918287847
119      -0.000028094197
120      -0.016569838919
121      -0.020404227832
122      -0.034710878045
123       0.002769577403
124       0.026288613923
125      -0.040443237271
126      -0.126784793250
127       0.015106990923
128      -0.029523068800
129       0.247195854167
130      -0.002967898103
131      -0.092374742665
132       0.080569851306
133      -0.028952461971
134       0.050368925249
135       0.004832567645
136       0.010141821314
137       0.000000051651
138      -0.000000187036
139       0.002784253541
140      -0.094943546425
141       0.000000427126
142      -0.000001192634
143       0.048685758607
144       0.228491999222
145      -0.000001838254
146       0.000005931418
147      -0.039216725322
148       0.196259412803
149      -0.000001764976
150       0.000005672253
151      -0.054326721198
152      -0.013704214648
153      -0.000000071204
154      -0.000002433306
155       0.795925562343
156       0.485867321713
 Sym=     1a
 Ene= 2.90684816069600E+00
 Spin= Alpha
 Occup= 0.000000
  1      -0.034046532079
  2      -0.070514293637
  3       0.126513792777
  4      -0.096765061881
  5       0.431689651550
  6       0.323697195061
  7      -0.108039564878
  8      -0.238822052456
  9      -0.813923397498
 10       3.335048202406
 11       0.316544369210
 12       0.301558142430
 13       0.671827468643
 14       0.557752643975
 15      -0.018202955027
 16       0.216144445364
 17       0.134424261969
 18       0.003280481885
 19      -0.060340094430
 20       0.129562305501
 21       0.203856855881
 22       0.001239529899
 23       0.034046930667
 24       0.070515078240
 25       0.126516184200
 26      -0.096766039338
 27      -0.431696399431
 28      -0.323705005623
 29      -0.108044114725
 30      -0.238821877289
 31       0.813933750319
 32      -3.335054720301
 33       0.316556140122
 34       0.301546326913
 35      -0.671824708149
 36      -0.557760337597
 37      -0.018208475537
 38       0.216145046876
 39      -0.134427109164
 40      -0.003281746893
 41      -0.060340499671
 42       0.129565308883
 43      -0.203856935592
 44      -0.001239207614
 45       0.219787471425
 46      -1.407562161898
 47       0.323380447305
 48       0.440420694437
 49      -0.272023233026
 50      -0.299715745351
 51       0.023815505914
 52      -0.850665860673
 53       0.250965537132
 54      -0.415299822733
 55      -0.131299761757
 56      -0.016685030511
 57      -0.023808065737
 58       0.850651928877
 59      -0.250958856995
 60      -0.415302769115
 61      -0.131294731877
 62       0.016674685992
 63      -0.219792742949
 64       1.407580397770
 65      -0.323384201335
 66       0.440421848501
 67      -0.272026983896
 68       0.299723427898
 69      -0.000000381801
 70      -0.000000663414
 71       0.121833735836
 72      -0.547852031070
 73      -0.000004095239
 74       0.000007396060
 75      -0.139911321637
 76       0.613746990918
 77       0.000003917172
 78       0.000004005074
 79       0.336875614522
 80      -1.085688606330
 81       0.000024119052
 82       0.000007591842
 83       0.121575645338
 84      -0.251718829050
 85       0.000001072618
 86       0.000000762227
 87      -0.021094452193
 88      -0.018489521835
 89       0.000002338163
 90       0.000003576767
 91       0.026994907133
 92       0.052620219187
 93      -0.028857847669
 94       0.077094615797
 95       0.026619649127
 96      -0.441678895696
 97      -0.041996749945
 98       0.111601356158
 99       0.048282757636
100       1.043420645734
101       0.132043081977
102      -0.348462272000
103      -0.365084451584
104       2.218362624491
105       0.156565269051
106      -0.472085974160
107      -0.186682283787
108       0.220838738134
109      -0.073538293012
110       0.048868924512
111      -0.276881319948
112      -0.178470676098
113      -0.026995007385
114      -0.052620414006
115      -0.028859043180
116       0.077095591442
117      -0.026617268114
118       0.441680259021
119      -0.041998546158
120       0.111602751550
121      -0.048280001382
122      -1.043412735091
123       0.132051826493
124      -0.348460632351
125       0.365079370541
126      -2.218353005693
127       0.156565451692
128      -0.472084804454
129       0.186669311179
130      -0.220836723627
131      -0.073544848469
132       0.048860416068
133       0.276877898375
134       0.178477100206
135      -0.000000067305
136      -0.000000130162
137       0.004467038702
138      -0.001854185223
139      -0.000000064305
140       0.000002074184
141       0.008770792723
142      -0.024991162029
143       0.000000984844
144      -0.000017527792
145      -0.033993176814
146       0.097353133410
147       0.000005827781
148      -0.000008203049
149      -0.095312283782
150       0.178116742814
151       0.000000399320
152       0.000000251561
153       0.007537209371
154      -0.035039786361
155      -0.000010878990
156      -0.000010060700
 Sym=     1a
 Ene= 2.96942916781006E+00
 Spin= Alpha
 Occup= 0.000000
  1      -0.010381174985
  2      -0.019769207694
  3       0.058373851113
  4      -0.123685954392
  5       0.076399015917
  6      -0.019716224123
  7      -0.208843278889
  8       0.128578295259
  9      -0.104864791880
 10       2.098042812677
 11       0.194480527594
 12       0.361182737694
 13       0.412083879736
 14      -0.130603693868
 15      -0.082719579394
 16       0.005337932110
 17       0.043276399178
 18      -0.232207030084
 19       0.285687720434
 20      -0.243063870464
 21       0.098232845245
 22       0.044966562721
 23       0.010383320286
 24       0.019773891670
 25       0.058368944484
 26      -0.123658131770
 27      -0.076407093828
 28       0.019683264566
 29      -0.208833449228
 30       0.128530547511
 31       0.104889683994
 32      -2.098099465085
 33       0.194489761632
 34       0.361183061672
 35      -0.412094001867
 36       0.130662570657
 37      -0.082725216523
 38       0.005331652444
 39      -0.043264027011
 40       0.232209646679
 41       0.285683080106
 42      -0.243054540104
 43      -0.098240319526
 44      -0.044970303856
 45       0.366586206888
 46      -0.609144503844
 47       0.266517426514
 48      -0.119262120717
 49      -0.058485083677
 50      -0.127064472478
 51      -0.140306280662
 52      -0.322304238444
 53      -0.001214419455
 54      -0.192537821208
 55      -0.156861261618
 56      -0.062931879527
 57       0.140308947583
 58       0.322334259180
 59       0.001201046585
 60      -0.192562461279
 61      -0.156860407517
 62       0.062926557666
 63      -0.366599753776
 64       0.609213882595
 65      -0.266549832606
 66      -0.119239176293
 67      -0.058493693999
 68       0.127079941003
 69      -0.000000417477
 70      -0.000000759449
 71       0.084093056124
 72       0.118150190557
 73      -0.000005303019
 74       0.000009434231
 75      -0.146524826769
 76       0.028109681867
 77       0.000007284532
 78      -0.000009699805
 79       0.011935863998
 80       0.407786850312
 81       0.000021138153
 82      -0.000050738589
 83       0.088419221236
 84       0.010677609429
 85       0.000024679515
 86      -0.000002624070
 87       0.032856168322
 88       0.081826905670
 89      -0.000000270826
 90       0.000000173692
 91       0.001778476722
 92       0.003696092057
 93       0.008912713896
 94      -0.025389633800
 95       0.002867048062
 96      -0.043952749792
 97       0.012334605645
 98      -0.028342986484
 99       0.083289658940
100       0.275689449046
101      -0.065939341738
102       0.144767291042
103      -0.523852221857
104       0.394505263135
105       0.034420386153
106      -0.160149612084
107      -0.104518091335
108       0.334783890540
109       0.384509370649
110       0.016089967520
111       0.212359975860
112       0.194620905986
113      -0.001778305144
114      -0.003695693484
115       0.008911693420
116      -0.025389371654
117      -0.002866825636
118       0.043947866688
119       0.012334005064
120      -0.028342106234
121      -0.083284409188
122      -0.275666163769
123      -0.065935805062
124       0.144772657783
125       0.523830389566
126      -0.394459228216
127       0.034416924391
128      -0.160137388201
129       0.104512721041
130      -0.334785531748
131       0.384505120982
132       0.016083114200
133      -0.212361645671
134      -0.194618443551
135      -0.000000136905
136      -0.000000277834
137      -0.002832399512
138       0.031849557988
139      -0.000000518463
140       0.000003399377
141      -0.000886778513
142      -0.002912555136
143       0.000000134467
144      -0.000016779534
145       0.021901721020
146      -0.137713463947
147       0.000007728538
148      -0.000005055535
149      -0.065016495210
150      -0.020274230029
151      -0.000004139765
152      -0.000000833644
153       0.002460580206
154       0.366022880778
155      -0.000002938696
156      -0.000001269208
 Sym=     1a
 Ene= 3.05718930457249E+00
 Spin= Alpha
 Occup= 0.000000
  1       0.054623077320
  2       0.112689126208
  3      -0.042480824948
  4      -0.610751620851
  5      -0.233195525342
  6      -0.715944783463
  7       0.132765686767
  8       1.134177141130
  9       0.639227875960
 10      -1.527975527740
 11      -0.438068562888
 12      -0.182957665461
 13      -0.411677837048
 14       1.521202387109
 15      -0.004590919312
 16       0.178432008540
 17       0.400510233595
 18       0.051542680054
 19      -0.058707765367
 20      -0.268645337952
 21      -0.259562970414
 22      -0.060869428981
 23       0.054620139328
 24       0.112682718565
 25       0.042497614448
 26       0.610783111031
 27      -0.233163102159
 28      -0.715951003119
 29      -0.132806040576
 30      -1.134207146051
 31       0.639153720316
 32      -1.527271627150
 33       0.438074322633
 34       0.182842430781
 35      -0.411520947147
 36       1.520776594797
 37       0.004590739710
 38      -0.178333136136
 39       0.400509001545
 40       0.051530735811
 41       0.058743663950
 42       0.268709199024
 43      -0.259584073261
 44      -0.060879209282
 45      -0.142467233517
 46       1.325448346245
 47      -0.507572502782
 48      -0.470298626456
 49       0.208278521591
 50       0.350034871566
 51       0.046482172600
 52       0.959563976084
 53      -0.583508530620
 54       0.606448483708
 55       0.227022323567
 56       0.025891846351
 57       0.046562996020
 58       0.959358283628
 59      -0.583438619915
 60      -0.606426808914
 61      -0.227001522773
 62       0.025847763588
 63      -0.142432317040
 64       1.325265071917
 65      -0.507485763476
 66       0.470264669577
 67      -0.208238354508
 68       0.350002686897
 69      -0.015019288326
 70      -0.027337748740
 71      -0.000011187167
 72      -0.000004950550
 73      -0.174014169743
 74       0.333765484827
 75       0.000023718413
 76      -0.000006523037
 77       0.286615954609
 78      -0.842390022140
 79       0.000001194353
 80      -0.000070686618
 81       0.313555988896
 82      -2.757458541023
 83      -0.000000349495
 84       0.000004890922
 85       1.185689072855
 86      -0.134056032673
 87       0.000002041914
 88      -0.000004511548
 89      -0.005851769437
 90      -0.004972745090
 91       0.005728155069
 92       0.012804695607
 93       0.014199369988
 94      -0.005872802506
 95       0.006149039046
 96      -0.154657554612
 97       0.000798531001
 98      -0.002874070871
 99       0.112008746348
100       0.621622260784
101      -0.012946960730
102      -0.177530780660
103      -0.536212370044
104       1.089896511506
105       0.079755797317
106      -0.297195853677
107      -0.046973039804
108       0.140589111752
109       0.092019163035
110       0.256487196426
111      -0.161949605042
112       0.014864335482
113       0.005728800582
114       0.012806116764
115      -0.014198577176
116       0.005879543455
117       0.006147878441
118      -0.154674957267
119      -0.000793349688
120       0.002880571119
121       0.112024841830
122       0.621732627453
123       0.012911413142
124       0.177484359632
125      -0.536351261523
126       1.089937008767
127      -0.079755111045
128       0.297204765093
129      -0.047032956321
130       0.140623649476
131      -0.091959493680
132      -0.256443710462
133      -0.161875851577
134       0.014854788165
135      -0.003663131682
136      -0.007200457530
137       0.000000200537
138      -0.000002633407
139      -0.026889761284
140       0.084044713399
141      -0.000000493117
142      -0.000000374629
143      -0.004057156214
144      -0.289271267883
145      -0.000004379079
146       0.000018882459
147       0.194203443462
148       0.139644679579
149       0.000007792808
150      -0.000004759752
151      -0.276429733918
152      -0.072169813325
153       0.000014254050
154      -0.000024365104
155      -0.085192144354
156      -0.031796957707
 Sym=     1a
 Ene= 3.07150650678778E+00
 Spin= Alpha
 Occup= 0.000000
  1       0.010049086087
  2       0.023191971538
  3       0.079291447421
  4       0.125123465680
  5      -0.125767317356
  6       0.029515602008
  7      -0.178199337612
  8      -0.151391157935
  9       0.292546113194
 10      -2.630833212450
 11       0.147498983322
 12      -0.403872418960
 13      -0.622841556428
 14       2.510884512493
 15      -0.036564408939
 16       0.593485707338
 17       0.053042145902
 18       0.010256201565
 19       0.257042831154
 20       0.315161934825
 21       0.163077103934
 22       0.055479716693
 23      -0.010053008663
 24      -0.023200617644
 25       0.079410205131
 26       0.125116897061
 27       0.125809276312
 28      -0.029440081746
 29      -0.178385828739
 30      -0.151364279572
 31      -0.292636566913
 32       2.630811715966
 33       0.147278639903
 34      -0.403830204742
 35       0.622763078746
 36      -2.511017407067
 37      -0.036461521012
 38       0.593544097786
 39      -0.053091563245
 40      -0.010296695543
 41       0.256950373440
 42       0.315123638951
 43      -0.163035628187
 44      -0.055340464144
 45      -0.089953488458
 46       0.639285280134
 47      -0.373668727032
 48      -0.140052764925
 49       0.166557255987
 50       0.118893696452
 51      -0.464701558248
 52       0.949866346912
 53      -0.367868130351
 54       0.041086535759
 55       0.048857480648
 56       0.177331833156
 57       0.464577985416
 58      -0.949704740648
 59       0.367755391067
 60       0.041160047343
 61       0.048831756040
 62      -0.177286209048
 63       0.090090271149
 64      -0.639628026355
 65       0.373769128152
 66      -0.140055890480
 67       0.166615811803
 68      -0.118945577748
 69       0.000012471926
 70       0.000018967066
 71      -0.086520308001
 72      -0.047174223731
 73       0.000262835436
 74      -0.000116172970
 75       0.202376247392
 76      -0.045958349173
 77      -0.000392880011
 78      -0.000469912557
 79       0.048815076357
 80      -0.712582136947
 81       0.000289146700
 82       0.000091194769
 83      -0.002127618373
 84       0.046881731998
 85      -0.000012635384
 86      -0.000129157261
 87       0.032799524545
 88      -0.018027923264
 89       0.000069291012
 90      -0.000070226796
 91      -0.000714229427
 92      -0.001996061867
 93      -0.001737766637
 94       0.035588355141
 95       0.009321297705
 96       0.032863610696
 97       0.024600583538
 98       0.034989929998
 99      -0.059358657269
100      -0.345642741884
101      -0.170117946806
102      -0.269966457813
103       0.541234266409
104       0.114534387912
105       0.020622873133
106      -0.031425698685
107       0.260986752435
108      -0.093142399780
109       0.382470212248
110       0.257457816618
111      -0.369321742303
112       0.069209702001
113       0.000721471033
114       0.002010393821
115      -0.001728831394
116       0.035570149511
117      -0.009337547882
118      -0.032990970321
119       0.024639516116
120       0.034940308509
121       0.059308667531
122       0.345923343953
123      -0.170355186557
124      -0.269803630956
125      -0.541109107662
126      -0.113977760023
127       0.020616217097
128      -0.031225476924
129      -0.260972722007
130       0.093148749799
131       0.382515403294
132       0.257606254293
133       0.369349905362
134      -0.069549753334
135      -0.000006139946
136      -0.000013601952
137       0.003537636141
138      -0.022628340832
139      -0.000013009031
140       0.000104234695
141      -0.004628230630
142      -0.005860337144
143      -0.000124520307
144       0.000160242403
145      -0.054119531271
146       0.171782846542
147      -0.000072337655
148      -0.000259843289
149       0.070344845403
150      -0.046035253290
151       0.000103851898
152      -0.000004423277
153       0.157761065260
154      -0.174685071791
155      -0.000031932202
156       0.000087415335
 Sym=     1a
 Ene= 3.07302909702059E+00
 Spin= Alpha
 Occup= 0.000000
  1       0.008983465756
  2       0.017538917406
  3      -0.174320812199
  4      -0.151484369264
  5      -0.003124057785
  6      -0.077246115704
  7       0.301183881259
  8       0.264516429631
  9       0.042152779630
 10      -0.448972391382
 11       0.276123161245
 12      -0.115207028778
 13      -0.242064579510
 14       0.177437738696
 15      -0.137791147810
 16      -0.042177485774
 17       0.026339876985
 18      -0.045579303025
 19       0.115785423363
 20      -0.018318013033
 21      -0.011935171618
 22       0.176704798258
 23       0.008991499423
 24       0.017557166317
 25       0.174264939680
 26       0.151391899939
 27      -0.003216843645
 28      -0.077228177235
 29      -0.301057130236
 30      -0.264413979714
 31       0.042372821134
 32      -0.450978445572
 33      -0.276220597289
 34       0.115518866237
 35      -0.242534257904
 36       0.179229478911
 37       0.137815854274
 38       0.041751028415
 39       0.026372715980
 40      -0.045568359551
 41      -0.115968987051
 42       0.018103440160
 43      -0.011829097067
 44       0.176745173561
 45       0.163860669740
 46      -0.168075489566
 47      -0.001761214550
 48      -0.114716052358
 49      -0.025348319140
 50       0.017949156117
 51      -0.164124028379
 52       0.517348431734
 53      -0.284459812184
 54       0.062842867093
 55       0.101801906828
 56       0.077117038584
 57      -0.164450210188
 58       0.518046688702
 59      -0.284724488182
 60      -0.062884749846
 61      -0.101842687623
 62       0.077245265225
 63       0.163793002418
 64      -0.167580390638
 65      -0.002036300546
 66       0.114825532250
 67       0.025220418429
 68       0.018047832930
 69       0.031699627531
 70       0.047144628973
 71       0.000027632032
 72       0.000015512199
 73       0.700177801619
 74      -0.251275261518
 75      -0.000066713171
 76       0.000016650227
 77      -1.033933221770
 78      -1.558121660751
 79      -0.000016977410
 80       0.000251180742
 81       0.865912125454
 82      -0.414489512460
 83       0.000001871316
 84      -0.000016211419
 85       0.250969955438
 86      -0.398702912713
 87      -0.000013434281
 88       0.000007330143
 89       0.201250565745
 90      -0.206806949731
 91       0.011815474958
 92       0.023812699015
 93      -0.008056517560
 94       0.023866197787
 95      -0.021765356853
 96      -0.224118126884
 97      -0.055154674188
 98       0.070521513863
 99      -0.041806602380
100       0.571197554760
101       0.340164630172
102      -0.283936233892
103       0.035063569102
104       1.069976202336
105       0.034720292329
106      -0.361667066004
107       0.013231190604
108       0.054603992534
109      -0.038027590140
110      -0.137693349065
111      -0.005076383846
112      -0.491632638105
113       0.011814564116
114       0.023810454176
115       0.008057183471
116      -0.023890698558
117      -0.021759824999
118      -0.224085848377
119       0.055137505489
120      -0.070545162415
121      -0.041850732312
122       0.570916964915
123      -0.340043911598
124       0.284116197770
125       0.035464398872
126       1.070018790218
127      -0.034730125287
128       0.361684020532
129       0.013427815203
130       0.054533894582
131       0.037760707120
132       0.137518771450
133      -0.005328691638
134      -0.491583473490
135      -0.018157250884
136      -0.039972024691
137      -0.000000958156
138       0.000008028733
139      -0.043909176888
140       0.312651702475
141       0.000001415902
142       0.000002041744
143      -0.352327605695
144       0.399700440973
145       0.000018100599
146      -0.000060810707
147      -0.159970172177
148      -0.692558227595
149      -0.000025316387
150       0.000016854913
151       0.224403257310
152      -0.032402238280
153      -0.000053425729
154       0.000061897269
155      -0.116318038561
156       0.245103089338
 Sym=     1a
 Ene= 3.11563077942774E+00
 Spin= Alpha
 Occup= 0.000000
  1       0.006455943031
  2       0.009570200948
  3      -0.067744097139
  4      -0.004571014601
  5       0.022587303577
  6      -0.064075272775
  7       0.140798511398
  8      -0.017413056243
  9      -0.050300767647
 10       0.242277773823
 11       0.534674496539
 12      -0.072587002750
 13       0.011559162614
 14       0.180998847356
 15      -0.094853890050
 16       0.048031340068
 17       0.118055358426
 18      -0.017170766895
 19       0.101188261491
 20      -0.019184209714
 21      -0.074455938078
 22       0.059392620782
 23       0.006455956122
 24       0.009570136157
 25       0.067745170709
 26       0.004569686076
 27       0.022585859450
 28      -0.064070583867
 29      -0.140797550034
 30       0.017415486752
 31      -0.050298516535
 32       0.242239144037
 33      -0.534671569119
 34       0.072600412267
 35       0.011544571387
 36       0.180922109992
 37       0.094851657497
 38      -0.048013980658
 39       0.118049566233
 40      -0.017170127315
 41      -0.101188314252
 42       0.019186947699
 43      -0.074457544675
 44       0.059393451598
 45       0.162601419306
 46      -0.346408761226
 47       0.103300414409
 48      -0.010110593538
 49       0.027904755073
 50      -0.030530323570
 51      -0.066437399775
 52       0.314326852568
 53       0.082321282494
 54      -0.005243435652
 55       0.074536998645
 56       0.074282273319
 57      -0.066429880939
 58       0.314318617462
 59       0.082331543826
 60       0.005242864191
 61      -0.074536959538
 62       0.074280908510
 63       0.162601221192
 64      -0.346404037553
 65       0.103298191985
 66       0.010111328309
 67      -0.027906669146
 68      -0.030528151717
 69      -0.030128638422
 70      -0.042077439610
 71      -0.000000722257
 72       0.000000138133
 73      -0.704662848363
 74       0.110398273132
 75       0.000001430787
 76      -0.000001321772
 77       1.103827910104
 78       1.285296437767
 79      -0.000000721654
 80      -0.000002739831
 81      -2.301015815194
 82      -0.390204527972
 83       0.000001612622
 84       0.000002286292
 85      -0.132385522304
 86       0.398309562025
 87       0.000000425744
 88       0.000000262726
 89       0.041526473024
 90      -0.395573528271
 91      -0.009770881981
 92      -0.019907103661
 93      -0.001170165956
 94      -0.005984899974
 95       0.022100338963
 96       0.197479611456
 97      -0.016410349780
 98      -0.077607245376
 99       0.046966327136
100      -0.780573619926
101       0.151891322437
102       0.454873736264
103      -0.093163926823
104      -1.219744993925
105      -0.162857376468
106       0.319438742301
107       0.201695401735
108      -0.022090114378
109       0.071259787158
110       0.198328241946
111       0.436462532151
112      -0.244059739768
113      -0.009770977227
114      -0.019907303677
115       0.001169962724
116       0.005985074942
117       0.022099963854
118       0.197481970626
119       0.016410423031
120       0.077607703162
121       0.046966574874
122      -0.780586576484
123      -0.151890058236
124      -0.454878931827
125      -0.093162357975
126      -1.219765225188
127       0.162858314848
128      -0.319442080288
129       0.201697888010
130      -0.022089851507
131      -0.071259604464
132      -0.198325621761
133       0.436465472070
134      -0.244058190365
135       0.024442079625
136       0.053064548891
137       0.000000018939
138      -0.000000161396
139       0.054391960273
140      -0.463885444487
141       0.000000232487
142      -0.000000116061
143       0.367714613057
144       0.391511380959
145      -0.000000230944
146       0.000001108342
147      -0.092550915709
148       1.474138149472
149      -0.000000839041
150      -0.000000638519
151      -0.431704266655
152      -0.001999353384
153       0.000000828298
154      -0.000001307340
155      -0.116457251328
156       0.303665040576
 Sym=     1a
 Ene= 3.18429940562568E+00
 Spin= Alpha
 Occup= 0.000000
  1       0.001109114292
  2       0.001999590469
  3       0.089344445095
  4      -0.018479804042
  5      -0.031356431006
  6      -0.041492159726
  7      -0.174296344807
  8      -0.008128832009
  9       0.055875926860
 10       0.311224762816
 11       0.005955941000
 12       0.161622532402
 13       0.036213041366
 14       2.265715500951
 15      -0.005286016430
 16       0.564427849418
 17       0.092397821221
 18       0.019117514550
 19      -0.033670604634
 20       0.107628756175
 21       0.092900924064
 22       0.039714646035
 23      -0.001109350837
 24      -0.002000075228
 25       0.089347851576
 26      -0.018482982112
 27       0.031357166940
 28       0.041495138821
 29      -0.174300023255
 30      -0.008122610687
 31      -0.055878972515
 32      -0.311222986159
 33       0.005982469200
 34       0.161618730425
 35      -0.036208595352
 36      -2.265726525677
 37      -0.005286869324
 38       0.564428700660
 39      -0.092401957343
 40      -0.019116468434
 41      -0.033664371708
 42       0.107627533739
 43      -0.092901802430
 44      -0.039710948718
 45      -0.047081600067
 46       0.099427472691
 47      -0.113052976181
 48      -0.001066541656
 49      -0.013629523401
 50       0.022175416600
 51      -0.097253015461
 52       0.021065131358
 53      -0.183473240787
 54      -0.026874817517
 55      -0.053020589428
 56      -0.020413430638
 57       0.097260759470
 58      -0.021086284696
 59       0.183475061078
 60      -0.026872387492
 61      -0.053020986343
 62       0.020407628207
 63       0.047076083109
 64      -0.099420006020
 65       0.113057864926
 66      -0.001069549876
 67      -0.013627480213
 68      -0.022174336961
 69       0.000000136262
 70       0.000000171845
 71       0.676967222165
 72       0.215747930108
 73       0.000003202863
 74       0.000000520859
 75      -1.027149172923
 76      -0.393292159281
 77      -0.000005284588
 78      -0.000003826303
 79       0.582820763057
 80      -0.155316861448
 81       0.000023274882
 82       0.000008529401
 83       0.189137043071
 84       0.101685738994
 85      -0.000000634365
 86      -0.000002693428
 87       0.201391354526
 88       0.056764948915
 89       0.000002459799
 90      -0.000001141385
 91       0.002026518034
 92       0.004258268584
 93      -0.015542135871
 94       0.003978287824
 95       0.010541669312
 96      -0.051722493958
 97      -0.037489793825
 98       0.003624465494
 99      -0.008940940943
100       0.182906759379
101       0.276819021731
102      -0.099757239300
103       0.098896520066
104       0.401188533172
105      -0.226826958769
106      -0.135247795018
107       0.034799299334
108      -0.058255616661
109       0.213849330626
110       0.105229129929
111       0.232156105826
112      -0.533356898900
113      -0.002026424058
114      -0.004258071091
115      -0.015542314890
116       0.003978219737
117      -0.010541873962
118       0.051720145567
119      -0.037489942378
120       0.003623747886
121       0.008940476504
122      -0.182893095065
123       0.276820974883
124      -0.099750280104
125      -0.098896995667
126      -0.401173891741
127      -0.226825431672
128      -0.135245671725
129      -0.034803885618
130       0.058256512056
131       0.213839535018
132       0.105226174485
133      -0.232158623919
134       0.533354349691
135      -0.000000186510
136      -0.000000399456
137      -0.019866616475
138      -0.016774757869
139      -0.000000400405
140       0.000003822872
141       0.002639566556
142      -0.001299226751
143      -0.000002120375
144      -0.000008777393
145       0.057969315730
146       0.106926840414
147       0.000002621994
148      -0.000013538068
149      -0.187093879521
150      -0.086765752635
151       0.000003954390
152       0.000000266026
153      -0.144072172071
154      -0.132117430615
155      -0.000001775572
156       0.000001479491
 Sym=     1a
 Ene= 3.23610605977511E+00
 Spin= Alpha
 Occup= 0.000000
  1      -0.018494472570
  2      -0.035922558468
  3      -0.040988231972
  4       0.252814215136
  5       0.047394706261
  6       0.192978023029
  7       0.052254889188
  8      -0.473748428981
  9      -0.201708917097
 10       0.367816909783
 11      -1.179323435959
 12       0.231320871901
 13       0.315168386092
 14      -0.539154851255
 15       0.041354629734
 16      -0.051713306904
 17      -0.170456775920
 18       0.033255120547
 19      -0.377537497904
 20       0.049932632786
 21       0.021599511765
 22      -0.022248943986
 23      -0.018494923458
 24      -0.035923457471
 25       0.040992168058
 26      -0.252807914359
 27       0.047397470702
 28       0.192967087072
 29      -0.052265642722
 30       0.473745199096
 31      -0.201719825277
 32       0.368024872466
 33       1.179326540843
 34      -0.231377031923
 35       0.315222493501
 36      -0.539084587006
 37      -0.041353735239
 38       0.051699020921
 39      -0.170445878608
 40       0.033255742151
 41       0.377546621386
 42      -0.049941721728
 43       0.021603633188
 44      -0.022253133745
 45      -0.320454488190
 46       0.220569225193
 47       0.210167266835
 48       0.246229869776
 49      -0.121831152539
 50      -0.039591952109
 51       0.343989267850
 52      -1.066552462772
 53       0.095811948227
 54      -0.140852991935
 55      -0.047118311580
 56      -0.236964418118
 57       0.343992394925
 58      -1.066581082757
 59       0.095807358735
 60       0.140858340310
 61       0.047122927646
 62      -0.236967773083
 63      -0.320457257707
 64       0.220533949905
 65       0.210180483482
 66      -0.246238976883
 67       0.121843151314
 68      -0.039607479536
 69       0.006714433150
 70       0.007919458718
 71      -0.000003869881
 72      -0.000001973820
 73       0.183451540903
 74       0.077925244064
 75       0.000005681245
 76       0.000005346965
 77      -0.340202073297
 78      -0.283026532809
 79      -0.000005688458
 80      -0.000001659012
 81       1.777008125420
 82       0.917292026376
 83      -0.000003603467
 84      -0.000002930479
 85      -0.132031167292
 86      -0.090080286842
 87      -0.000002072065
 88      -0.000001659749
 89       0.220100512503
 90      -0.122344023400
 91      -0.000122317891
 92       0.000074257030
 93       0.003982637132
 94      -0.008261520809
 95      -0.004163203919
 96      -0.018260663682
 97       0.023981215223
 98       0.015942010407
 99      -0.027748326337
100       0.357944713306
101      -0.168655385093
102      -0.214993643000
103       0.110418187824
104       0.411435438944
105      -0.035124522623
106      -0.039638329971
107      -0.242260327357
108       0.080524231441
109       0.591790625120
110       0.113747277134
111      -0.080853211521
112      -0.069961608579
113      -0.000122039816
114       0.000074889357
115      -0.003982232181
116       0.008262025905
117      -0.004162943082
118      -0.018269737701
119      -0.023980764219
120      -0.015942649335
121      -0.027747234049
122       0.357999352968
123       0.168645225005
124       0.215006025702
125       0.110397655265
126       0.411478498282
127       0.035125446547
128       0.039643462979
129      -0.242270615300
130       0.080528653562
131      -0.591790764987
132      -0.113751739161
133      -0.080852638747
134      -0.069977758159
135      -0.010099964806
136      -0.021471562687
137      -0.000000142731
138       0.000000017955
139      -0.021495848502
140       0.212438117961
141      -0.000000086291
142       0.000000078895
143      -0.096057593333
144      -0.671518734944
145       0.000001201150
146      -0.000000371713
147       0.171683368360
148      -0.942658274717
149       0.000003020301
150       0.000001123724
151       0.265809172400
152       0.043213811001
153      -0.000001554738
154       0.000000162384
155      -0.139869117370
156       0.137782851415
 Sym=     1a
 Ene= 3.39852455647704E+00
 Spin= Alpha
 Occup= 0.000000
  1       0.000586343592
  2       0.002789842964
  3      -0.009595477321
  4      -0.031767568970
  5       0.016990613101
  6       0.027971230010
  7       0.096998565931
  8       0.115181030653
  9       0.000733081819
 10      -0.733141337851
 11       0.056441492549
 12      -0.161361070868
 13      -0.158857152393
 14      -0.275838355524
 15       0.033147807282
 16      -0.049601985528
 17      -0.084090621870
 18       0.033478938528
 19      -0.063526591259
 20      -0.022470606748
 21      -0.072632042185
 22      -0.051335074201
 23      -0.000586428532
 24      -0.002790036172
 25      -0.009595221190
 26      -0.031769421676
 27      -0.016989555400
 28      -0.027970536740
 29       0.096999245414
 30       0.115184483250
 31      -0.000735509514
 32       0.733141532917
 33       0.056464294208
 34      -0.161364704620
 35       0.158863007676
 36       0.275836934308
 37       0.033148598385
 38      -0.049602847292
 39       0.084090719105
 40      -0.033479671904
 41      -0.063522011327
 42      -0.022470039270
 43       0.072633020456
 44       0.051333801628
 45      -0.031224442230
 46       0.075482913871
 47      -0.081617174617
 48       0.003607958754
 49      -0.014283375616
 50       0.014978329678
 51       0.001361165580
 52       0.284875411270
 53       0.002729147246
 54       0.117651060290
 55       0.058395554238
 56       0.050026539381
 57      -0.001356940002
 58      -0.284890154464
 59      -0.002730786873
 60       0.117652882262
 61       0.058395610726
 62      -0.050027844526
 63       0.031220850287
 64      -0.075476306864
 65       0.081621921127
 66       0.003605831983
 67      -0.014282605463
 68      -0.014978330980
 69      -0.000000026775
 70      -0.000000066905
 71      -0.258606958628
 72      -0.061706006372
 73      -0.000000126384
 74       0.000001688833
 75       0.545711295180
 76       0.125460971731
 77       0.000000232909
 78      -0.000001853812
 79      -0.220151167120
 80      -0.130848296612
 81       0.000012856925
 82       0.000000525847
 83      -0.135785442480
 84      -0.074702957888
 85       0.000001405337
 86      -0.000001593426
 87       0.637798058619
 88       0.147368730949
 89       0.000000805100
 90      -0.000000080946
 91      -0.000749477872
 92      -0.001688724879
 93       0.019011700924
 94       0.006336296654
 95      -0.002379564468
 96       0.024312315487
 97      -0.015730278373
 98      -0.003604530911
 99      -0.008736428854
100      -0.135059982975
101       0.047544303254
102       0.030817326872
103       0.117201488515
104      -0.148011852042
105       0.010287402189
106       0.017400220727
107       0.052032862442
108      -0.010347310849
109      -0.015651753351
110      -0.008853243992
111       0.100178163979
112      -0.194363186341
113       0.000749476540
114       0.001688732682
115       0.019011962714
116       0.006336590112
117       0.002379392365
118      -0.024312921333
119      -0.015730690461
120      -0.003604714789
121       0.008736589956
122       0.135066183402
123       0.047546315203
124       0.030820901106
125      -0.117203229647
126       0.148019743933
127       0.010287589949
128       0.017400935398
129      -0.052036009865
130       0.010348077959
131      -0.015655113137
132      -0.008855997484
133      -0.100180194646
134       0.194363234728
135      -0.000000067730
136      -0.000000138824
137      -0.036087118890
138      -0.007932643512
139      -0.000000127863
140       0.000001562912
141       0.018149555442
142       0.004007387734
143      -0.000000312019
144      -0.000006796792
145      -0.421688573420
146      -0.087198667619
147       0.000002674811
148      -0.000005807586
149       0.273004721132
150       0.077037494265
151       0.000000911244
152      -0.000001143348
153       1.006745740961
154       0.229900993307
155       0.000000461819
156       0.000000178955
 Sym=     1a
 Ene= 3.48303886105133E+00
 Spin= Alpha
 Occup= 0.000000
  1      -0.010374520771
  2      -0.019762886871
  3       0.109411485406
  4       0.223276159204
  5       0.139154375111
  6       0.101996260777
  7      -0.313528504595
  8      -0.390044992814
  9      -0.444699668362
 10      -0.076362952320
 11      -0.185887654471
 12       0.146292915636
 13       0.100606598020
 14      -0.069175487483
 15      -0.027100101163
 16      -0.004389575395
 17       0.008011742995
 18      -0.217042290198
 19       0.047759197323
 20      -0.005560656520
 21       0.066625739665
 22      -0.061422491736
 23      -0.010374406267
 24      -0.019762710310
 25      -0.109394075591
 26      -0.223278758585
 27       0.139158659888
 28       0.101997292102
 29       0.313480248681
 30       0.390048930387
 31      -0.444709440101
 32      -0.076384247721
 33       0.185894076126
 34      -0.146289516064
 35       0.100609089613
 36      -0.069174353864
 37       0.027102863468
 38       0.004388357473
 39       0.008011799874
 40      -0.217036367862
 41      -0.047746008722
 42       0.005558847974
 43       0.066622937771
 44      -0.061439272256
 45       0.013297908119
 46      -0.151671376011
 47       0.220000169265
 48       0.080622157405
 49       0.025007925266
 50      -0.125234832842
 51      -0.020561171494
 52      -0.472346437469
 53       0.196462560116
 54      -0.230581612045
 55      -0.108398136459
 56      -0.079835098254
 57      -0.020551803645
 58      -0.472323367029
 59       0.196453325796
 60       0.230566749792
 61       0.108387857150
 62      -0.079825489249
 63       0.013287159825
 64      -0.151686719236
 65       0.220009731856
 66      -0.080633281852
 67      -0.025000972132
 68      -0.125245979398
 69      -0.016596396651
 70      -0.032600376112
 71      -0.000000550865
 72       0.000001490066
 73      -0.159868522564
 74       0.377029522386
 75       0.000001311948
 76      -0.000003673188
 77       0.635546934582
 78       0.526816632355
 79       0.000003341758
 80      -0.000005164552
 81       2.008259516432
 82      -0.265199058764
 83       0.000000247847
 84       0.000000562614
 85       0.340016021279
 86      -0.396781919536
 87      -0.000000648956
 88      -0.000000483030
 89      -0.239818787459
 90      -0.137364859284
 91       0.003905389025
 92       0.009211047180
 93       0.003667181116
 94       0.000106962784
 95      -0.058440225623
 96      -0.147238427023
 97      -0.013761662140
 98       0.060881833400
 99       0.059625613016
100       0.641150601473
101       0.157976523871
102      -0.572989357299
103      -0.504371409637
104       0.730432373330
105      -0.019668791950
106      -0.061987712160
107       0.132081087500
108      -0.314842922566
109      -0.156115043014
110       0.462704723414
111      -0.302896098428
112      -0.202686451533
113       0.003905265024
114       0.009210791327
115      -0.003667528121
116      -0.000106762480
117      -0.058440489777
118      -0.147235462555
119       0.013760974011
120      -0.060881508527
121       0.059625867504
122       0.641141723671
123      -0.157973730285
124       0.572984108840
125      -0.504375021673
126       0.730420608442
127       0.019666620336
128       0.061984559304
129       0.132084113407
130      -0.314842756164
131       0.156111939413
132      -0.462703691569
133      -0.302895038349
134      -0.202689561580
135      -0.021118917515
136      -0.044011820275
137       0.000000113195
138      -0.000000062924
139      -0.027948710188
140       0.517765484451
141      -0.000000132405
142      -0.000000020611
143      -0.122173177776
144      -1.837349074948
145       0.000000100640
146       0.000001979808
147       0.974252147026
148      -1.270672395297
149       0.000000274923
150      -0.000000228526
151       0.182417461930
152      -0.297960108894
153      -0.000000261366
154      -0.000002471379
155       0.096896466939
156       0.058403638431
 Sym=     1a
 Ene= 3.55763389664890E+00
 Spin= Alpha
 Occup= 0.000000
  1      -0.004775857647
  2      -0.007373234684
  3       0.190385357624
  4      -0.159205256386
  5       0.125228902351
  6      -0.038653739357
  7      -0.549966294247
  8       0.359957814538
  9      -0.246395799653
 10       0.389841834022
 11       0.061051494827
 12       0.102663076716
 13       0.082128907958
 14       0.659849175173
 15       0.054152266759
 16       0.025827324843
 17       0.271374750279
 18      -0.223215736103
 19       0.106726074479
 20      -0.109607181968
 21      -0.060930103062
 22       0.176153967826
 23       0.004775870523
 24       0.007373333174
 25       0.190379722470
 26      -0.159204347693
 27      -0.125231385118
 28       0.038653001684
 29      -0.549952152295
 30       0.359957276592
 31       0.246402374280
 32      -0.389837086619
 33       0.061046063781
 34       0.102664140124
 35      -0.082128657463
 36      -0.659854054138
 37       0.054147160232
 38       0.025827059455
 39      -0.271376471384
 40       0.223220010040
 41       0.106719361552
 42      -0.109607227598
 43       0.060927354382
 44      -0.176149689552
 45       0.147175400912
 46       0.115671739033
 47       0.007222364792
 48      -0.129301902467
 49       0.025107575361
 50       0.094630037402
 51      -0.075582780563
 52      -0.303694508853
 53       0.167271925507
 54      -0.180756043576
 55      -0.132149769311
 56      -0.079664881050
 57       0.075581434363
 58       0.303692006048
 59      -0.167268531340
 60      -0.180755712398
 61      -0.132146731667
 62       0.079662138345
 63      -0.147171921670
 64      -0.115665150990
 65      -0.007227210493
 66      -0.129296392162
 67       0.025105592778
 68      -0.094626871998
 69       0.000000139287
 70       0.000000240178
 71      -0.110752673068
 72       0.352125431815
 73       0.000001711937
 74      -0.000002417819
 75       0.232977064412
 76      -0.775394104495
 77      -0.000005394904
 78      -0.000000917024
 79       0.107224765353
 80      -0.406155912858
 81      -0.000008738750
 82       0.000007987530
 83      -0.083196100566
 84       0.519921248272
 85      -0.000004426254
 86       0.000001043859
 87       0.129934259677
 88      -0.578043501709
 89       0.000001146037
 90       0.000000547619
 91       0.010649537412
 92       0.019371362356
 93      -0.012746937577
 94       0.059794607996
 95       0.037759220642
 96      -0.138776237089
 97      -0.006232716068
 98      -0.004743926919
 99      -0.079333174034
100       0.217855341233
101      -0.007518972751
102      -0.010471246129
103       0.570021701468
104       0.402572117568
105       0.047834428430
106      -0.144577668165
107      -0.394623940581
108       0.092771229736
109       0.041893137864
110      -0.175573332713
111       0.132652868619
112       0.121203012862
113      -0.010649599920
114      -0.019371509610
115      -0.012747316676
116       0.059794273306
117      -0.037758810926
118       0.138778756896
119      -0.006232751666
120      -0.004743311452
121       0.079332412950
122      -0.217865051289
123      -0.007517564171
124      -0.010477875918
125      -0.570013422637
126      -0.402583367295
127       0.047834335019
128      -0.144578585333
129       0.394622519857
130      -0.092770617306
131       0.041892211450
132      -0.175566539032
133      -0.132649632942
134      -0.121201682389
135       0.000000069315
136       0.000000144164
137      -0.013730766627
138       0.051126628703
139       0.000000015999
140      -0.000001958865
141       0.012015394655
142      -0.045164632629
143       0.000000159919
144       0.000009302657
145      -0.149592838766
146       0.602709823769
147      -0.000004922729
148       0.000004005936
149       0.044866514600
150      -0.274638295969
151       0.000000496943
152       0.000001306572
153       0.232837469416
154      -0.923459255555
155      -0.000000372502
156      -0.000000957595
 Sym=     1a
 Ene= 3.65043624628481E+00
 Spin= Alpha
 Occup= 0.000000
  1      -0.000529045103
  2      -0.000246427452
  3       0.714376438056
  4       0.006564287096
  5      -0.256863279855
  6      -0.030306658457
  7      -2.142724892703
  8      -0.004024685839
  9       0.672875304520
 10       0.491447143351
 11       0.185681543663
 12       0.097695596571
 13       0.064979667314
 14      -0.269464202173
 15       0.133742208673
 16      -0.064076555428
 17      -0.103927731529
 18      -0.199995559360
 19       0.551203797489
 20      -0.142397873055
 21       0.170754538678
 22       0.783050067849
 23       0.000529432177
 24       0.000247394886
 25       0.714375657300
 26       0.006568184787
 27       0.256858579560
 28       0.030300453377
 29      -2.142722590791
 30      -0.004029534020
 31      -0.672862558257
 32      -0.491440923966
 33       0.185662043520
 34       0.097702280664
 35      -0.064981580666
 36       0.269481466888
 37       0.133739107265
 38      -0.064081072574
 39       0.103933868750
 40       0.200013851210
 41       0.551187464050
 42      -0.142402149002
 43      -0.170772142433
 44      -0.783043787239
 45       0.431406271703
 46       0.959915322820
 47      -0.417670679482
 48      -0.568888118196
 49       0.351426990591
 50       0.524759886605
 51      -0.414866368004
 52      -1.025589873649
 53       0.409082560471
 54      -0.726761638767
 55      -0.324400058930
 56      -0.320428222238
 57       0.414866043644
 58       1.025610816959
 59      -0.409088952698
 60      -0.726773833206
 61      -0.324399578423
 62       0.320423620187
 63      -0.431399004427
 64      -0.959905406623
 65       0.417657369679
 66      -0.568871799414
 67       0.351425406100
 68      -0.524756846820
 69       0.000000266178
 70       0.000000488497
 71      -0.025948441993
 72       0.036987473063
 73       0.000003789457
 74      -0.000006255319
 75       0.037152888364
 76      -0.117509619027
 77      -0.000012756744
 78       0.000001919951
 79       0.026156116442
 80      -0.076870318495
 81      -0.000036947414
 82      -0.000002912554
 83       0.041421311791
 84      -0.126000384247
 85      -0.000004038430
 86       0.000002694736
 87      -0.037319898447
 88       0.236075718753
 89       0.000001390211
 90       0.000001774221
 91      -0.000989777693
 92      -0.000408694239
 93       0.044648082504
 94      -0.037912560454
 95       0.012219596818
 96      -0.060183331291
 97      -0.059752647532
 98       0.010871075257
 99       0.011469085947
100       0.392718270428
101       0.276660200709
102      -0.202742874872
103      -0.075536738150
104       0.086444836972
105      -0.174510166590
106       0.038970564473
107      -0.015676833173
108      -0.074148833038
109      -0.249456470698
110      -0.030009548446
111      -0.039057543421
112      -0.051107058196
113       0.000989555426
114       0.000408207818
115       0.044647050302
116      -0.037914526757
117      -0.012220422012
118       0.060191573623
119      -0.059752200229
120       0.010873212408
121      -0.011469840693
122      -0.392753139780
123       0.276666988763
124      -0.202764174761
125       0.075555952652
126      -0.086484899637
127      -0.174511926480
128       0.038965173191
129       0.015676424006
130       0.074150140784
131      -0.249458115014
132      -0.029997233652
133       0.039065069919
134       0.051112078332
135       0.000000174055
136       0.000000355957
137       0.005883731043
138      -0.028180453961
139      -0.000000163793
140      -0.000005047756
141      -0.001672153567
142       0.016652157991
143       0.000000215600
144       0.000028149905
145       0.005050736576
146      -0.092995195903
147      -0.000013901934
148       0.000021870094
149       0.003179734942
150       0.100916404841
151      -0.000003564681
152       0.000004134444
153      -0.020570139824
154       0.189429765056
155      -0.000000428583
156      -0.000000493773
 Sym=     1a
 Ene= 3.68332124236921E+00
 Spin= Alpha
 Occup= 0.000000
  1       0.000944716272
  2       0.003203138174
  3      -0.025804800438
  4       0.018820905264
  5       0.084629581527
  6       0.054608359039
  7       0.043514277884
  8      -0.007414313648
  9      -0.215184101971
 10      -0.731751503804
 11       0.086503945702
 12      -0.077871623195
 13      -0.317529295564
 14      -0.100722593174
 15      -0.062264284323
 16       0.033220451102
 17      -0.053870536474
 18      -0.084679048417
 19       0.001971449558
 20      -0.029773171578
 21      -0.018462849846
 22       0.001101122515
 23       0.000944664634
 24       0.003203031810
 25       0.025806079155
 26      -0.018820126085
 27       0.084629849720
 28       0.054610014208
 29      -0.043518686327
 30       0.007412750597
 31      -0.215185483137
 32      -0.731758207835
 33      -0.086509101694
 34       0.077876106610
 35      -0.317535677244
 36      -0.100706916611
 37       0.062264053485
 38      -0.033225059081
 39      -0.053869929331
 40      -0.084678885024
 41      -0.001971112518
 42       0.029773473195
 43      -0.018464317284
 44       0.001100080240
 45      -0.044721361634
 46       0.058185177849
 47      -0.135053275476
 48       0.005850716875
 49       0.016028185029
 50       0.019737612996
 51      -0.043017546011
 52       0.182111098489
 53      -0.115791802898
 54      -0.000601762641
 55       0.048003662169
 56       0.024695120129
 57      -0.043015497129
 58       0.182114132364
 59      -0.115792573191
 60       0.000600257455
 61      -0.048005068016
 62       0.024694754667
 63      -0.044720209787
 64       0.058178352405
 65      -0.135054353072
 66      -0.005852054723
 67      -0.016026893698
 68       0.019736709779
 69       0.067925777547
 70       0.108968492672
 71      -0.000000751041
 72       0.000000450219
 73      -0.693857643794
 74      -0.832110324657
 75       0.000001300341
 76      -0.000000867842
 77       0.958893369114
 78      -4.200261390817
 79      -0.000000551547
 80       0.000000525227
 81      -1.121681449825
 82      -0.341178008992
 83      -0.000000029405
 84      -0.000000224029
 85      -0.234501096963
 86      -0.341608954290
 87      -0.000001032718
 88       0.000000339602
 89       0.299408781221
 90       0.157561531121
 91       0.003662998719
 92       0.011316604006
 93       0.030309941371
 94      -0.103637808225
 95       0.025834274599
 96      -0.288094858891
 97      -0.027690432008
 98       0.076825617249
 99       0.006654962106
100       1.385474742495
101       0.303764295190
102      -0.867607869050
103       0.222336097601
104       0.611214847836
105       0.005808909839
106       0.021077004328
107      -0.262190691631
108      -0.038374390801
109       0.003384330584
110      -0.235874668789
111      -0.384799575089
112      -0.251871932404
113       0.003662987444
114       0.011316573404
115      -0.030309863789
116       0.103637458466
117       0.025834083989
118      -0.288094194862
119       0.027690463567
120      -0.076825412929
121       0.006654947630
122       1.385470672110
123      -0.303764044150
124       0.867606145401
125       0.222337925522
126       0.611216147965
127      -0.005809629108
128      -0.021076516582
129      -0.262191085563
130      -0.038374535261
131      -0.003383066079
132       0.235875382962
133      -0.384798698858
134      -0.251871529804
135       0.012087253939
136       0.028559111751
137      -0.000000036457
138       0.000000016661
139      -0.112194476332
140      -0.399717918362
141       0.000000133437
142      -0.000000024155
143       0.218792371716
144       1.722070419160
145      -0.000000720696
146       0.000000063192
147      -1.160085960987
148       2.040466299658
149      -0.000000408220
150       0.000000117956
151      -0.481410110043
152       0.727512936658
153       0.000000654424
154      -0.000000021616
155      -0.043471136229
156      -0.026613347560
 Sym=     1a
 Ene= 3.87964925702406E+00
 Spin= Alpha
 Occup= 0.000000
  1       0.001650417399
  2      -0.002296387017
  3       0.815961846350
  4      -0.008789055548
  5       0.009752666678
  6       0.030624265552
  7      -2.407264642237
  8       0.005523128169
  9       0.085891766431
 10      -0.158899593913
 11      -0.087474850420
 12       0.046084673002
 13      -0.030783109732
 14      -0.371613722324
 15       0.340451520092
 16      -0.094030267376
 17      -0.121021127004
 18      -0.337321565500
 19       0.627940252624
 20      -0.062333274572
 21       0.189981180992
 22       0.584269779387
 23       0.001650201843
 24      -0.002296912665
 25      -0.815966034788
 26       0.008794678465
 27       0.009757803935
 28       0.030623384678
 29       2.407278760158
 30      -0.005534017747
 31       0.085882044907
 32      -0.158850869850
 33       0.087473572828
 34      -0.046091164474
 35      -0.030765829167
 36      -0.371627654961
 37      -0.340452951938
 38       0.094030712184
 39      -0.121031163791
 40      -0.337344226521
 41      -0.627932679367
 42       0.062342438891
 43       0.190000701530
 44       0.584272021499
 45       0.375518457857
 46       1.021647237277
 47      -0.251689368148
 48      -0.472586229128
 49       0.381866320813
 50       0.521310071875
 51      -0.403279704490
 52      -1.258861849003
 53       0.558593375419
 54      -0.811444764265
 55      -0.434625153743
 56      -0.248900825051
 57      -0.403283843347
 58      -1.258886251948
 59       0.558601604969
 60       0.811461917571
 61       0.434627495603
 62      -0.248897057597
 63       0.375516282889
 64       1.021641467315
 65      -0.251688591644
 66       0.472578138494
 67      -0.381866194320
 68       0.521311717983
 69       0.006694997596
 70       0.017067612459
 71      -0.000000843604
 72       0.000006930417
 73       0.199200059715
 74      -0.121300124592
 75       0.000003048852
 76      -0.000017949854
 77      -0.691246901055
 78      -0.344833088359
 79       0.000001162111
 80      -0.000001797097
 81       0.406456214992
 82       0.616807889737
 83      -0.000000436946
 84      -0.000000327384
 85      -0.342109423939
 86      -0.155868175870
 87      -0.000001363470
 88       0.000008418640
 89      -0.014236779064
 90      -0.021854923655
 91       0.001332150140
 92       0.003388488263
 93      -0.016582382945
 94       0.008516343820
 95      -0.071113965786
 96      -0.060234579151
 97       0.039917324311
 98       0.003295094312
 99       0.046227344907
100       0.285779734900
101      -0.157075366797
102       0.015263198984
103      -0.374838047577
104       0.242365709697
105       0.148802484327
106      -0.144402053433
107       0.225722204440
108       0.238640652866
109       0.100203542679
110       0.141104757801
111       0.014347851521
112      -0.001842108240
113       0.001332285660
114       0.003388605471
115       0.016583249697
116      -0.008522703714
117      -0.071115370056
118      -0.060228422437
119      -0.039917341720
120      -0.003291614380
121       0.046227567864
122       0.285752110090
123       0.157079436631
124      -0.015289079797
125      -0.374842965285
126       0.242389151292
127      -0.148807766925
128       0.144419479617
129       0.225717605660
130       0.238633497590
131      -0.100199897473
132      -0.141107683077
133       0.014359473559
134      -0.001835368032
135      -0.003097991363
136      -0.006451782863
137       0.000000102370
138      -0.000000617823
139      -0.064799177959
140       0.005183708359
141      -0.000000217943
142       0.000000262061
143      -0.062627302369
144       0.473315080298
145      -0.000000597692
146       0.000000339353
147      -0.424802621566
148      -0.604811097725
149       0.000000704084
150       0.000000484202
151       0.419747979525
152       0.260696496369
153       0.000000252274
154       0.000001277248
155      -0.012469819423
156       0.000551404031
 Sym=     1a
 Ene= 3.92072686704527E+00
 Spin= Alpha
 Occup= 0.000000
  1       0.000373464658
  2       0.014514205627
  3       0.205508756578
  4      -0.017888134545
  5      -0.476472686717
  6      -0.173960944182
  7      -0.697266853536
  8       0.105188245883
  9       1.254148366015
 10       0.425316935188
 11       0.030314142427
 12      -0.054003605741
 13       0.082538778036
 14       0.180668594873
 15       0.093747535066
 16       0.104996553464
 17      -0.027910282488
 18       0.247324717738
 19       0.470424640324
 20      -0.355958711190
 21      -0.082356053647
 22       0.221968355015
 23       0.000373317901
 24       0.014513985757
 25      -0.205516103037
 26       0.017892961681
 27      -0.476474184027
 28      -0.173963089609
 29       0.697289606144
 30      -0.105199456292
 31       1.254153389804
 32       0.425351372398
 33      -0.030311335902
 34       0.053999902293
 35       0.082550671285
 36       0.180650798417
 37      -0.093747951881
 38      -0.104993166085
 39      -0.027914548407
 40       0.247313599190
 41      -0.470425963231
 42       0.355965808834
 43      -0.082350587779
 44       0.221977196180
 45       0.287670695897
 46       0.738516313420
 47      -0.477942391906
 48      -0.466289378764
 49       0.267713567721
 50       0.339121615012
 51      -0.046213402869
 52      -0.203388442739
 53      -0.066085446858
 54      -0.067529853622
 55      -0.073427106898
 56      -0.094407881376
 57      -0.046217056237
 58      -0.203409656639
 59      -0.066079714645
 60       0.067540815660
 61       0.073432610608
 62      -0.094412600930
 63       0.287675683573
 64       0.738523736331
 65      -0.477941344150
 66       0.466290540997
 67      -0.267719114344
 68       0.339130111591
 69      -0.005993944916
 70      -0.024793988847
 71      -0.000000810747
 72       0.000002742764
 73      -0.265412310110
 74       0.243317410052
 75       0.000002373791
 76      -0.000007324364
 77       0.999086614003
 78       0.504927822822
 79      -0.000000749836
 80      -0.000002489195
 81      -0.270828916855
 82      -0.015033745955
 83       0.000000847156
 84       0.000000294220
 85       0.324887122505
 86       0.297201580922
 87      -0.000000347223
 88       0.000003751939
 89       0.125740428873
 90       0.053141711180
 91      -0.000191367721
 92      -0.003619297392
 93      -0.038544635878
 94      -0.018842974875
 95       0.217871268689
 96       0.146541159339
 97       0.038075625975
 98       0.002112734610
 99      -0.138869575465
100      -0.701615236304
101      -0.172559421765
102       0.013853204898
103       0.965254594204
104      -0.323459993027
105       0.042888648547
106       0.206688820371
107      -0.579334007545
108      -0.462044156108
109       0.281558112906
110      -0.338177028822
111      -0.081463363023
112      -0.031726121157
113      -0.000191260975
114      -0.003619136186
115       0.038546998336
116       0.018840647590
117       0.217869831065
118       0.146542139267
119      -0.038076809010
120      -0.002111726867
121      -0.138868649379
122      -0.701621537312
123       0.172565186043
124      -0.013861324138
125       0.965247916705
126      -0.323449650499
127      -0.042891091345
128      -0.206682920123
129      -0.579338974526
130      -0.462043948789
131      -0.281561511428
132       0.338172784291
133      -0.081460451004
134      -0.031721212673
135       0.004272434777
136       0.008826495000
137      -0.000000085830
138      -0.000000473569
139       0.108619305849
140       0.010182539879
141       0.000000118817
142       0.000000183795
143       0.087896565117
144      -0.868936109968
145       0.000000812881
146       0.000000064310
147       0.734258140864
148       0.650066406287
149      -0.000000494134
150      -0.000000173378
151      -0.581037702311
152      -0.428396241079
153      -0.000000677383
154       0.000001092736
155      -0.004314501294
156       0.007699316952
 Sym=     1a
 Ene= 3.97725827798128E+00
 Spin= Alpha
 Occup= 0.000000
  1      -0.002409842447
  2       0.006287778644
  3      -0.154340866152
  4      -0.159437536128
  5      -0.428737437932
  6      -0.191405126710
  7       0.490350314868
  8       0.554300542641
  9       1.096085219218
 10       1.615713885351
 11       0.073309971354
 12       0.461912557731
 13       0.134131831763
 14      -0.830689349642
 15      -0.043926045838
 16      -0.410565622842
 17       0.120367050451
 18       0.273377768962
 19       0.081600545808
 20      -0.148017197382
 21      -0.308168215216
 22      -0.139290202518
 23       0.002409635231
 24      -0.006288261009
 25      -0.154322465009
 26      -0.159438338040
 27       0.428743443055
 28       0.191408363457
 29       0.490293654269
 30       0.554303469153
 31      -1.096104030681
 32      -1.615704864872
 33       0.073284909214
 34       0.461913826371
 35      -0.134131577647
 36       0.830695073617
 37      -0.043924085310
 38      -0.410567195849
 39      -0.120364758835
 40      -0.273376651191
 41       0.081622701570
 42      -0.148022767927
 43       0.308169601176
 44       0.139271512546
 45       0.168060596468
 46      -0.071952809749
 47      -0.048797361127
 48      -0.177974815551
 49       0.017934457286
 50      -0.000459727707
 51       0.151616510272
 52       0.440001941118
 53      -0.247826975999
 54       0.386894924355
 55       0.143316115438
 56       0.056204993266
 57      -0.151606343400
 58      -0.439973866386
 59       0.247826580027
 60       0.386880062807
 61       0.143305814318
 62      -0.056195619877
 63      -0.168072291881
 64       0.071907119662
 65       0.048802021999
 66      -0.177991879124
 67       0.017948598329
 68       0.000438492775
 69      -0.000000147759
 70      -0.000000335662
 71      -0.148159606869
 72       0.603200938441
 73      -0.000003705278
 74       0.000003054672
 75       0.391712847645
 76      -1.622665369897
 77       0.000013780237
 78       0.000001299547
 79       0.072834522778
 80      -0.100724738589
 81       0.000004152724
 82      -0.000007602623
 83       0.105155759529
 84      -0.062931434528
 85       0.000004926903
 86       0.000004296782
 87      -0.189064917378
 88       0.607667616358
 89       0.000001210468
 90       0.000001123078
 91      -0.003336011435
 92       0.002059579481
 93       0.079317560154
 94      -0.263251524820
 95      -0.044294550321
 96      -0.379002871156
 97      -0.043484780464
 98       0.164439206474
 99       0.082073212797
100       2.091835816286
101       0.362522686989
102      -1.159107249422
103      -0.220960549213
104      -0.494728304221
105      -0.178564427013
106       0.606525671166
107       0.029844346310
108       0.394504444415
109      -0.004847559468
110      -0.248672927184
111      -0.394587848093
112      -0.266930206854
113       0.003335940600
114      -0.002059658827
115       0.079319054425
116      -0.263249260239
117       0.044294386856
118       0.379001345032
119      -0.043485409957
120       0.164437865084
121      -0.082073032640
122      -2.091827601911
123       0.362517591133
124      -1.159097597292
125       0.220961178007
126       0.494727409107
127      -0.178563504866
128       0.606523908503
129      -0.029843048673
130      -0.394502458979
131      -0.004849451976
132      -0.248673361835
133       0.394584526830
134       0.266930213601
135       0.000000079500
136       0.000000160967
137       0.015863072892
138      -0.023686543656
139       0.000001505635
140      -0.000000347153
141      -0.004408559290
142      -0.012736998670
143       0.000001405375
144      -0.000013255408
145      -0.009004332576
146       0.117461874003
147       0.000009395769
148       0.000000836616
149      -0.057860587670
150       0.003717113708
151      -0.000003983199
152      -0.000004898288
153      -0.018398763450
154      -0.025472359466
155      -0.000000145179
156      -0.000000128400
 Sym=     1a
 Ene= 4.03907326016045E+00
 Spin= Alpha
 Occup= 0.000000
  1       0.002628268444
  2      -0.004868987561
  3       0.104537993580
  4       0.012899108892
  5       0.333747386592
  6       0.098576460578
  7      -0.303257149853
  8      -0.077862157532
  9      -0.845694248972
 10      -0.569198225445
 11      -0.263401894565
 12       0.089934664227
 13      -0.017050535233
 14       0.428780842345
 15      -0.093053721462
 16       0.149438327864
 17       0.153658753960
 18      -0.271244012162
 19      -0.079913777862
 20       0.183938101346
 21       0.105810613678
 22       0.077865682165
 23       0.002628158678
 24      -0.004869024408
 25      -0.104530470199
 26      -0.012891086790
 27       0.333745958127
 28       0.098573139155
 29       0.303233467992
 30       0.077839923292
 31      -0.845689999688
 32      -0.569170217670
 33       0.263398563061
 34      -0.089944120701
 35      -0.017043194389
 36       0.428798958169
 37       0.093055540074
 38      -0.149441007268
 39       0.153663257695
 40      -0.271243979506
 41       0.079917350639
 42      -0.183937721630
 43       0.105801791912
 44       0.077856458366
 45      -0.101563963775
 46       0.023423129993
 47       0.068884950243
 48       0.120603589085
 49      -0.039744670866
 50      -0.000610576027
 51      -0.093344152438
 52      -0.304901827563
 53       0.041558735243
 54      -0.222136062953
 55      -0.076786247666
 56      -0.014068084312
 57      -0.093337136165
 58      -0.304886630476
 59       0.041555005847
 60       0.222124889089
 61       0.076780383947
 62      -0.014062023288
 63      -0.101565436234
 64       0.023414034818
 65       0.068888680452
 66      -0.120604890509
 67       0.039748865851
 68      -0.000616013815
 69      -0.015818973530
 70      -0.044776348105
 71       0.000000185911
 72      -0.000001743768
 73      -0.571365246669
 74       0.491924164133
 75       0.000000197418
 76       0.000005362477
 77       2.357803500587
 78       0.352318122108
 79       0.000001034312
 80       0.000002799950
 81       1.894165920332
 82      -0.994446845749
 83       0.000000556644
 84      -0.000000548780
 85       0.860355798091
 86       0.807064012505
 87       0.000001745567
 88      -0.000003028773
 89       0.339492963433
 90       0.199935784190
 91      -0.002674427298
 92       0.001314659313
 93       0.071634610760
 94      -0.148526457861
 95      -0.008380023527
 96      -0.291881755895
 97      -0.040867234073
 98       0.076411959009
 99       0.041352719522
100       1.814864155795
101       0.299241266140
102      -0.927717153133
103      -0.274649854718
104       0.392699979365
105      -0.089382376502
106       0.123765678184
107      -0.268290541169
108       0.398758857166
109      -0.018694306629
110      -0.223246804658
111      -0.206336882780
112      -0.137878234336
113      -0.002674475676
114       0.001314623824
115      -0.071635782692
116       0.148528587411
117      -0.008379959058
118      -0.291883802020
119       0.040867864063
120      -0.076413495805
121       0.041352924784
122       1.814881532253
123      -0.299245732736
124       0.927726604179
125      -0.274647977550
126       0.392710018213
127       0.089381491794
128      -0.123767039379
129      -0.268293323344
130       0.398759434493
131       0.018697293990
132       0.223250101295
133      -0.206339542557
134      -0.137880863883
135       0.015354785464
136       0.030741681291
137       0.000000086747
138       0.000000218373
139       0.312923422881
140      -0.065908998152
141       0.000000215675
142      -0.000000101990
143       0.227895666808
144      -2.740618113446
145       0.000000890574
146      -0.000000932099
147       1.696689364892
148      -0.434405087636
149      -0.000000046555
150      -0.000000062556
151      -0.498318536615
152      -0.826145212551
153      -0.000000539561
154       0.000000133904
155      -0.080246215169
156      -0.047528098582
 Sym=     1a
 Ene= 4.07954533966290E+00
 Spin= Alpha
 Occup= 0.000000
  1      -0.003302975547
  2      -0.012959524625
  3       0.064256598253
  4      -0.239190647419
  5       0.383405822360
  6       0.050986193473
  7      -0.151981226566
  8       0.581389108151
  9      -0.936930689805
 10      -0.250675431378
 11       0.001454958483
 12       0.057561649108
 13      -0.087240119778
 14      -0.490904533937
 15       0.028215099073
 16      -0.303445700275
 17       0.336715757538
 18      -0.401838734257
 19      -0.133419693126
 20       0.095068569105
 21      -0.113282140252
 22       0.032285123459
 23       0.003302884093
 24       0.012959297190
 25       0.064256304935
 26      -0.239192148114
 27      -0.383403121551
 28      -0.050984858686
 29      -0.151981583379
 30       0.581393297575
 31       0.936922275674
 32       0.250675111786
 33       0.001473231666
 34       0.057559050836
 35       0.087243895432
 36       0.490896275432
 37       0.028216060853
 38      -0.303445431039
 39      -0.336717430143
 40       0.401837211116
 41      -0.133414854351
 42       0.095067812285
 43       0.113282898576
 44      -0.032284202533
 45      -0.000252514716
 46      -0.188240683734
 47       0.271337016502
 48       0.093170819382
 49      -0.110708243801
 50      -0.049891846102
 51      -0.031581494883
 52      -0.083295023011
 53       0.192447170221
 54      -0.078903228546
 55      -0.094899679732
 56       0.019773006622
 57       0.031582918287
 58       0.083285166039
 59      -0.192448414556
 60      -0.078902320982
 61      -0.094898659607
 62      -0.019775953791
 63       0.000250288342
 64       0.188240230172
 65      -0.271328033573
 66       0.093166229380
 67      -0.110706981759
 68       0.049890994251
 69      -0.000000064435
 70      -0.000000117752
 71      -0.088229268452
 72       0.280154629151
 73      -0.000000020619
 74       0.000001732287
 75       0.268433547876
 76      -0.854175794413
 77       0.000001328679
 78       0.000002142269
 79       0.178845700925
 80      -0.712911708632
 81       0.000013419852
 82       0.000006112940
 83      -0.039245772494
 84       0.228103176223
 85      -0.000001097648
 86       0.000001217543
 87      -0.150276795991
 88       0.538207778993
 89       0.000000303470
 90       0.000000940706
 91      -0.002754387402
 92      -0.006787497245
 93      -0.006081036293
 94      -0.101931856997
 95       0.321439228922
 96       0.086596815607
 97       0.021888658950
 98       0.036997065048
 99      -0.235321289965
100      -0.030588386552
101      -0.047199865051
102      -0.409616679568
103       1.323413917213
104       0.499553147201
105       0.062447094628
106       0.073141782951
107      -0.618075223877
108      -0.436670360181
109       0.257433521264
110      -0.497281724308
111      -0.194343252448
112      -0.054904193488
113       0.002754399283
114       0.006787541578
115      -0.006083571912
116      -0.101931810052
117      -0.321439526041
118      -0.086598523357
119       0.021890496285
120       0.036997041131
121       0.235321353055
122       0.030599570536
123      -0.047205513284
124      -0.409612958092
125      -1.323418089168
126      -0.499546449817
127       0.062450488854
128       0.073143101914
129       0.618074496517
130       0.436670947251
131       0.257438221789
132      -0.497281233812
133       0.194343997345
134       0.054902221308
135      -0.000000023725
136      -0.000000048132
137       0.017103637337
138      -0.089368225321
139       0.000000326916
140       0.000000921291
141      -0.013399978404
142       0.069691161946
143       0.000000075438
144      -0.000008546730
145       0.002671328699
146      -0.017530841412
147       0.000003698744
148      -0.000009181497
149      -0.065167731013
150       0.176952685538
151       0.000002775137
152      -0.000000904548
153      -0.048268574846
154       0.201146371807
155      -0.000000104751
156       0.000000035006
 Sym=     1a
 Ene= 4.19349842845203E+00
 Spin= Alpha
 Occup= 0.000000
  1       0.009642920045
  2      -0.001343475733
  3       0.017447856407
  4       0.925178071569
  5       0.141501422811
  6       0.289369396606
  7      -0.076283166755
  8      -2.549975708402
  9      -0.478482365473
 10      -0.724860661996
 11      -0.042736672596
 12       0.072190973906
 13      -0.016390006260
 14      -2.950086527723
 15      -0.010895247711
 16      -0.643089277549
 17      -0.178977073815
 18       0.298323865571
 19      -0.100739973965
 20       0.107726687734
 21       1.052982444823
 22       0.031395685020
 23      -0.009643054310
 24       0.001343275753
 25       0.017454383566
 26       0.925177379147
 27      -0.141500820603
 28      -0.289368184234
 29      -0.076304364531
 30      -2.549973941023
 31       0.478479322060
 32       0.724864496986
 33      -0.042742093385
 34       0.072190900217
 35       0.016390364937
 36       2.950068735741
 37      -0.010892802649
 38      -0.643085597144
 39       0.178972460651
 40      -0.298324145846
 41      -0.100742518200
 42       0.107723529004
 43      -1.052981934853
 44      -0.031400124177
 45      -0.236601709689
 46      -0.595554567138
 47       0.395846822224
 48       0.383709734636
 49      -0.101463422331
 50      -0.321619688220
 51      -0.246187876174
 52      -0.585721614306
 53       0.349553807247
 54      -0.483751771537
 55      -0.079094385200
 56      -0.122157376733
 57       0.246190404495
 58       0.585726724453
 59      -0.349550301705
 60      -0.483757398607
 61      -0.079091275815
 62       0.122153887474
 63       0.236599618659
 64       0.595544425923
 65      -0.395842351011
 66       0.383702473399
 67      -0.101465113614
 68       0.321617788552
 69      -0.000000021152
 70       0.000000065908
 71      -0.054195169466
 72       0.252954140865
 73       0.000002811998
 74      -0.000001430476
 75       0.135292265841
 76      -0.605953179935
 77      -0.000009207790
 78       0.000004905916
 79      -0.089816109282
 80       0.216972273095
 81      -0.000001346653
 82       0.000016077838
 83       0.023730839489
 84      -0.096779024690
 85      -0.000007931916
 86      -0.000002597595
 87      -0.022160932971
 88       0.246420334150
 89      -0.000001815535
 90      -0.000000568682
 91      -0.001019592397
 92      -0.000332214659
 93       0.046298535780
 94      -0.004174446184
 95       0.050599058394
 96      -0.093847670687
 97      -0.035943637832
 98      -0.062831411758
 99      -0.009691063668
100       0.495235998652
101       0.124788446448
102      -0.035952314094
103      -0.013353845143
104      -0.960626798927
105      -0.114914925950
106       0.171887201489
107       0.138881544843
108       0.168775167228
109       0.011607807380
110      -0.310549539783
111       0.017558465260
112      -0.035471778020
113       0.001019613579
114       0.000332229471
115       0.046294229868
116      -0.004176236637
117      -0.050599971314
118       0.093848983772
119      -0.035939171682
120      -0.062830212512
121       0.009691439655
122      -0.495245423126
123       0.124785016806
124      -0.035958134507
125       0.013350923176
126       0.960625085413
127      -0.114914604678
128       0.171888368479
129      -0.138877621898
130      -0.168777401628
131       0.011612573356
132      -0.310552651433
133      -0.017555809802
134       0.035469866036
135      -0.000000075536
136      -0.000000151004
137      -0.022617401591
138       0.002835025023
139      -0.000001146467
140       0.000000949659
141       0.021139450823
142      -0.011748473860
143      -0.000000860462
144       0.000005829488
145      -0.007368311473
146      -0.005523972239
147      -0.000004396934
148      -0.000005243964
149       0.015272504748
150      -0.001836243316
151       0.000004866051
152       0.000002249090
153       0.017703322346
154       0.008601023681
155       0.000000378432
156      -0.000000011272
 Sym=     1a
 Ene= 4.97064993535149E+00
 Spin= Alpha
 Occup= 0.000000
  1       0.002239938970
  2       0.002332275274
  3      -0.032303649878
  4      -0.009119595045
  5       0.030510194697
  6      -0.010314535994
  7       0.074484945142
  8       0.023736576098
  9      -0.069588722430
 10      -0.052843705829
 11      -0.332923176086
 12      -0.019194908914
 13       0.037719917849
 14       0.148090220286
 15       0.201690179479
 16       0.124175268115
 17       0.052679950599
 18      -0.011731188402
 19       0.016955059517
 20       0.011255086631
 21      -0.002262490561
 22      -0.017290217406
 23       0.002240258008
 24       0.002332671160
 25       0.032301198280
 26       0.009115950097
 27       0.030510480721
 28      -0.010311716916
 29      -0.074480184900
 30      -0.023732574618
 31      -0.069585532490
 32      -0.052904793010
 33       0.332910487476
 34       0.019193840255
 35       0.037704781872
 36       0.148008714622
 37      -0.201688355153
 38      -0.124152028234
 39       0.052686418759
 40      -0.011727823595
 41      -0.016957376223
 42      -0.011250215085
 43      -0.002263939428
 44      -0.017287900191
 45      -0.018545940616
 46       0.090609839528
 47       0.019140444641
 48       0.024330589172
 49       0.007717919411
 50      -0.016172398756
 51      -0.004529167350
 52      -0.031958089892
 53      -0.096690364930
 54       0.035518518022
 55       0.016538704553
 56       0.047599932828
 57      -0.004530737503
 58      -0.031941973962
 59      -0.096674194778
 60      -0.035518724578
 61      -0.016543527083
 62       0.047601075572
 63      -0.018546361808
 64       0.090621977194
 65       0.019135707575
 66      -0.024326067039
 67      -0.007718371480
 68      -0.016163462926
 69      -0.000108071770
 70       0.000483006539
 71      -0.000000746271
 72      -0.000001176531
 73       0.001180804476
 74      -0.002493520377
 75      -0.000002935136
 76       0.000001233950
 77       0.015415365668
 78       0.238020435136
 79      -0.000004792113
 80      -0.000004810995
 81       0.365632134595
 82      -0.086471348974
 83       0.000017884891
 84       0.000004119732
 85       0.028116008111
 86       0.019392716102
 87      -0.000003992882
 88      -0.000001090762
 89       0.012126250154
 90      -0.012055908314
 91       0.001199488688
 92       0.002435763726
 93      -0.845926336745
 94      -0.304543848011
 95      -0.090094533276
 96      -0.038218869888
 97       1.050602741223
 98       0.378320699338
 99       0.114907483392
100       0.188514403852
101      -0.680090563393
102      -0.294120024302
103      -0.145939287242
104      -0.084070738490
105       0.341791770765
106       0.151120186105
107       0.039962157643
108       0.015314270609
109       0.004778174788
110       0.011172814271
111      -0.008719159959
112       0.011366534473
113       0.001199366790
114       0.002435546270
115       0.846036208632
116       0.304582782790
117      -0.090113039460
118      -0.038216733720
119      -1.050739086635
120      -0.378368949834
121       0.114930102411
122       0.188502271118
123       0.680182410780
124       0.294152380411
125      -0.145949576878
126      -0.084092690344
127      -0.341834111632
128      -0.151140794281
129       0.039977176885
130       0.015315020433
131      -0.004777502467
132      -0.011172623568
133      -0.008721007511
134       0.011367062360
135      -0.000941896024
136      -0.001833477415
137      -0.000004675082
138      -0.000002134069
139       0.032521745208
140       0.028820463335
141       0.000005353753
142       0.000002689284
143      -0.033973131797
144      -0.247501705688
145       0.000002952644
146      -0.000000662448
147       0.106508170088
148      -0.225613944653
149      -0.000004303386
150       0.000002238633
151       0.064004772811
152      -0.006878225140
153      -0.000003081908
154      -0.000000070141
155      -0.010654037345
156       0.009757003739
 Sym=     1a
 Ene= 4.97444811938326E+00
 Spin= Alpha
 Occup= 0.000000
  1      -0.001038400416
  2      -0.000419501921
  3      -0.036027187378
  4      -0.062796426938
  5      -0.010938974774
  6      -0.048722253079
  7       0.105633686701
  8       0.153862336848
  9       0.015400679590
 10       0.415006949560
 11      -0.088962661935
 12      -0.004283244898
 13       0.115016521424
 14       1.209553176989
 15       0.005182214757
 16       0.313055053402
 17      -0.003509657570
 18      -0.015574910554
 19      -0.015869169715
 20       0.030177361867
 21      -0.060201190732
 22      -0.041561098800
 23       0.001037898592
 24       0.000418854802
 25      -0.036032129270
 26      -0.062798200884
 27       0.010936090192
 28       0.048726975433
 29       0.105645964319
 30       0.153867618455
 31      -0.015395594174
 32      -0.414995988388
 33      -0.089017202407
 34      -0.004284672520
 35      -0.115022039644
 36      -1.209594651990
 37       0.005206350800
 38       0.313074211232
 39       0.003495545186
 40       0.015573963041
 41      -0.015865381544
 42       0.030177939129
 43       0.060203583048
 44       0.041564445876
 45       0.002422391336
 46      -0.046217713195
 47      -0.002060560216
 48       0.020922172440
 49       0.002867472812
 50      -0.045603096405
 51       0.025923598792
 52       0.011886216573
 53      -0.200923039029
 54       0.064872958817
 55      -0.008573294642
 56       0.025669758704
 57      -0.025923545508
 58      -0.011885213400
 59       0.200947074413
 60       0.064881246919
 61      -0.008571195030
 62      -0.025677121119
 63      -0.002419174133
 64       0.046196984951
 65       0.002061639131
 66       0.020923712834
 67       0.002869569035
 68       0.045602857660
 69       0.000000040606
 70       0.000000021613
 71      -0.009400867555
 72      -0.021837119178
 73      -0.000000101462
 74      -0.000000700884
 75      -0.049128829894
 76       0.030200225895
 77      -0.000000732238
 78      -0.000011259245
 79      -0.072708935082
 80      -0.069913936120
 81      -0.000021241032
 82       0.000023087137
 83       0.269807877052
 84       0.075710657751
 85      -0.000009551147
 86      -0.000001127636
 87      -0.060406913941
 88      -0.029711847249
 89      -0.000000834065
 90       0.000000579631
 91       0.000998540753
 92       0.001777501400
 93       0.851526712116
 94       0.267950996894
 95       0.095833540466
 96      -0.016820511525
 97      -1.057628569228
 98      -0.328408862765
 99      -0.118686189474
100       0.080250199138
101       0.708490558399
102       0.210842964182
103       0.033017954055
104       0.206209570177
105      -0.332769142808
106      -0.139494929836
107      -0.078827290103
108      -0.003865170910
109       0.004608133184
110       0.016322272811
111       0.006866587074
112      -0.005420389097
113      -0.000998671815
114      -0.001777773780
115       0.851415578981
116       0.267912582653
117      -0.095824915921
118       0.016824519149
119      -1.057490339753
120      -0.328361172058
121       0.118674978619
122      -0.080271224396
123       0.708399489675
124       0.210807444416
125      -0.033003912770
126      -0.206200680070
127      -0.332723663164
128      -0.139476090375
129       0.078827525305
130       0.003864085962
131       0.004609263097
132       0.016322939922
133      -0.006865670969
134       0.005418665465
135       0.000000062736
136       0.000000119672
137      -0.118842146636
138      -0.047085983697
139      -0.000001611643
140      -0.000001836420
141       0.139722041703
142       0.058359693803
143       0.000001662196
144       0.000014924356
145       0.008050021225
146      -0.014344893083
147      -0.000006232521
148       0.000008423747
149      -0.043073403325
150       0.022763507040
151      -0.000000539602
152       0.000000525557
153      -0.046315137582
154      -0.006740377730
155       0.000000659079
156      -0.000000600503
 Sym=     1a
 Ene= 5.04217962139785E+00
 Spin= Alpha
 Occup= 0.000000
  1      -0.000262012208
  2       0.000007579033
  3       0.001441873648
  4       0.007805877662
  5       0.006763398785
  6       0.049042820902
  7       0.023885377164
  8      -0.008900686985
  9      -0.011874966314
 10      -0.579028551716
 11       0.018047355086
 12      -0.205942725888
 13      -0.096518985259
 14       0.241115111498
 15      -0.099440539508
 16      -0.005380189266
 17       0.140004846233
 18       0.013574513437
 19      -0.017366986043
 20      -0.002929806324
 21      -0.007292266406
 22      -0.016131883892
 23       0.000261992468
 24      -0.000007627266
 25       0.001441511101
 26       0.007805790817
 27      -0.006763561958
 28      -0.049042654766
 29       0.023886803480
 30      -0.008900281578
 31       0.011875542480
 32       0.579031754032
 33       0.018055067675
 34      -0.205941875625
 35       0.096519981748
 36      -0.241106003670
 37      -0.099438325991
 38      -0.005380385110
 39      -0.140002177292
 40      -0.013575023615
 41      -0.017366424558
 42      -0.002929547921
 43       0.007292953618
 44       0.016132134592
 45       0.001530313455
 46       0.001861735662
 47       0.069375657503
 48       0.008992486249
 49       0.005332192230
 50      -0.000454317333
 51      -0.029128736352
 52       0.169454307442
 53      -0.109951051459
 54       0.028058331174
 55       0.025758873316
 56       0.027003312786
 57       0.029129176272
 58      -0.169459637286
 59       0.109947105089
 60       0.028059786632
 61       0.025759083823
 62      -0.027003955802
 63      -0.001530405216
 64      -0.001860024115
 65      -0.069374936293
 66       0.008992356529
 67       0.005332197468
 68       0.000454598645
 69      -0.000000047600
 70      -0.000000058131
 71      -0.036722496058
 72       0.006254569030
 73       0.000000029600
 74       0.000000755548
 75       0.072381508842
 76      -0.020781678381
 77      -0.000000058273
 78      -0.000002481631
 79      -0.277735790580
 80       0.060660842983
 81       0.000000682976
 82      -0.000009565669
 83       0.391410673913
 84       0.213227367534
 85       0.000004161222
 86      -0.000000201508
 87       0.117720700020
 88       0.033740769675
 89      -0.000000055026
 90       0.000000046716
 91      -0.001437312695
 92      -0.002688609639
 93       0.078022335985
 94       0.056647071390
 95       0.005290430882
 96       0.032686688660
 97      -0.102552616281
 98      -0.076731698967
 99      -0.009735958015
100      -0.154163317324
101       0.119697309198
102       0.091817867571
103       0.070700754852
104      -0.162085619154
105      -0.069056590181
106       0.064889702977
107      -0.098074259322
108      -0.001417612832
109       0.008572889263
110      -0.009305932110
111       0.013987897676
112      -0.029071467616
113       0.001437292193
114       0.002688569933
115       0.078017954336
116       0.056645751214
117      -0.005289372655
118      -0.032686172060
119      -0.102547130747
120      -0.076729966355
121       0.009734594676
122       0.154161641946
123       0.119694433663
124       0.091816406287
125      -0.070699728984
126       0.162089539889
127      -0.069053925737
128       0.064891577196
129       0.098074123320
130       0.001417703225
131       0.008572596238
132      -0.009306096501
133      -0.013987856418
134       0.029071449999
135      -0.000000004128
136      -0.000000006919
137       1.244839381318
138       0.265224539171
139      -0.000001135374
140       0.000000111537
141      -1.548488182695
142      -0.329505792192
143       0.000001349665
144      -0.000000280083
145       0.987890284954
146       0.201570391459
147      -0.000000624282
148       0.000001298840
149      -0.529976288025
150      -0.123266987921
151      -0.000000950746
152      -0.000000105938
153       0.031581045249
154       0.010038037013
155       0.000000075882
156       0.000000002569
 Sym=     1a
 Ene= 5.11696698849375E+00
 Spin= Alpha
 Occup= 0.000000
  1       0.001852011057
  2      -0.000584391021
  3       0.013812889464
  4       0.002941987766
  5       0.050043634398
  6      -0.002966323486
  7      -0.027339683666
  8      -0.012684905906
  9      -0.124717608807
 10       0.351986425566
 11       0.056126826986
 12       0.135338175537
 13      -0.007262454825
 14       3.006935339021
 15       0.017561574754
 16       0.620650364415
 17       0.431796764051
 18      -0.056765017285
 19      -0.025770264924
 20       0.017775869796
 21       0.028640651818
 22       0.006209325124
 23      -0.001852025758
 24       0.000584354472
 25       0.013812370804
 26       0.002941658235
 27      -0.050043499096
 28       0.002966193514
 29      -0.027338109271
 30      -0.012683846898
 31       0.124717053722
 32      -0.351983494834
 33       0.056126382094
 34       0.135337844295
 35       0.007263715176
 36      -3.006934684654
 37       0.017557506020
 38       0.620649529664
 39      -0.431797149426
 40       0.056764628089
 41      -0.025770016405
 42       0.017775901826
 43      -0.028640289552
 44      -0.006208559973
 45      -0.005144603876
 46      -0.076736314142
 47      -0.144077237519
 48       0.026760485709
 49      -0.029345940669
 50      -0.027721407339
 51      -0.034917894980
 52       0.011657393817
 53      -0.106380549329
 54      -0.027267340796
 55      -0.020922583388
 56       0.007793432289
 57       0.034918279150
 58      -0.011661136823
 59       0.106383391227
 60      -0.027266580979
 61      -0.020922004789
 62      -0.007794745262
 63       0.005144448712
 64       0.076736223163
 65       0.144075386525
 66       0.026759753312
 67      -0.029346159133
 68       0.027721763281
 69      -0.000000037217
 70      -0.000000037925
 71       0.026397732448
 72      -0.090059428176
 73       0.000000148853
 74       0.000000372599
 75      -0.067817430138
 76       0.226566000190
 77      -0.000000234811
 78       0.000000116159
 79       0.336234196525
 80      -1.196384795157
 81       0.000002077253
 82      -0.000000805435
 83       0.022378944157
 84       0.459022970983
 85       0.000000410346
 86       0.000000046122
 87      -0.017704456368
 88       0.082382950862
 89      -0.000000047132
 90       0.000000016450
 91       0.001453219245
 92       0.002671896957
 93       0.090766819939
 94      -0.236775078915
 95      -0.003985084076
 96      -0.013245582483
 97      -0.119495428964
 98       0.315076801542
 99       0.020091446178
100       0.183187655619
101       0.084101738815
102      -0.297081001483
103       0.131370825345
104       1.378807083423
105       0.058706958266
106      -0.272695912396
107       0.207008717745
108      -0.074768632552
109       0.009319379953
110       0.014424135556
111      -0.007790895819
112      -0.003016350521
113      -0.001453224243
114      -0.002671907833
115       0.090767382205
116      -0.236774449339
117       0.003985435112
118       0.013245719081
119      -0.119496202988
120       0.315075972504
121      -0.020091980896
122      -0.183187965331
123       0.084101654968
124      -0.297080355803
125      -0.131370247636
126      -1.378806738915
127       0.058707436760
128      -0.272695616366
129      -0.207009297484
130       0.074768603663
131       0.009319889739
132       0.014424044352
133       0.007791109346
134       0.003016278154
135      -0.000000012300
136      -0.000000022678
137      -0.246382837983
138       1.203048050315
139       0.000000079998
140       0.000000295493
141       0.314814386033
142      -1.536884663419
143      -0.000000178223
144      -0.000001345094
145      -0.241495850921
146       1.164310429083
147       0.000000589727
148      -0.000001022111
149       0.083454955913
150      -0.619174438152
151       0.000000213333
152      -0.000000048978
153      -0.002015536871
154       0.011201475948
155       0.000000014324
156       0.000000052485
 Sym=     1a
 Ene= 5.23658362753893E+00
 Spin= Alpha
 Occup= 0.000000
  1      -0.005831673959
  2      -0.001590874772
  3      -0.018092629756
  4       0.000091786656
  5      -0.075844134591
  6       0.003944798228
  7       0.045629941890
  8       0.031254544463
  9       0.241852642417
 10      -0.151892104112
 11       0.147519903383
 12      -0.040221162426
 13      -0.088319012640
 14      -0.398752236713
 15      -0.106681100041
 16       0.057738240277
 17      -0.167023122529
 18       0.116704568280
 19       0.060811486479
 20      -0.085204490665
 21      -0.024891913359
 22       0.028132595570
 23      -0.005831689382
 24      -0.001590906915
 25       0.018092333195
 26      -0.000092658227
 27      -0.075844272368
 28       0.003946021984
 29      -0.045629713997
 30      -0.031251642103
 31       0.241852356580
 32      -0.151900540963
 33      -0.147521101534
 34       0.040224314888
 35      -0.088323284079
 36      -0.398765779682
 37       0.106679789548
 38      -0.057735328346
 39      -0.167025265655
 40       0.116705324317
 41      -0.060810410221
 42       0.085204914223
 43      -0.024890950329
 44       0.028132989016
 45       0.038670998012
 46       0.036436644105
 47      -0.058517628076
 48      -0.065601326727
 49       0.023758532150
 50       0.039552781864
 51      -0.002096688800
 52       0.145730644881
 53      -0.023265258213
 54       0.043709512409
 55       0.040272437041
 56       0.008215561676
 57      -0.002096653309
 58       0.145730552043
 59      -0.023263816160
 60      -0.043709469083
 61      -0.040272409441
 62       0.008214352934
 63       0.038671245403
 64       0.036435149172
 65      -0.058518396171
 66       0.065599953740
 67      -0.023758459305
 68       0.039553210830
 69      -0.046415993815
 70      -0.038284379255
 71       0.000000316680
 72      -0.000000431145
 73       0.235983268406
 74       0.062927489462
 75      -0.000000793845
 76       0.000001063981
 77      -0.534870239740
 78       0.152959939165
 79       0.000000660157
 80       0.000000229364
 81       0.462104311186
 82       0.319035966722
 83      -0.000000095052
 84      -0.000000082969
 85      -0.229792620597
 86       0.076922454393
 87       0.000000443426
 88      -0.000000586488
 89      -0.215984527135
 90      -0.126787593678
 91       0.001428698802
 92       0.001927946387
 93       0.295700376595
 94      -0.825259112386
 95      -0.050929817424
 96       0.089733546554
 97      -0.397206531320
 98       1.099754851504
 99       0.056981096558
100      -0.524492499182
101       0.206576530367
102      -0.497017039249
103      -0.002978597917
104       0.817270170335
105      -0.040713698614
106       0.101825808971
107      -0.086676475423
108      -0.070476888498
109       0.001267485410
110       0.056147981494
111       0.103860668975
112       0.057613794836
113       0.001428672769
114       0.001927907554
115      -0.295701243227
116       0.825257458974
117      -0.050928606838
118       0.089733701781
119       0.397207615389
120      -1.099752406051
121       0.056979585628
122      -0.524493062283
123      -0.206576410087
124       0.497016128224
125      -0.002976182244
126       0.817265950409
127       0.040713409175
128      -0.101826052863
129      -0.086676700033
130      -0.070476632209
131      -0.001268718077
132      -0.056147650407
133       0.103860297104
134       0.057613768845
135      -0.003116931200
136      -0.005995410680
137      -0.000000118554
138      -0.000000578712
139      -0.284518496482
140       0.070021129350
141       0.000000125641
142       0.000000771693
143       0.309708159643
144      -0.137705687343
145      -0.000000163641
146      -0.000000485957
147      -0.220112104563
148      -0.336461145548
149       0.000000140595
150       0.000000040042
151       0.327552315110
152      -0.011394513984
153       0.000000013341
154      -0.000000146049
155       0.043146301663
156       0.023359222736
 Sym=     1a
 Ene= 5.38927827359742E+00
 Spin= Alpha
 Occup= 0.000000
  1       0.010399271674
  2      -0.003128371194
  3       0.042471772724
  4      -0.003937851402
  5       0.222163284534
  6       0.134969167881
  7      -0.081342854117
  8      -0.078984604600
  9      -0.570991940425
 10       0.056200116444
 11       0.090390149656
 12      -0.042603066295
 13      -0.001362373414
 14      -0.471900226468
 15       0.019377790659
 16       0.025005540793
 17      -0.142183735037
 18      -0.268252988868
 19      -0.155108488372
 20       0.197125372235
 21       0.072822341949
 22      -0.001445237008
 23       0.010399283551
 24      -0.003128487121
 25      -0.042468434775
 26       0.003938217982
 27       0.222166722457
 28       0.134971563736
 29       0.081330143472
 30       0.078984208814
 31      -0.571001130464
 32       0.056195133340
 33      -0.090390576910
 34       0.042605047898
 35      -0.001365614972
 36      -0.471891361908
 37      -0.019376683130
 38      -0.025007926991
 39      -0.142182362772
 40      -0.268255247980
 41       0.155110584802
 42      -0.197128417163
 43       0.072822473675
 44      -0.001451504758
 45      -0.089937476407
 46      -0.237500715873
 47      -0.000170062692
 48       0.150848259283
 49      -0.060857011335
 50      -0.055957674030
 51      -0.059339793821
 52      -0.140011223744
 53       0.074843259246
 54      -0.112713237819
 55      -0.042163100428
 56       0.022648042753
 57      -0.059339202729
 58      -0.140001747986
 59       0.074838645422
 60       0.112709254988
 61       0.042161665078
 62       0.022653789414
 63      -0.089939851468
 64      -0.237512040215
 65      -0.000166446529
 66      -0.150851311872
 67       0.060860485338
 68      -0.055965402249
 69      -0.035823020472
 70      -0.037378634154
 71       0.000000039496
 72       0.000000375139
 73       0.048766713919
 74       0.071343483683
 75       0.000000204078
 76      -0.000001496132
 77       0.191299238616
 78      -0.259347284321
 79       0.000000140625
 80       0.000000275152
 81      -0.691147146326
 82       0.934843920302
 83      -0.000001853499
 84       0.000000906867
 85      -0.591908788781
 86       0.094378333626
 87      -0.000000179948
 88       0.000001162724
 89      -0.133670337412
 90      -0.082525913641
 91      -0.002837268938
 92      -0.003556797240
 93      -0.090519633362
 94       0.000688462379
 95       0.797704778612
 96      -0.044504349221
 97       0.128152717140
 98       0.001894087147
 99      -1.120970090988
100       0.307914711082
101      -0.025695870170
102      -0.044500602982
103       0.444141960551
104      -0.612078704000
105      -0.007668505921
106       0.201710790664
107      -0.315174119231
108       0.155944855514
109      -0.068399771733
110       0.085464512352
111       0.011036651497
112      -0.003534541315
113      -0.002837218342
114      -0.003556736442
115       0.090520549496
116      -0.000683536986
117       0.797699377339
118      -0.044503353346
119      -0.128154195443
120      -0.001901249489
121      -1.120962556795
122       0.307905261961
123       0.025697359901
124       0.044502793778
125       0.444139819629
126      -0.612071313549
127       0.007666452145
128      -0.201710599343
129      -0.315171996821
130       0.155942786796
131       0.068400318390
132      -0.085464102210
133       0.011037249021
134      -0.003534826576
135       0.001604812310
136       0.003554721550
137      -0.000001256251
138       0.000000528198
139      -0.567297833545
140      -0.005665466704
141       0.000001708743
142      -0.000000742598
143       0.787265149611
144       0.020719871075
145      -0.000001236925
146       0.000000289601
147      -0.438275085433
148       1.129587066852
149       0.000000628986
150       0.000000233670
151      -0.135917139380
152      -0.120909977290
153      -0.000000287716
154       0.000000337048
155       0.039634192038
156       0.023442436621
 Sym=     1a
 Ene= 5.42707397683645E+00
 Spin= Alpha
 Occup= 0.000000
  1       0.006711102968
  2      -0.007780023922
  3       0.044227845575
  4       0.031946707332
  5       0.301786416706
  6       0.150793092403
  7      -0.127663173118
  8      -0.149580526370
  9      -0.758736193563
 10       0.412324676100
 11       0.007601885254
 12       0.073299657668
 13       0.101600985528
 14      -0.169002820102
 15      -0.013522557954
 16      -0.081709865415
 17       0.163940441496
 18      -0.346134332679
 19      -0.115192893483
 20       0.064531070068
 21       0.147536525551
 22       0.045767606543
 23      -0.006711058132
 24       0.007779943373
 25       0.044225930900
 26       0.031946057533
 27      -0.301784189664
 28      -0.150791974928
 29      -0.127657336204
 30      -0.149578096608
 31       0.758729801252
 32      -0.412323991912
 33       0.007612008794
 34       0.073298097300
 35      -0.101599176061
 36       0.168993829321
 37      -0.013526505754
 38      -0.081709808971
 39      -0.163943362198
 40       0.346131254218
 41      -0.115190958653
 42       0.064529741690
 43      -0.147535450717
 44      -0.045763798165
 45      -0.056276962297
 46      -0.317878974115
 47       0.152347885919
 48       0.135589726714
 49      -0.101707710663
 50      -0.089681749487
 51      -0.087413038667
 52      -0.297007733131
 53       0.078794418269
 54      -0.187080404961
 55      -0.089794110087
 56      -0.014816207125
 57       0.087412882956
 58       0.296995639240
 59      -0.078790919214
 60      -0.187077673835
 61      -0.089791391093
 62       0.014810234540
 63       0.056274812081
 64       0.317884823078
 65      -0.152347811575
 66       0.135586797916
 67      -0.101708258682
 68       0.089685615468
 69      -0.000000133748
 70      -0.000000151000
 71       0.032469401602
 72      -0.141240365342
 73       0.000000206077
 74       0.000000979547
 75      -0.117825160712
 76       0.486207998601
 77       0.000001197112
 78       0.000000855985
 79      -0.141922992913
 80       0.473720348024
 81       0.000006449961
 82       0.000008984721
 83       0.139216144728
 84      -0.309916180097
 85      -0.000003580390
 86       0.000000267900
 87       0.112046115071
 88      -0.441434881764
 89      -0.000000104673
 90      -0.000000426119
 91       0.010108594323
 92       0.015031776262
 93       0.258336121815
 94      -0.641110228891
 95      -0.489603144190
 96       0.043038223811
 97      -0.376926765830
 98       0.947109163218
 99       0.684230514566
100      -0.935285440642
101       0.106860492408
102      -0.275086935254
103      -0.428302534622
104       0.508413416321
105      -0.051598507483
106       0.234248396391
107       0.042374465733
108      -0.174553515998
109       0.039354283339
110       0.049586806580
111       0.081135401547
112       0.067294188084
113      -0.010108610730
114      -0.015031785683
115       0.258343042927
116      -0.641110031517
117       0.489608289822
118      -0.043039407004
119      -0.376936792680
120       0.947108916332
121      -0.684237732094
122       0.935294904368
123       0.106866503112
124      -0.275084329105
125       0.428303503107
126      -0.508416156956
127      -0.051600086222
128       0.234246851163
129      -0.042377929583
130       0.174554983374
131       0.039356949344
132       0.049586854056
133      -0.081134947899
134      -0.067294837695
135      -0.000000013531
136      -0.000000021103
137       0.094084185406
138      -0.304073344130
139      -0.000002260550
140       0.000000646225
141      -0.132702404014
142       0.429319156858
143       0.000003202295
144      -0.000004859652
145       0.106957146091
146      -0.319575370811
147      -0.000000082462
148      -0.000001306885
149      -0.065939806802
150       0.124812090012
151       0.000001282964
152      -0.000000677485
153       0.025763171039
154      -0.098912470834
155       0.000000036565
156       0.000000015624
 Sym=     1a
 Ene= 5.83889998480911E+00
 Spin= Alpha
 Occup= 0.000000
  1      -0.004042967922
  2       0.001312459920
  3      -0.015324333327
  4       0.017723782607
  5      -0.039579551155
  6      -0.034276020997
  7       0.019583965147
  8       0.000395286586
  9       0.100312503950
 10      -0.161918402703
 11      -0.115426374692
 12       0.079598562757
 13      -0.006351444812
 14      -0.141016582525
 15      -0.018969815000
 16       0.001917536204
 17      -0.009828953788
 18       0.060506434871
 19       0.064799698749
 20      -0.076984230608
 21      -0.018573645914
 22       0.004733383866
 23      -0.004042968298
 24       0.001312536388
 25       0.015323311461
 26      -0.017724677913
 27      -0.039580876742
 28      -0.034276311303
 29      -0.019579742027
 30      -0.000393452885
 31       0.100316108814
 32      -0.161927680261
 33       0.115424331898
 34      -0.079598835083
 35      -0.006352263962
 36      -0.141018191768
 37       0.018968309802
 38      -0.001917645835
 39      -0.009828812747
 40       0.060508031993
 41      -0.064800777076
 42       0.076986196890
 43      -0.018573213000
 44       0.004735389418
 45       0.019093513174
 46       0.139147296720
 47       0.043750737218
 48      -0.049097310205
 49       0.023276185349
 50       0.021519779619
 51       0.010763031369
 52       0.045932525211
 53       0.002726134615
 54       0.026326702494
 55       0.009434070689
 56      -0.002750229345
 57       0.010762841040
 58       0.045931711007
 59       0.002730294418
 60      -0.026325434237
 61      -0.009434295907
 62      -0.002751993123
 63       0.019094377868
 64       0.139152102170
 65       0.043749145590
 66       0.049098660535
 67      -0.023277334728
 68       0.021522811997
 69      -0.034865770945
 70      -0.067331406926
 71      -0.000000628916
 72       0.000001549628
 73      -0.293109999941
 74       0.503511743208
 75       0.000002479005
 76      -0.000004657192
 77       1.894773189147
 78       0.403211509214
 79      -0.000000815606
 80       0.000002918980
 81      -0.391812942842
 82      -0.005995038664
 83      -0.000000307587
 84       0.000000978593
 85      -0.573646305523
 86       0.931710205466
 87      -0.000000162300
 88       0.000002827326
 89       0.266661031213
 90       0.153105887113
 91      -0.004938875003
 92      -0.007194069127
 93      -0.044748507800
 94       0.183074995015
 95      -0.393346412219
 96       0.003807802113
 97       0.078685137040
 98      -0.325063190354
 99       0.648729291115
100       0.318557995302
101      -0.008166874532
102       0.004547977018
103      -0.222466089158
104      -0.538298542605
105      -0.058386117199
106       0.191955664196
107      -0.033945755072
108       0.009868334431
109       0.058216866273
110      -0.191900272644
111      -0.046153443868
112      -0.026447237732
113      -0.004938803112
114      -0.007193956059
115       0.044747268185
116      -0.183070892701
117      -0.393341148695
118       0.003807462499
119      -0.078682890259
120       0.325056305294
121       0.648720611502
122       0.318554851855
123       0.008166444932
124      -0.004546488991
125      -0.222462230604
126      -0.538294801913
127       0.058385992630
128      -0.191955444775
129      -0.033945108648
130       0.009869730204
131      -0.058215893357
132       0.191897884100
133      -0.046152115849
134      -0.026446108857
135       0.028178277287
136       0.050812163795
137      -0.000001034129
138       0.000000906130
139      -1.122919327276
140      -0.338660921946
141       0.000001887079
142      -0.000001531567
143       2.130920358805
144      -1.476509127189
145      -0.000000282905
146       0.000000168412
147      -0.259786611120
148       1.504436595648
149      -0.000000048032
150      -0.000000580735
151      -0.057911942123
152      -0.552775461469
153      -0.000000811138
154       0.000000774263
155      -0.054942043250
156      -0.030898845292
 Sym=     1a
 Ene= 5.86189620977967E+00
 Spin= Alpha
 Occup= 0.000000
  1      -0.003508591618
  2       0.007308370830
  3      -0.043761337926
  4       0.092047156038
  5      -0.145943656927
  6      -0.009022392994
  7       0.120691476852
  8      -0.207593304748
  9       0.331003873732
 10      -1.501964233891
 11      -0.076895021211
 12      -0.205022237203
 13      -0.331310276091
 14       0.635711914612
 15      -0.000179675940
 16       0.147466444218
 17       0.112893325257
 18       0.261393169432
 19       0.060146397090
 20      -0.106124818263
 21       0.027570602286
 22      -0.050478134319
 23       0.003508569504
 24      -0.007308327644
 25      -0.043758949686
 26       0.092047279574
 27       0.145943248923
 28       0.009021489224
 29       0.120682589793
 30      -0.207594159774
 31      -0.331002972457
 32       1.501962658931
 33      -0.076879882558
 34      -0.205022875304
 35       0.331312803627
 36      -0.635709817317
 37      -0.000174909988
 38       0.147466007256
 39      -0.112892247010
 40      -0.261391564664
 41       0.060146503756
 42      -0.106124767269
 43      -0.027570915549
 44       0.050472377156
 45      -0.002176485113
 46       0.271485691213
 47      -0.004101512731
 48      -0.050001963770
 49       0.058430660562
 50       0.030522211673
 51       0.032774520719
 52       0.307072972139
 53      -0.056733887348
 54       0.104377411139
 55       0.049833520129
 56       0.021149973465
 57      -0.032773122729
 58      -0.307069267485
 59       0.056725572246
 60       0.104373436324
 61       0.049832251475
 62      -0.021145274520
 63       0.002175553679
 64      -0.271485869125
 65       0.004108682931
 66      -0.050002842513
 67       0.058430836104
 68      -0.030526576310
 69      -0.000000082697
 70      -0.000000215106
 71       0.099853499439
 72      -0.393078424975
 73      -0.000001480557
 74       0.000002024952
 75      -0.290398248482
 76       1.163251939125
 77       0.000008011092
 78       0.000003325711
 79       0.158754447965
 80      -0.766095646149
 81      -0.000000665712
 82      -0.000002763500
 83       0.046221761409
 84      -0.113840334803
 85      -0.000000979428
 86       0.000002712144
 87       0.252648854497
 88      -0.871179935523
 89       0.000001223436
 90      -0.000000118003
 91       0.007798047799
 92       0.011834054194
 93       0.067369425827
 94      -0.478297669590
 95       0.722004514759
 96      -0.003586939486
 97      -0.123566097558
 98       0.821277654610
 99      -1.208968477911
100      -0.618843619354
101      -0.030138151484
102      -0.110327505356
103       0.613534107275
104       0.442117953500
105       0.007985532345
106      -0.028637415313
107       0.094429172124
108       0.139437996617
109      -0.111087131312
110       0.321066841680
111       0.168962677689
112       0.088887188318
113      -0.007798081144
114      -0.011834109710
115       0.067367395533
116      -0.478300038846
117      -0.722008956885
118       0.003587271710
119      -0.123562696163
120       0.821281749283
121       1.208975927484
122       0.618845191886
123      -0.030139588916
124      -0.110329100609
125      -0.613536873424
126      -0.442121726187
127       0.007987357238
128      -0.028638882965
129      -0.094429711675
130      -0.139437819387
131      -0.111088527908
132       0.321068303439
133      -0.168963422709
134      -0.088886358676
135       0.000000091937
136       0.000000164629
137       0.068723887743
138      -0.166614703128
139      -0.000003925049
140      -0.000001087906
141      -0.112001460280
142       0.280945111720
143       0.000007641307
144      -0.000006679692
145       0.026923527173
146      -0.002265588122
147      -0.000000198672
148       0.000005150804
149      -0.025659476974
150       0.116950484720
151      -0.000000364854
152      -0.000002156351
153       0.048257766307
154      -0.152936281874
155      -0.000000271161
156      -0.000000215694
 Sym=     1a
 Ene= 2.37736781397526E+01
 Spin= Alpha
 Occup= 0.000000
  1      -1.439409993219
  2       1.576355991033
  3      -0.001781617645
  4       0.020648573808
  5      -0.010823925583
  6      -0.501617022938
  7       0.015311468370
  8       0.008320270776
  9       0.072719134150
 10       0.467118134101
 11       0.025476553859
 12       0.072830831984
 13       0.081322433887
 14       1.440146894396
 15       0.004437655378
 16       0.297805273116
 17       0.087209070086
 18       0.051153840339
 19       0.016690599872
 20      -0.031682180341
 21      -0.001469561331
 22      -0.008685032569
 23       1.439402193671
 24      -1.576347447895
 25      -0.001781984709
 26       0.020648884762
 27       0.010823665341
 28       0.501614096547
 29       0.015313367480
 30       0.008319233314
 31      -0.072717772942
 32      -0.467116628206
 33       0.025471562532
 34       0.072831058561
 35      -0.081322766571
 36      -1.440138054124
 37       0.004436157525
 38       0.297805320980
 39      -0.087207054506
 40      -0.051153416033
 41       0.016691226673
 42      -0.031682098012
 43       0.001469069795
 44       0.008684412370
 45      -0.006220499629
 46       0.148756273169
 47      -0.147480573032
 48      -0.083280273869
 49       0.037548898846
 50       0.058274303085
 51      -0.007483428882
 52       0.159096180246
 53      -0.146129388524
 54       0.103047860011
 55       0.038125464713
 56       0.019454784188
 57       0.007483268133
 58      -0.159093423416
 59       0.146129114886
 60       0.103047449956
 61       0.038124927947
 62      -0.019453517650
 63       0.006220697513
 64      -0.148756370080
 65       0.147477518699
 66      -0.083278904312
 67       0.037548902571
 68      -0.058274748606
 69       0.000015671532
 70      -0.000017212680
 71       0.002987454067
 72      -0.003474336677
 73      -0.000000267329
 74       0.000005742606
 75      -0.010159915296
 76       0.013512651462
 77       0.000001963249
 78      -0.000004018075
 79       0.036695367323
 80      -0.038300497064
 81      -0.000000177915
 82      -0.000009408670
 83      -0.002232440199
 84       0.124904129687
 85       0.000003601894
 86       0.000001246986
 87      -0.000545674781
 88      -0.012347129520
 89      -0.000000206514
 90      -0.000000245221
 91      -0.003815652064
 92       0.000198238640
 93       0.001421021676
 94      -0.002763151007
 95      -0.005694379385
 96       0.034157388524
 97       0.001087799091
 98       0.000886481167
 99      -0.008312899676
100      -0.033454346896
101      -0.008091996028
102       0.009421273373
103       0.018449365676
104       0.385647656131
105       0.032319273437
106      -0.099528650493
107      -0.116627102469
108      -0.011206781657
109       0.004253971846
110      -0.004649869590
111       0.005254026439
112       0.003445650263
113       0.003815605335
114      -0.000198237963
115       0.001420778451
116      -0.002762825493
117       0.005694661986
118      -0.034156612608
119       0.001088523012
120       0.000886050744
121       0.008312522157
122       0.033451699748
123      -0.008092928910
124       0.009420206384
125      -0.018449630598
126      -0.385644318183
127       0.032319944269
128      -0.099526341526
129       0.116628741044
130       0.011206944861
131       0.004254176689
132      -0.004650407513
133      -0.005253493360
134      -0.003445331667
135       0.000000116045
136      -0.000000010153
137      -0.001123039536
138       0.000790435361
139      -0.000000529542
140      -0.000000103436
141       0.003222954163
142      -0.002619415113
143       0.000001800503
144      -0.000003097795
145      -0.008107835118
146       0.016796136048
147       0.000001479220
148       0.000002945935
149      -0.009020082644
150      -0.027547895769
151      -0.000001981116
152      -0.000001103932
153       0.000108639936
154      -0.002388658786
155       0.000000018341
156       0.000000021645
 Sym=     1a
 Ene= 2.38078949635381E+01
 Spin= Alpha
 Occup= 0.000000
  1      -0.954419675339
  2       1.047033490401
  3       0.000240766786
  4      -0.030003654939
  5      -0.011284019136
  6      -0.372176755020
  7      -0.002515071519
  8       0.100829604041
  9       0.070897572807
 10       0.168584696700
 11      -0.145254953583
 12       0.020176463827
 13       0.073926578118
 14       0.390173512371
 15      -0.019269167774
 16      -0.014892784125
 17       0.093347366927
 18       0.017683428014
 19       0.023624659339
 20      -0.022404366073
 21      -0.052987308911
 22       0.003083319017
 23      -0.954441443081
 24       1.047057359768
 25      -0.000240490935
 26       0.030003354544
 27      -0.011284177297
 28      -0.372185654110
 29       0.002513663053
 30      -0.100829709411
 31       0.070898574972
 32       0.168604818980
 33       0.145256217588
 34      -0.020182272801
 35       0.073933575617
 36       0.390195851988
 37       0.019270199982
 38       0.014888449772
 39       0.093350502196
 40       0.017683828522
 41      -0.023625633336
 42       0.022404929040
 43      -0.052986893249
 44       0.003083436111
 45      -0.000043184532
 46       0.205478782424
 47      -0.079525491692
 48      -0.078726256183
 49       0.038648250445
 50       0.062368336466
 51       0.010033210945
 52       0.074747404597
 53      -0.171818394442
 54       0.081396756367
 55       0.021281358073
 56       0.006419684186
 57       0.010033417112
 58       0.074746957827
 59      -0.171820720529
 60      -0.081398305811
 61      -0.021281096272
 62       0.006418860222
 63      -0.000043559656
 64       0.205481309141
 65      -0.079525373979
 66       0.078726822095
 67      -0.038649449956
 68       0.062369776691
 69       1.526552518821
 70      -1.679290320404
 71      -0.000000064145
 72      -0.000000047237
 73      -0.022986808343
 74       0.594512563514
 75       0.000000266729
 76       0.000000185976
 77       0.184956591073
 78      -0.167250746746
 79      -0.000000061127
 80      -0.000000479593
 81       0.435524331270
 82      -0.667309598870
 83       0.000000260599
 84      -0.000001072451
 85       0.274959253966
 86       0.121195840460
 87       0.000000192013
 88      -0.000000049704
 89      -0.020953495109
 90      -0.008130849188
 91       0.000170113870
 92      -0.000047694378
 93       0.002020652377
 94      -0.015490314021
 95       0.013492441708
 96       0.013607806463
 97      -0.001790353511
 98       0.022754136219
 99      -0.005307328177
100      -0.004393190274
101      -0.022290640810
102       0.016805569971
103      -0.078601717986
104       0.143757970965
105       0.004413108938
106      -0.097824609448
107       0.094558105138
108       0.013668125382
109      -0.008634728430
110       0.029821062417
111       0.024532375057
112       0.013372273970
113       0.000170115600
114      -0.000047690575
115      -0.002020802455
116       0.015490339031
117       0.013492364690
118       0.013607621501
119       0.001790814603
120      -0.022754105234
121      -0.005307397739
122      -0.004389303566
123       0.022289330478
124      -0.016805023573
125      -0.078603480911
126       0.143764790071
127      -0.004412439204
128       0.097825650403
129       0.094555639270
130       0.013668047910
131       0.008634652921
132      -0.029820974415
133       0.024532470733
134       0.013372272161
135       0.007331359393
136      -0.000857580796
137      -0.000000008516
138       0.000000010100
139      -0.050792673218
140       0.029589748225
141       0.000000041666
142      -0.000000029041
143       0.169234024976
144      -0.565723068697
145       0.000000277672
146      -0.000000041492
147       0.242604217400
148      -0.056189736569
149      -0.000000038924
150       0.000000167028
151      -0.072664465412
152      -0.110266320545
153      -0.000000116124
154       0.000000040747
155       0.001110370091
156       0.000829383368
 Sym=     1a
 Ene= 2.38182310503909E+01
 Spin= Alpha
 Occup= 0.000000
  1      -1.079555461129
  2       1.184843550437
  3      -0.002644289014
  4      -0.027099538855
  5      -0.002168065579
  6      -0.404232413088
  7       0.015693835566
  8       0.100864193243
  9       0.048096731040
 10       0.190360758919
 11       0.039081052478
 12       0.008744942212
 13       0.054871498354
 14      -0.114285978533
 15      -0.011173337749
 16      -0.011965552371
 17      -0.055290134145
 18       0.003770117358
 19       0.021295683403
 20      -0.040429778553
 21      -0.063431021272
 22      -0.004991888392
 23      -1.079546624627
 24       1.184833858832
 25       0.002644531668
 26       0.027099651922
 27      -0.002167916105
 28      -0.404229110214
 29      -0.015695246075
 30      -0.100864057776
 31       0.048095880998
 32       0.190356970122
 33      -0.039081249119
 34      -0.008743964989
 35       0.054870362632
 36      -0.114299171401
 37       0.011173074331
 38       0.011968403872
 39      -0.055291019429
 40       0.003769571584
 41      -0.021296456637
 42       0.040429517231
 43      -0.063430896317
 44      -0.004991751456
 45       0.004995672668
 46       0.155787377465
 47      -0.053956149578
 48      -0.084153270213
 49       0.042821030948
 50       0.060165010160
 51      -0.000972813276
 52       0.180402964216
 53      -0.055335935738
 54       0.099705955211
 55       0.040503193942
 56       0.025904453760
 57      -0.000972562417
 58       0.180401999186
 59      -0.055334242694
 60      -0.099705754064
 61      -0.040502381810
 62       0.025903479842
 63       0.004995611458
 64       0.155786370540
 65      -0.053955791099
 66       0.084152035322
 67      -0.042821338356
 68       0.060165226658
 69      -1.349470730978
 70       1.485051013473
 71      -0.000000015786
 72      -0.000000077589
 73       0.001408969928
 74      -0.502908617728
 75      -0.000000069843
 76       0.000000309666
 77      -0.107155095536
 78       0.366274041737
 79       0.000000133114
 80       0.000000218830
 81      -0.106844764179
 82       0.529849955674
 83      -0.000000386813
 84       0.000000545134
 85      -0.259908788992
 86      -0.129483038660
 87      -0.000000257602
 88      -0.000000148457
 89       0.019576961927
 90       0.008435063897
 91       0.003594164056
 92      -0.000140682646
 93      -0.007509912603
 94       0.019150903235
 95       0.000636320827
 96      -0.058149421011
 97       0.011285343419
 98      -0.030860093839
 99       0.004674591189
100       0.134785285693
101       0.015530598026
102      -0.025133669869
103      -0.014535405440
104      -0.376226353247
105      -0.032668102656
106       0.105200929486
107       0.067764821904
108       0.011457884022
109      -0.001888295412
110      -0.017955519149
111      -0.022314670846
112      -0.016447162311
113       0.003594207192
114      -0.000140682783
115       0.007509812080
116      -0.019150896641
117       0.000636313821
118      -0.058149851477
119      -0.011284991281
120       0.030860043445
121       0.004674756076
122       0.134785927388
123      -0.015531002229
124       0.025134182670
125      -0.014535316280
126      -0.376228848584
127       0.032668622397
128      -0.105201603523
129       0.067765653834
130       0.011458007178
131       0.001888262844
132       0.017955634395
133      -0.022314755777
134      -0.016447114070
135      -0.010508862233
136       0.000794855082
137       0.000000009042
138      -0.000000013253
139       0.045853820396
140       0.012964663716
141      -0.000000042517
142       0.000000045565
143      -0.155750604830
144       0.276420801786
145      -0.000000172099
146       0.000000005293
147      -0.119324741653
148      -0.166953592299
149       0.000000084328
150      -0.000000140363
151       0.142850111911
152       0.093542264874
153       0.000000091992
154      -0.000000041446
155      -0.001391343243
156      -0.000521279761
 Sym=     1a
 Ene= 4.98144621853836E+01
 Spin= Alpha
 Occup= 0.000000
  1       0.003046512423
  2      -0.005079547600
  3       0.000885287706
  4      -0.000072324557
  5       0.002167405268
  6      -0.000841376891
  7       0.003384520684
  8      -0.016790119227
  9       0.012471289978
 10       0.169610533297
 11       0.031107089477
 12      -0.018617558533
 13       0.060774171104
 14       0.035308266460
 15      -0.014579514217
 16       0.016464247332
 17       0.005003893734
 18       0.006302957746
 19      -0.004444152298
 20       0.005838332670
 21       0.003567835166
 22       0.000492396811
 23       0.003046538195
 24      -0.005079592572
 25      -0.000885227109
 26       0.000072334283
 27       0.002167428416
 28      -0.000841478201
 29      -0.003384580345
 30       0.016790231604
 31       0.012471189904
 32       0.169612548324
 33      -0.031105344394
 34       0.018617175483
 35       0.060774964018
 36       0.035307137129
 37       0.014579816561
 38      -0.016463896913
 39       0.005003951221
 40       0.006302931595
 41       0.004444288952
 42      -0.005838462144
 43       0.003567922609
 44       0.000492345131
 45       0.002310595633
 46      -0.043125735058
 47       0.002960866531
 48       0.006754961069
 49      -0.002980207275
 50      -0.009481435358
 51       0.002706439130
 52      -0.026559430339
 53      -0.002157025910
 54      -0.006873599888
 55      -0.003776519443
 56      -0.005400279614
 57       0.002706494725
 58      -0.026560412996
 59      -0.002157778730
 60       0.006873595702
 61       0.003776865354
 62      -0.005400152039
 63       0.002310555805
 64      -0.043125689888
 65       0.002961713059
 66      -0.006754981263
 67       0.002980162404
 68      -0.009481834808
 69       0.001178012381
 70      -0.002231802025
 71      -0.000000009822
 72       0.000000017687
 73       0.001581374738
 74       0.023089310721
 75      -0.000000002143
 76       0.000000003809
 77      -0.037011102995
 78       0.311525958815
 79      -0.000000313442
 80      -0.000000118534
 81      -0.130589094985
 82      -0.142672091338
 83      -0.000000045763
 84      -0.000000026453
 85       0.024238897955
 86       0.001277879596
 87       0.000000035966
 88       0.000000044358
 89      -0.005045182033
 90      -0.001739491512
 91       1.521234940973
 92      -1.584647561253
 93       0.000135364441
 94       0.001164627946
 95       0.002356372158
 96       0.228200406933
 97       0.001399116630
 98      -0.007711240782
 99      -0.009620692609
100      -0.398577770311
101      -0.030222627786
102       0.095335986523
103       0.032988824245
104      -0.015375246720
105      -0.008895592748
106       0.024282107396
107       0.042516575113
108      -0.003732130214
109       0.000842778687
110       0.003505635524
111       0.005999313088
112       0.004078259792
113       1.521231256133
114      -1.584643718298
115      -0.000135366141
116      -0.001164625852
117       0.002356371528
118       0.228199854800
119      -0.001399128579
120       0.007711218820
121      -0.009620675586
122      -0.398576856253
123       0.030222726682
124      -0.095335895442
125       0.032988539082
126      -0.015376091305
127       0.008895894436
128      -0.024282405981
129       0.042516491769
130      -0.003732120519
131      -0.000842819950
132      -0.003505667979
133       0.005999311753
134       0.004078250110
135       0.648575566720
136      -0.674438314330
137       0.000000009903
138       0.000000005724
139       0.001641798886
140       0.084301014112
141      -0.000000031691
142      -0.000000017314
143      -0.007473171199
144      -0.092366959108
145       0.000000082280
146       0.000000018492
147       0.027114750214
148       0.050773061905
149       0.000000055438
150      -0.000000032545
151       0.003340648600
152      -0.000704142788
153       0.000000000875
154       0.000000010182
155      -0.000826044744
156      -0.000488499953
 Sym=     1a
 Ene= 4.98930018881110E+01
 Spin= Alpha
 Occup= 0.000000
  1       0.005048283970
  2      -0.008441392230
  3       0.002159573737
  4      -0.001401765846
  5       0.005812589396
  6      -0.001621470518
  7      -0.003472529421
  8      -0.005995241398
  9       0.004618319956
 10       0.323005678221
 11       0.008831959002
 12       0.114199989426
 13       0.066929178439
 14      -0.758429477531
 15      -0.002560490552
 16      -0.165617184280
 17      -0.102920735981
 18      -0.009347959233
 19      -0.001641868733
 20       0.006551735020
 21       0.005947222454
 22       0.003987830313
 23      -0.005048226820
 24       0.008441296108
 25       0.002159591053
 26      -0.001401782744
 27      -0.005812566330
 28       0.001621640704
 29      -0.003472802999
 30      -0.005995119546
 31      -0.004618515878
 32      -0.323004280652
 33       0.008825981205
 34       0.114200500823
 35      -0.066929884022
 36       0.758428382210
 37      -0.002561226034
 38      -0.165616864988
 39       0.102920480314
 40       0.009347899621
 41      -0.001641748232
 42       0.006551597575
 43      -0.005947119085
 44      -0.003987701558
 45       0.004895638938
 46      -0.055214780946
 47       0.021171670992
 48       0.003262344482
 49      -0.008881197503
 50      -0.014029850041
 51       0.000688767871
 52      -0.059186612415
 53       0.039827548808
 54      -0.011159066385
 55      -0.006852617675
 56      -0.009453549602
 57      -0.000688758725
 58       0.059187954643
 59      -0.039825533649
 60      -0.011159029689
 61      -0.006852580410
 62       0.009453270962
 63      -0.004895519692
 64       0.055212224249
 65      -0.021173354776
 66       0.003262111726
 67      -0.008880991864
 68       0.014029649852
 69      -0.000000058891
 70       0.000000098150
 71       0.005943525097
 72      -0.017710275724
 73       0.000000076635
 74      -0.000000177364
 75      -0.006243582649
 76       0.003639032999
 77      -0.000000274165
 78       0.000000148455
 79       0.061007443416
 80      -0.167605535180
 81      -0.000000554356
 82       0.000001079352
 83      -0.000849603525
 84      -0.067139650912
 85      -0.000000734178
 86      -0.000000182942
 87       0.003457695057
 88      -0.024957573212
 89      -0.000000013602
 90      -0.000000073047
 91      -1.589097984996
 92       1.658539363494
 93       0.003074942651
 94      -0.008040817864
 95       0.000577633817
 96      -0.249823183331
 97      -0.011288473432
 98       0.030199498209
 99      -0.001012816114
100       0.400435291123
101       0.029139575561
102      -0.073246649453
103      -0.023145784938
104      -0.122048016352
105      -0.010448888288
106       0.006184434510
107       0.069762868242
108       0.005999023877
109      -0.001637226991
110       0.002485875431
111       0.000663961453
112      -0.000931857367
113       1.589099454637
114      -1.658540892893
115       0.003074956072
116      -0.008040781167
117      -0.000577594803
118       0.249823428774
119      -0.011288496070
120       0.030199368232
121       0.001012678309
122      -0.400436282316
123       0.029139293170
124      -0.073246535428
125       0.023146085008
126       0.122047368929
127      -0.010449821629
128       0.006184537808
129      -0.069762102717
130      -0.005999062049
131      -0.001637132032
132       0.002485822191
133      -0.000663957128
134       0.000931835116
135       0.000005579001
136      -0.000005812301
137      -0.000834824038
138      -0.001489804692
139       0.000000053707
140       0.000000752413
141       0.002944427475
142       0.002792610427
143      -0.000000223093
144      -0.000000356105
145      -0.016615468019
146       0.037609601572
147       0.000000042454
148       0.000000186626
149      -0.002215049428
150       0.019751308975
151       0.000000198247
152       0.000000050138
153       0.002325254535
154      -0.011308107721
155       0.000000006881
156      -0.000000005610
 Sym=     1a
 Ene= 5.00255553028589E+01
 Spin= Alpha
 Occup= 0.000000
  1      -0.003554703883
  2       0.006057346476
  3       0.001408939930
  4       0.000333619458
  5       0.000651030727
  6      -0.022460291114
  7      -0.010667480270
  8      -0.001369820425
  9      -0.017342460579
 10      -0.030764032684
 11      -0.118414881668
 12       0.048380565311
 13       0.034747847938
 14      -0.074195078922
 15      -0.017268595675
 16      -0.007508152979
 17      -0.022214432202
 18      -0.003652230969
 19       0.001215665637
 20       0.006371969494
 21       0.001323519824
 22       0.002332196120
 23      -0.003554736978
 24       0.006057405795
 25      -0.001408945927
 26      -0.000333571028
 27       0.000651010138
 28      -0.022461084598
 29       0.010667531090
 30       0.001369618072
 31      -0.017342212339
 32      -0.030756099031
 33       0.118415072596
 34      -0.048383939754
 35       0.034751441319
 36      -0.074196523155
 37       0.017268503711
 38       0.007508354060
 39      -0.022214284005
 40      -0.003652335349
 41      -0.001215808753
 42      -0.006371937208
 43       0.001323570268
 44       0.002332287822
 45      -0.003135218964
 46       0.040775316334
 47       0.044603837381
 48      -0.002199084881
 49      -0.000485958374
 50       0.003686435306
 51       0.004718090325
 52      -0.047264597030
 53      -0.010216455119
 54      -0.002984535900
 55      -0.007269450265
 56      -0.005925172806
 57       0.004718149840
 58      -0.047265788385
 59      -0.010215926544
 60       0.002984752860
 61       0.007269436336
 62      -0.005925255734
 63      -0.003135318598
 64       0.040775597522
 65       0.044604714131
 66       0.002199143601
 67       0.000485913897
 68       0.003686505191
 69      -0.014464183817
 70       0.023517438166
 71       0.000000017486
 72       0.000000020528
 73       0.035441407127
 74       0.006489803270
 75      -0.000000072076
 76       0.000000088526
 77      -0.111146381087
 78       0.201919441279
 79       0.000000311307
 80       0.000000087823
 81       0.580644229758
 82       0.111786352846
 83      -0.000000171832
 84       0.000000085162
 85      -0.048473424496
 86      -0.081094002076
 87      -0.000000044611
 88       0.000000042113
 89      -0.014669157419
 90      -0.005310570331
 91      -0.458922033518
 92       0.480497783565
 93       0.000412460369
 94      -0.004756954724
 95       0.004465670791
 96      -0.082147406315
 97      -0.001974478905
 98       0.018933336921
 99      -0.009969357703
100       0.177950964772
101       0.004425433263
102      -0.071200426102
103      -0.057404326856
104       0.083544225458
105      -0.006881520741
106      -0.005632233291
107      -0.037522300416
108      -0.005531375064
109      -0.002606996540
110       0.012817342005
111      -0.003167847872
112      -0.001090964811
113      -0.458929168920
114       0.480505252727
115      -0.000412463094
116       0.004756968286
117       0.004465673073
118      -0.082148830424
119       0.001974519906
120      -0.018933409136
121      -0.009969339789
122       0.177955118997
123      -0.004426065594
124       0.071201062413
125      -0.057405481729
126       0.083544629702
127       0.006881373077
128       0.005632180654
129      -0.037522021664
130      -0.005531324571
131       0.002607067833
132      -0.012817336105
133      -0.003167839874
134      -0.001091014901
135       2.152069292784
136      -2.249328845735
137       0.000000018991
138      -0.000000001667
139       0.023315485785
140       0.358532338110
141      -0.000000077816
142       0.000000015233
143      -0.102490252128
144      -0.567714821771
145       0.000000098505
146      -0.000000085528
147       0.155721580204
148      -0.188168270521
149       0.000000145328
150       0.000000008093
151       0.080745662997
152       0.020864980637
153       0.000000029237
154       0.000000012622
155       0.001105578720
156       0.000691561668
