10
Coordinates from ORCA-job EC E -342.332113489524
  C           0.00001518151412     -0.76531459945877     -1.30093021341932
  C          -0.00002112065389      0.76531413615333     -1.30093079703567
  H           0.77352694975252     -1.20670834581281     -1.92772059598912
  H          -0.97460933561493     -1.18643783188691     -1.56109987185380
  H           0.97460799133262      1.18643214885819     -1.56109077206392
  H          -0.77352560850535      1.20671225870724     -1.92772729334279
  C           0.00000167328469      0.00000053070873      0.85211973842682
  O          -0.28473673881743      1.07924985577262      0.07250326523098
  O           0.28473854700329     -1.07924847756117      0.07250245279085
  O           0.00000246070436      0.00000032451954      2.04038472725597
