 Entering Gaussian System, Link 0=g16
 Initial command:
 /home/hush/g16/l1.exe "/home/hush/g16/Scratch/Gau-681145.inp" -scrdir="/home/hush/g16/Scratch/"
 Default CPUs for threads: 0
 Entering Link 1 = /home/hush/g16/l1.exe PID=    681147.
  
 Copyright (c) 1988,1990,1992,1993,1995,1998,2003,2009,2016,
            Gaussian, Inc.  All Rights Reserved.
  
 This is part of the Gaussian(R) 16 program.  It is based on
 the Gaussian(R) 09 system (copyright 2009, Gaussian, Inc.),
 the Gaussian(R) 03 system (copyright 2003, Gaussian, Inc.),
 the Gaussian(R) 98 system (copyright 1998, Gaussian, Inc.),
 the Gaussian(R) 94 system (copyright 1995, Gaussian, Inc.),
 the Gaussian 92(TM) system (copyright 1992, Gaussian, Inc.),
 the Gaussian 90(TM) system (copyright 1990, Gaussian, Inc.),
 the Gaussian 88(TM) system (copyright 1988, Gaussian, Inc.),
 the Gaussian 86(TM) system (copyright 1986, Carnegie Mellon
 University), and the Gaussian 82(TM) system (copyright 1983,
 Carnegie Mellon University). Gaussian is a federally registered
 trademark of Gaussian, Inc.
  
 This software contains proprietary and confidential information,
 including trade secrets, belonging to Gaussian, Inc.
  
 This software is provided under written license and may be
 used, copied, transmitted, or stored only in accord with that
 written license.
  
 The following legend is applicable only to US Government
 contracts under FAR:
  
                    RESTRICTED RIGHTS LEGEND
  
 Use, reproduction and disclosure by the US Government is
 subject to restrictions as set forth in subparagraphs (a)
 and (c) of the Commercial Computer Software - Restricted
 Rights clause in FAR 52.227-19.
  
 Gaussian, Inc.
 340 Quinnipiac St., Bldg. 40, Wallingford CT 06492
  
  
 ---------------------------------------------------------------
 Warning -- This program may not be used in any manner that
 competes with the business of Gaussian, Inc. or will provide
 assistance to any competitor of Gaussian, Inc.  The licensee
 of this program is prohibited from giving any competitor of
 Gaussian, Inc. access to this program.  By using this program,
 the user acknowledges that Gaussian, Inc. is engaged in the
 business of creating and licensing software in the field of
 computational chemistry and represents and warrants to the
 licensee that it is not a competitor of Gaussian, Inc. and that
 it will not use this program in any manner prohibited above.
 ---------------------------------------------------------------
  

 Cite this work as:
 Gaussian 16, Revision A.03,
 M. J. Frisch, G. W. Trucks, H. B. Schlegel, G. E. Scuseria, 
 M. A. Robb, J. R. Cheeseman, G. Scalmani, V. Barone, 
 G. A. Petersson, H. Nakatsuji, X. Li, M. Caricato, A. V. Marenich, 
 J. Bloino, B. G. Janesko, R. Gomperts, B. Mennucci, H. P. Hratchian, 
 J. V. Ortiz, A. F. Izmaylov, J. L. Sonnenberg, D. Williams-Young, 
 F. Ding, F. Lipparini, F. Egidi, J. Goings, B. Peng, A. Petrone, 
 T. Henderson, D. Ranasinghe, V. G. Zakrzewski, J. Gao, N. Rega, 
 G. Zheng, W. Liang, M. Hada, M. Ehara, K. Toyota, R. Fukuda, 
 J. Hasegawa, M. Ishida, T. Nakajima, Y. Honda, O. Kitao, H. Nakai, 
 T. Vreven, K. Throssell, J. A. Montgomery, Jr., J. E. Peralta, 
 F. Ogliaro, M. J. Bearpark, J. J. Heyd, E. N. Brothers, K. N. Kudin, 
 V. N. Staroverov, T. A. Keith, R. Kobayashi, J. Normand, 
 K. Raghavachari, A. P. Rendell, J. C. Burant, S. S. Iyengar, 
 J. Tomasi, M. Cossi, J. M. Millam, M. Klene, C. Adamo, R. Cammi, 
 J. W. Ochterski, R. L. Martin, K. Morokuma, O. Farkas, 
 J. B. Foresman, and D. J. Fox, Gaussian, Inc., Wallingford CT, 2016.
 
 ******************************************
 Gaussian 16:  ES64L-G16RevA.03 25-Dec-2016
                30-Jul-2026 
 ******************************************
 %mem=5GB
 %nprocshared=8
 Will use up to    8 processors via shared memory.
 %chk=EC_opt.chk
 -------------------
 # b3lyp/def2TZVP SP
 -------------------
 1/38=1,172=1/1;
 2/12=2,17=6,18=5,40=1/2;
 3/5=44,7=101,11=2,25=1,30=1,74=-5/1,2,3;
 4//1;
 5/5=2,38=5/2;
 6/7=2,8=2,9=2,10=2,28=1/1;
 99/5=1,9=1/99;
 ------
 EC_opt
 ------
 Symbolic Z-matrix:
 Charge =  0 Multiplicity = 1
 C                     0.00002  -0.76531  -1.30093 
 C                    -0.00002   0.76531  -1.30093 
 H                     0.77353  -1.20671  -1.92772 
 H                    -0.97461  -1.18644  -1.5611 
 H                     0.97461   1.18643  -1.56109 
 H                    -0.77353   1.20671  -1.92773 
 C                     0.        0.        0.85212 
 O                    -0.28474   1.07925   0.0725 
 O                     0.28474  -1.07925   0.0725 
 O                     0.        0.        2.04038 
 
                          Input orientation:                          
 ---------------------------------------------------------------------
 Center     Atomic      Atomic             Coordinates (Angstroms)
 Number     Number       Type             X           Y           Z
 ---------------------------------------------------------------------
      1          6           0        0.000015   -0.765315   -1.300930
      2          6           0       -0.000021    0.765314   -1.300931
      3          1           0        0.773527   -1.206708   -1.927721
      4          1           0       -0.974609   -1.186438   -1.561100
      5          1           0        0.974608    1.186432   -1.561091
      6          1           0       -0.773526    1.206712   -1.927727
      7          6           0        0.000002    0.000001    0.852120
      8          8           0       -0.284737    1.079250    0.072503
      9          8           0        0.284739   -1.079248    0.072502
     10          8           0        0.000002    0.000000    2.040385
 ---------------------------------------------------------------------
                    Distance matrix (angstroms):
                    1          2          3          4          5
     1  C    0.000000
     2  C    1.530629   0.000000
     3  H    1.089043   2.209098   0.000000
     4  H    1.093127   2.197008   1.786282   0.000000
     5  H    2.197005   1.093126   2.429398   3.070824   0.000000
     6  H    2.209102   1.089043   2.866700   2.429407   1.786282
     7  C    2.285023   2.285023   3.127619   2.860268   2.860256
     8  O    2.317287   1.437338   3.216586   2.877138   2.065446
     9  O    1.437338   2.317287   2.063020   2.065455   2.877126
    10  O    3.427841   3.427841   4.219046   3.915124   3.915112
                    6          7          8          9         10
     6  H    0.000000
     7  C    3.127626   0.000000
     8  O    2.063028   1.361491   0.000000
     9  O    3.216591   1.361491   2.232357   0.000000
    10  O    4.219054   1.188265   2.262391   2.262391   0.000000
 Stoichiometry    C3H4O3
 Framework group  C1[X(C3H4O3)]
 Deg. of freedom    24
 Full point group                 C1      NOp   1
 Largest Abelian subgroup         C1      NOp   1
 Largest concise Abelian subgroup C1      NOp   1
                         Standard orientation:                         
 ---------------------------------------------------------------------
 Center     Atomic      Atomic             Coordinates (Angstroms)
 Number     Number       Type             X           Y           Z
 ---------------------------------------------------------------------
      1          6           0        1.301083   -0.755551   -0.121853
      2          6           0        1.301084    0.755552    0.121851
      3          1           0        1.927873   -1.314488    0.571502
      4          1           0        1.561255   -1.016101   -1.151101
      5          1           0        1.561242    1.016095    1.151103
      6          1           0        1.927881    1.314491   -0.571494
      7          6           0       -0.851967   -0.000000    0.000000
      8          8           0       -0.072350    1.110820   -0.109243
      9          8           0       -0.072350   -1.110819    0.109244
     10          8           0       -2.040232   -0.000000   -0.000001
 ---------------------------------------------------------------------
 Rotational constants (GHZ):           8.0468437           3.8285900           2.7069536
 Standard basis: def2TZVP (5D, 7F)
 There are   240 symmetry adapted cartesian basis functions of A   symmetry.
 There are   210 symmetry adapted basis functions of A   symmetry.
   210 basis functions,   338 primitive gaussians,   240 cartesian basis functions
    23 alpha electrons       23 beta electrons
       nuclear repulsion energy       245.9945326338 Hartrees.
 NAtoms=   10 NActive=   10 NUniq=   10 SFac= 1.00D+00 NAtFMM=   60 NAOKFM=F Big=F
 Integral buffers will be    131072 words long.
 Raffenetti 2 integral format.
 Two-electron integral symmetry is turned on.
 One-electron integrals computed using PRISM.
   1 Symmetry operations used in ECPInt.
 ECPInt:  NShTT=    3403 NPrTT=   10584 LenC2=    3368 LenP2D=    8723.
 LDataN:  DoStor=T MaxTD1= 6 Len=  172
 NBasis=   210 RedAO= T EigKep=  3.94D-04  NBF=   210
 NBsUse=   210 1.00D-06 EigRej= -1.00D+00 NBFU=   210
 ExpMin= 9.52D-02 ExpMax= 2.70D+04 ExpMxC= 9.22D+02 IAcc=3 IRadAn=         5 AccDes= 0.00D+00
 Harris functional with IExCor=  402 and IRadAn=       5 diagonalized for initial guess.
 HarFok:  IExCor=  402 AccDes= 0.00D+00 IRadAn=         5 IDoV= 1 UseB2=F ITyADJ=14
 ICtDFT=  3500011 ScaDFX=  1.000000  1.000000  1.000000  1.000000
 FoFCou: FMM=F IPFlag=           0 FMFlag=      100000 FMFlg1=           0
         NFxFlg=           0 DoJE=T BraDBF=F KetDBF=T FulRan=T
         wScrn=  0.000000 ICntrl=       500 IOpCl=  0 I1Cent=   200000004 NGrid=           0
         NMat0=    1 NMatS0=      1 NMatT0=    0 NMatD0=    1 NMtDS0=    0 NMtDT0=    0
 Petite list used in FoFCou.
 Keep R1 ints in memory in canonical form, NReq=253997812.
 Requested convergence on RMS density matrix=1.00D-08 within 128 cycles.
 Requested convergence on MAX density matrix=1.00D-06.
 Requested convergence on             energy=1.00D-06.
 No special actions if energy rises.
 Integral accuracy reduced to 1.0D-05 until final iterations.
 Initial convergence to 1.0D-05 achieved.  Increase integral accuracy.
 SCF Done:  E(RB3LYP) =  -342.545391229     A.U. after   13 cycles
            NFock= 13  Conv=0.49D-08     -V/T= 2.0046

 **********************************************************************

            Population analysis using the SCF density.

 **********************************************************************

 Orbital symmetries:
       Occupied  (A) (A) (A) (A) (A) (A) (A) (A) (A) (A) (A) (A)
                 (A) (A) (A) (A) (A) (A) (A) (A) (A) (A) (A)
       Virtual   (A) (A) (A) (A) (A) (A) (A) (A) (A) (A) (A) (A)
                 (A) (A) (A) (A) (A) (A) (A) (A) (A) (A) (A) (A)
                 (A) (A) (A) (A) (A) (A) (A) (A) (A) (A) (A) (A)
                 (A) (A) (A) (A) (A) (A) (A) (A) (A) (A) (A) (A)
                 (A) (A) (A) (A) (A) (A) (A) (A) (A) (A) (A) (A)
                 (A) (A) (A) (A) (A) (A) (A) (A) (A) (A) (A) (A)
                 (A) (A) (A) (A) (A) (A) (A) (A) (A) (A) (A) (A)
                 (A) (A) (A) (A) (A) (A) (A) (A) (A) (A) (A) (A)
                 (A) (A) (A) (A) (A) (A) (A) (A) (A) (A) (A) (A)
                 (A) (A) (A) (A) (A) (A) (A) (A) (A) (A) (A) (A)
                 (A) (A) (A) (A) (A) (A) (A) (A) (A) (A) (A) (A)
                 (A) (A) (A) (A) (A) (A) (A) (A) (A) (A) (A) (A)
                 (A) (A) (A) (A) (A) (A) (A) (A) (A) (A) (A) (A)
                 (A) (A) (A) (A) (A) (A) (A) (A) (A) (A) (A) (A)
                 (A) (A) (A) (A) (A) (A) (A) (A) (A) (A) (A) (A)
                 (A) (A) (A) (A) (A) (A) (A)
 The electronic state is 1-A.
 Alpha  occ. eigenvalues --  -19.19299 -19.19297 -19.11985 -10.35158 -10.26463
 Alpha  occ. eigenvalues --  -10.26441  -1.16630  -1.05563  -1.05044  -0.79618
 Alpha  occ. eigenvalues --   -0.69129  -0.61848  -0.55809  -0.53091  -0.51760
 Alpha  occ. eigenvalues --   -0.45750  -0.45203  -0.45005  -0.39373  -0.39103
 Alpha  occ. eigenvalues --   -0.32616  -0.32385  -0.30789
 Alpha virt. eigenvalues --    0.01586   0.02215   0.02834   0.05471   0.06412
 Alpha virt. eigenvalues --    0.11004   0.11579   0.12872   0.15960   0.16037
 Alpha virt. eigenvalues --    0.19508   0.19514   0.23237   0.25864   0.27310
 Alpha virt. eigenvalues --    0.28902   0.30033   0.33018   0.34918   0.35246
 Alpha virt. eigenvalues --    0.35419   0.38145   0.40362   0.42372   0.43399
 Alpha virt. eigenvalues --    0.45927   0.48803   0.51842   0.51976   0.54141
 Alpha virt. eigenvalues --    0.55730   0.58195   0.58817   0.62535   0.62622
 Alpha virt. eigenvalues --    0.65515   0.74694   0.77765   0.78547   0.81058
 Alpha virt. eigenvalues --    0.81526   0.86118   0.86384   0.89432   0.91644
 Alpha virt. eigenvalues --    0.98237   0.99652   1.01385   1.01683   1.07279
 Alpha virt. eigenvalues --    1.09382   1.16626   1.27502   1.28688   1.38445
 Alpha virt. eigenvalues --    1.38652   1.41366   1.46414   1.48083   1.50131
 Alpha virt. eigenvalues --    1.50317   1.55085   1.55340   1.59221   1.67100
 Alpha virt. eigenvalues --    1.70414   1.72259   1.76323   1.81599   1.81992
 Alpha virt. eigenvalues --    1.84553   1.85685   1.89048   1.91687   1.95699
 Alpha virt. eigenvalues --    1.97823   1.99142   2.02355   2.06140   2.10466
 Alpha virt. eigenvalues --    2.11218   2.16445   2.19891   2.21975   2.27433
 Alpha virt. eigenvalues --    2.30303   2.31768   2.36156   2.42631   2.47427
 Alpha virt. eigenvalues --    2.47858   2.52279   2.58224   2.60847   2.62381
 Alpha virt. eigenvalues --    2.70087   2.73885   2.75236   2.77077   2.77733
 Alpha virt. eigenvalues --    2.82890   2.85252   2.92299   2.92343   2.95779
 Alpha virt. eigenvalues --    2.98726   2.98790   3.00971   3.04587   3.04891
 Alpha virt. eigenvalues --    3.09118   3.11343   3.13452   3.18033   3.20219
 Alpha virt. eigenvalues --    3.26435   3.27499   3.28277   3.29458   3.31985
 Alpha virt. eigenvalues --    3.37272   3.40193   3.45441   3.49974   3.51557
 Alpha virt. eigenvalues --    3.54108   3.62392   3.65830   3.68133   3.73017
 Alpha virt. eigenvalues --    3.76574   3.92804   3.99969   4.03884   4.05215
 Alpha virt. eigenvalues --    4.06606   4.24180   4.28423   4.29543   4.37528
 Alpha virt. eigenvalues --    4.47208   4.61692   4.62824   4.68319   4.76399
 Alpha virt. eigenvalues --    5.15058   5.18102   5.19310   5.34515   5.40036
 Alpha virt. eigenvalues --    5.43322   5.46088   5.52218   5.62220   5.64198
 Alpha virt. eigenvalues --    5.69589   5.74891   5.77178   5.95535   5.96228
 Alpha virt. eigenvalues --    6.06070   6.19928   6.20427   6.26008   6.35309
 Alpha virt. eigenvalues --    6.43403   6.44714   6.59234   6.64504   6.69715
 Alpha virt. eigenvalues --    6.75326   6.77337   6.80193   6.82955   6.83417
 Alpha virt. eigenvalues --    7.01175   7.04355   7.15970   7.25439   7.37022
 Alpha virt. eigenvalues --    7.42467  22.28161  22.35654  23.39083  43.82509
 Alpha virt. eigenvalues --   43.88845  44.06533
          Condensed to atoms (all electrons):
               1          2          3          4          5          6
     1  C    4.791574   0.331656   0.403775   0.401009  -0.043775  -0.029670
     2  C    0.331656   4.791575  -0.029670  -0.043775   0.401010   0.403775
     3  H    0.403775  -0.029670   0.589742  -0.048366  -0.009815   0.003298
     4  H    0.401009  -0.043775  -0.048366   0.618521   0.009659  -0.009814
     5  H   -0.043775   0.401010  -0.009815   0.009659   0.618521  -0.048366
     6  H   -0.029670   0.403775   0.003298  -0.009814  -0.048366   0.589741
     7  C   -0.044422  -0.044422   0.002763   0.003485   0.003485   0.002763
     8  O   -0.056818   0.263671   0.003724   0.004513  -0.043294  -0.033835
     9  O    0.263671  -0.056818  -0.033835  -0.043293   0.004513   0.003724
    10  O    0.001701   0.001701  -0.000077   0.000464   0.000464  -0.000077
               7          8          9         10
     1  C   -0.044422  -0.056818   0.263671   0.001701
     2  C   -0.044422   0.263671  -0.056818   0.001701
     3  H    0.002763   0.003724  -0.033835  -0.000077
     4  H    0.003485   0.004513  -0.043293   0.000464
     5  H    0.003485  -0.043294   0.004513   0.000464
     6  H    0.002763  -0.033835   0.003724  -0.000077
     7  C    4.283372   0.351221   0.351221   0.736089
     8  O    0.351221   7.937060  -0.088231  -0.085841
     9  O    0.351221  -0.088231   7.937059  -0.085842
    10  O    0.736089  -0.085841  -0.085842   7.696240
 Mulliken charges:
               1
     1  C   -0.018701
     2  C   -0.018702
     3  H    0.118461
     4  H    0.107597
     5  H    0.107597
     6  H    0.118462
     7  C    0.354446
     8  O   -0.252169
     9  O   -0.252169
    10  O   -0.264822
 Sum of Mulliken charges =  -0.00000
 Mulliken charges with hydrogens summed into heavy atoms:
               1
     1  C    0.207357
     2  C    0.207357
     7  C    0.354446
     8  O   -0.252169
     9  O   -0.252169
    10  O   -0.264822
 Electronic spatial extent (au):  <R**2>=            457.0100
 Charge=             -0.0000 electrons
 Dipole moment (field-independent basis, Debye):
    X=              5.4257    Y=              0.0000    Z=             -0.0000  Tot=              5.4257
 Quadrupole moment (field-independent basis, Debye-Ang):
   XX=            -36.3410   YY=            -36.1644   ZZ=            -32.3404
   XY=              0.0000   XZ=             -0.0000   YZ=              0.6656
 Traceless Quadrupole moment (field-independent basis, Debye-Ang):
   XX=             -1.3924   YY=             -1.2158   ZZ=              2.6082
   XY=              0.0000   XZ=             -0.0000   YZ=              0.6656
 Octapole moment (field-independent basis, Debye-Ang**2):
  XXX=             17.6044  YYY=              0.0000  ZZZ=              0.0000  XYY=              3.3872
  XXY=              0.0000  XXZ=             -0.0000  XZZ=             -0.0491  YZZ=             -0.0000
  YYZ=             -0.0000  XYZ=             -0.4245
 Hexadecapole moment (field-independent basis, Debye-Ang**3):
 XXXX=           -371.9260 YYYY=           -174.5619 ZZZZ=            -43.8512 XXXY=              0.0001
 XXXZ=             -0.0002 YYYX=              0.0000 YYYZ=             -1.0779 ZZZX=              0.0000
 ZZZY=              0.8069 XXYY=            -80.6174 XXZZ=            -61.5351 YYZZ=            -34.5959
 XXYZ=             -1.8618 YYXZ=             -0.0000 ZZXY=             -0.0000
 N-N= 2.459945326338D+02 E-N=-1.295790776989D+03  KE= 3.409937320438D+02
 1\1\GINC-HUSH-MIND\SP\RB3LYP\def2TZVP\C3H4O3\HUSH\30-Jul-2026\0\\# b3l
 yp/def2TZVP SP\\EC_opt\\0,1\C,0,0.00001518,-0.7653146,-1.30093022\C,0,
 -0.00002112,0.76531414,-1.30093081\H,0,0.77352695,-1.20670835,-1.92772
 061\H,0,-0.97460934,-1.18643784,-1.56109988\H,0,0.974608,1.18643216,-1
 .56109078\H,0,-0.77352561,1.20671226,-1.92772731\C,0,0.00000167,0.0000
 0053,0.85211974\O,0,-0.28473674,1.07924986,0.07250327\O,0,0.28473855,-
 1.07924848,0.07250245\O,0,0.00000246,0.00000032,2.04038474\\Version=ES
 64L-G16RevA.03\State=1-A\HF=-342.5453912\RMSD=4.863e-09\Dipole=-0.0000
 037,-0.0000007,-2.1346354\Quadrupole=1.7114378,-0.6762221,-1.0352157,0
 .9167437,0.0000123,-0.0000027\PG=C01 [X(C3H4O3)]\\@


 LOVE IS BLIND, THAT'S WHY ALL THE WORLD LOVES A LOUVER.
 Job cpu time:       0 days  0 hours  1 minutes 15.1 seconds.
 Elapsed time:       0 days  0 hours  0 minutes 11.8 seconds.
 File lengths (MBytes):  RWF=     23 Int=      0 D2E=      0 Chk=      4 Scr=      1
 Normal termination of Gaussian 16 at Thu Jul 30 23:39:54 2026.
