[Molden Format]
[Title]
 Molden file created by orca_2mkl for BaseName=EC_SP

[Atoms] AU
C    1   6          0.0000286860        -1.4462350003        -2.4584018351 
C    2   6         -0.0000399110         1.4462341310        -2.4584029312 
H    3   1          1.4617540927        -2.2803483050        -3.6428640156 
H    4   1         -1.8417447402        -2.2420425925        -2.9500512409 
H    5   1          1.8417422079         2.2420318400        -2.9500340444 
H    6   1         -1.4617515605         2.2803556938        -3.6428766579 
C    7   6          0.0000031558         0.0000010016         1.6102729419 
O    8   8         -0.5380744589         2.0394866655         0.1370113241 
O    9   8          0.5380778793        -2.0394840577         0.1370097745 
O   10   8          0.0000046487         0.0000006047         3.8557683664 
[GTO]
  1 0
s   5 1.0 
     1238.4016938000         0.8208956682
      186.2900499200         1.4766449896
       42.2511763460         2.1526124058
       11.6765579320         2.1081722461
        3.5930506482         0.8290999933
s   1 1.0 
        0.4024514736         0.3601183351
s   1 1.0 
        0.1309018267         0.1551027052
p   3 1.0 
        9.4680970621         1.3467645142
        2.0103545142         1.0678070931
        0.5477100471         0.5108735714
p   1 1.0 
        0.1526861379         0.1360471976
d   1 1.0 
        0.8000000000         1.9292013661

  2 0
s   5 1.0 
     1238.4016938000         0.8208956682
      186.2900499200         1.4766449896
       42.2511763460         2.1526124058
       11.6765579320         2.1081722461
        3.5930506482         0.8290999933
s   1 1.0 
        0.4024514736         0.3601183351
s   1 1.0 
        0.1309018267         0.1551027052
p   3 1.0 
        9.4680970621         1.3467645142
        2.0103545142         1.0678070931
        0.5477100471         0.5108735714
p   1 1.0 
        0.1526861379         0.1360471976
d   1 1.0 
        0.8000000000         1.9292013661

  3 0
s   3 1.0 
       13.0107010000         0.1634903809
        1.9622572000         0.2773515510
        0.4445379600         0.3157501452
s   1 1.0 
        0.1219496200         0.1470772262
p   1 1.0 
        0.8000000000         1.0784563492

  4 0
s   3 1.0 
       13.0107010000         0.1634903809
        1.9622572000         0.2773515510
        0.4445379600         0.3157501452
s   1 1.0 
        0.1219496200         0.1470772262
p   1 1.0 
        0.8000000000         1.0784563492

  5 0
s   3 1.0 
       13.0107010000         0.1634903809
        1.9622572000         0.2773515510
        0.4445379600         0.3157501452
s   1 1.0 
        0.1219496200         0.1470772262
p   1 1.0 
        0.8000000000         1.0784563492

  6 0
s   3 1.0 
       13.0107010000         0.1634903809
        1.9622572000         0.2773515510
        0.4445379600         0.3157501452
s   1 1.0 
        0.1219496200         0.1470772262
p   1 1.0 
        0.8000000000         1.0784563492

  7 0
s   5 1.0 
     1238.4016938000         0.8208956682
      186.2900499200         1.4766449896
       42.2511763460         2.1526124058
       11.6765579320         2.1081722461
        3.5930506482         0.8290999933
s   1 1.0 
        0.4024514736         0.3601183351
s   1 1.0 
        0.1309018267         0.1551027052
p   3 1.0 
        9.4680970621         1.3467645142
        2.0103545142         1.0678070931
        0.5477100471         0.5108735714
p   1 1.0 
        0.1526861379         0.1360471976
d   1 1.0 
        0.8000000000         1.9292013661

  8 0
s   5 1.0 
     2266.1767785000        -1.2615859742
      340.8701019100        -2.2748500410
       77.3631351670        -3.3479623295
       21.4796449400        -3.3299980531
        6.6589433124        -1.3203828288
s   1 1.0 
        0.8097597567         0.6083832301
s   1 1.0 
        0.2553077223         0.2559811911
p   3 1.0 
       17.7215043170         3.2460107647
        3.8635505440         2.5734959178
        1.0480920883         1.1208372892
p   1 1.0 
        0.2764154441         0.2856886381
d   1 1.0 
        1.2000000000         3.9222679946

  9 0
s   5 1.0 
     2266.1767785000        -1.2615859742
      340.8701019100        -2.2748500410
       77.3631351670        -3.3479623295
       21.4796449400        -3.3299980531
        6.6589433124        -1.3203828288
s   1 1.0 
        0.8097597567         0.6083832301
s   1 1.0 
        0.2553077223         0.2559811911
p   3 1.0 
       17.7215043170         3.2460107647
        3.8635505440         2.5734959178
        1.0480920883         1.1208372892
p   1 1.0 
        0.2764154441         0.2856886381
d   1 1.0 
        1.2000000000         3.9222679946

 10 0
s   5 1.0 
     2266.1767785000        -1.2615859742
      340.8701019100        -2.2748500410
       77.3631351670        -3.3479623295
       21.4796449400        -3.3299980531
        6.6589433124        -1.3203828288
s   1 1.0 
        0.8097597567         0.6083832301
s   1 1.0 
        0.2553077223         0.2559811911
p   3 1.0 
       17.7215043170         3.2460107647
        3.8635505440         2.5734959178
        1.0480920883         1.1208372892
p   1 1.0 
        0.2764154441         0.2856886381
d   1 1.0 
        1.2000000000         3.9222679946

[5D]
[7F]
[9G]
[MO]
 Sym=     1a
 Ene= -1.91894676902494E+01
 Spin= Alpha
 Occup= 2.000000
  1       0.000025925851
  2      -0.000744880400
  3       0.020924856990
  4       0.000029700705
  5       0.000066778837
  6       0.000490515935
  7       0.001051779120
  8       0.004559161206
  9       0.005098151488
 10      -0.000473712704
 11      -0.000180466223
 12       0.000335705258
 13       0.000089207511
 14       0.000092902946
 15      -0.000025919503
 16       0.000745116757
 17      -0.020919500095
 18       0.000029662753
 19       0.000067085057
 20      -0.000489932051
 21       0.001050614660
 22       0.004560285536
 23      -0.005096661613
 24       0.000473572089
 25      -0.000180254361
 26       0.000335361523
 27      -0.000089086253
 28      -0.000092827738
 29      -0.001104190419
 30      -0.001883535904
 31      -0.000104279958
 32      -0.000316186478
 33      -0.000465844354
 34      -0.001102000878
 35      -0.001130844479
 36      -0.000057192732
 37      -0.000084522419
 38      -0.000348950381
 39       0.001101577950
 40       0.001129714483
 41      -0.000057022724
 42      -0.000084381803
 43       0.000348764254
 44       0.001103365688
 45       0.001882512409
 46      -0.000104376276
 47      -0.000316130027
 48       0.000465719128
 49       0.000000049132
 50       0.000000468501
 51       0.000004312327
 52       0.000004628152
 53      -0.000647706710
 54      -0.000000211872
 55       0.003118954491
 56      -0.008854409117
 57      -0.000003769276
 58       0.000000323800
 59       0.000309980457
 60      -0.001351073020
 61       0.000000281561
 62       0.000000167761
 63       0.698618802354
 64      -0.031540406751
 65       0.027160559625
 66      -0.000615277880
 67       0.001618286552
 68       0.000323417110
 69       0.001561800560
 70      -0.003914028115
 71      -0.001070509830
 72       0.000246392617
 73      -0.000069322424
 74       0.000114102435
 75       0.000028779079
 76      -0.000048574849
 77      -0.699205775574
 78       0.031565712557
 79      -0.027180671013
 80      -0.000615659713
 81       0.001619430831
 82      -0.000323958154
 83       0.001562959538
 84      -0.003917860477
 85       0.001072367374
 86      -0.000246324901
 87      -0.000069350799
 88       0.000114145871
 89      -0.000028732485
 90       0.000048608760
 91       0.000000394812
 92      -0.000000499621
 93       0.000001467390
 94       0.000139779656
 95      -0.000181065852
 96       0.000000165085
 97      -0.001068206045
 98       0.002662114833
 99      -0.000000234086
100      -0.000000065652
101       0.000162724702
102      -0.000541745913
103      -0.000000065902
104      -0.000000037794
 Sym=     1a
 Ene= -1.91893265723479E+01
 Spin= Alpha
 Occup= 2.000000
  1      -0.000004476367
  2      -0.000292817655
  3      -0.006425238156
  4      -0.000069666342
  5       0.000371504972
  6      -0.000684688099
  7      -0.001158224492
  8       0.001386597464
  9      -0.001821723400
 10       0.000170569598
 11       0.000248519450
 12      -0.000417380740
 13      -0.000138691562
 14      -0.000055323630
 15      -0.000004499415
 16      -0.000292157569
 17      -0.006443002617
 18       0.000069686505
 19      -0.000371439447
 20      -0.000685104442
 21       0.001159030239
 22      -0.001382656759
 23      -0.001826013329
 24       0.000170961089
 25      -0.000248669469
 26       0.000417654824
 27      -0.000138770375
 28      -0.000055410828
 29       0.000958506595
 30       0.001156012362
 31      -0.000140534824
 32       0.000012715454
 33       0.000213577703
 34       0.000541618012
 35       0.001443512764
 36       0.000196809560
 37       0.000159763461
 38       0.000201572704
 39       0.000542559846
 40       0.001444509928
 41      -0.000196848955
 42      -0.000159855945
 43       0.000201852455
 44       0.000959418492
 45       0.001157560356
 46       0.000140422995
 47      -0.000013016032
 48       0.000213940165
 49      -0.000152997591
 50      -0.001126549086
 51      -0.010265969515
 52       0.000000003929
 53      -0.000000273294
 54       0.000504470300
 55       0.000001322282
 56      -0.000003716554
 57       0.008919060755
 58      -0.000773821505
 59       0.000000128319
 60      -0.000000566541
 61      -0.000669427285
 62      -0.000404627518
 63       0.699375281983
 64      -0.030158168212
 65       0.023973460278
 66      -0.000450595877
 67       0.001364555998
 68       0.000646577283
 69       0.001388800373
 70      -0.004565749026
 71      -0.002222996494
 72      -0.000079385257
 73      -0.000035427736
 74       0.000049668089
 75      -0.000055469887
 76      -0.000040413602
 77       0.698788451725
 78      -0.030131675784
 79       0.023950644684
 80       0.000450087665
 81      -0.001363194543
 82       0.000646304876
 83      -0.001387500996
 84       0.004562446108
 85      -0.002222095086
 86      -0.000079591676
 87       0.000035368050
 88      -0.000049570650
 89      -0.000055494855
 90      -0.000040371617
 91      -0.000902705248
 92       0.001179054377
 93      -0.003449759755
 94       0.000000059162
 95      -0.000000075861
 96      -0.000393360264
 97      -0.000000450472
 98       0.000001116203
 99       0.000549578887
100       0.000155896181
101       0.000000068291
102      -0.000000227354
103       0.000156807317
104       0.000089252632
 Sym=     1a
 Ene= -1.91192430144150E+01
 Spin= Alpha
 Occup= 2.000000
  1      -0.000100134391
  2       0.001611404476
  3      -0.002590033607
  4       0.000017278736
  5      -0.000013841504
  6       0.000448790096
  7       0.002041655690
  8      -0.000968307260
  9      -0.001967196959
 10       0.000053243164
 11       0.000098643745
 12      -0.000152065966
 13       0.000029775467
 14       0.000025385494
 15      -0.000100128219
 16       0.001611398160
 17      -0.002590334732
 18      -0.000017201066
 19       0.000013834326
 20       0.000448834877
 21      -0.002041617744
 22       0.000968409211
 23      -0.001967147663
 24       0.000053255002
 25      -0.000098834408
 26       0.000152088492
 27       0.000029804115
 28       0.000025411098
 29      -0.000285886314
 30      -0.000910017647
 31       0.000087228553
 32       0.000045474062
 33       0.000073254607
 34       0.000430815372
 35       0.000856177095
 36      -0.000099645246
 37       0.000096510859
 38       0.000168353669
 39       0.000430782408
 40       0.000856186957
 41       0.000099681691
 42      -0.000096473935
 43       0.000168364596
 44      -0.000285716078
 45      -0.000909975368
 46      -0.000087149409
 47      -0.000045532853
 48       0.000073297956
 49      -0.000243166782
 50      -0.003178253382
 51      -0.007145213983
 52       0.000000002515
 53      -0.000000003816
 54       0.000933340996
 55      -0.000000030127
 56      -0.000000012415
 57      -0.022019670578
 58       0.002272123748
 59       0.000000004695
 60       0.000000002181
 61      -0.000037891956
 62      -0.000075325789
 63       0.000823679056
 64       0.000963410462
 65      -0.004711099932
 66       0.000028294001
 67      -0.000334496846
 68      -0.000065007284
 69      -0.000389824573
 70       0.002911183076
 71       0.001525410723
 72       0.000270082960
 73       0.000047889152
 74      -0.000233756559
 75       0.000230628825
 76       0.000122402694
 77       0.000823704351
 78       0.000963419048
 79      -0.004711125387
 80      -0.000028299014
 81       0.000334498172
 82      -0.000065013123
 83       0.000389846197
 84      -0.002911188099
 85       0.001525385891
 86       0.000270103089
 87      -0.000047896965
 88       0.000233745960
 89       0.000230624559
 90       0.000122407282
 91       0.988473065523
 92      -0.044101117915
 93       0.039303599695
 94       0.000000000142
 95      -0.000000001306
 96       0.003246956987
 97       0.000000001532
 98       0.000000005470
 99      -0.008427568816
100      -0.000501998103
101      -0.000000000890
102       0.000000000305
103       0.000007203169
104       0.000003925068
 Sym=     1a
 Ene= -1.03569619196516E+01
 Spin= Alpha
 Occup= 2.000000
  1       0.000077355074
  2      -0.000723186539
  3       0.002506524831
  4       0.000240931024
  5      -0.000165189677
  6       0.000442759745
  7      -0.004033147357
  8       0.002392858843
  9       0.003356940124
 10       0.000550575805
 11      -0.000043961459
 12       0.000451949677
 13       0.000091549353
 14       0.000108410751
 15       0.000077295258
 16      -0.000723211425
 17       0.002506756185
 18      -0.000240935754
 19       0.000165190683
 20       0.000442759207
 21       0.004033183270
 22      -0.002392972640
 23       0.003357047309
 24       0.000550577974
 25       0.000043963979
 26      -0.000451948202
 27       0.000091548438
 28       0.000108407116
 29       0.000758988576
 30       0.001958148516
 31      -0.000067040117
 32      -0.000211463415
 33      -0.000083831790
 34      -0.000904774283
 35      -0.001034753954
 36       0.000211789053
 37      -0.000375542844
 38      -0.000278201839
 39      -0.000904794757
 40      -0.001034768047
 41      -0.000211792731
 42       0.000375544178
 43      -0.000278196373
 44       0.000759003304
 45       0.001958181078
 46       0.000067039790
 47       0.000211461218
 48      -0.000083829166
 49       0.988108878206
 50       0.050621084288
 51      -0.004102888482
 52      -0.000000000564
 53      -0.000000000035
 54      -0.000318208546
 55       0.000000010453
 56      -0.000000016102
 57       0.010748830380
 58       0.002792206686
 59       0.000000005703
 60       0.000000000003
 61      -0.001839254403
 62      -0.000912387965
 63      -0.000005378755
 64       0.001350955152
 65      -0.006144164801
 66      -0.000004420565
 67       0.000447747064
 68      -0.000452076310
 69      -0.002130171866
 70       0.004931177512
 71      -0.002755846121
 72      -0.000084222962
 73      -0.000212242256
 74       0.001245302257
 75       0.001012570353
 76       0.000636055189
 77      -0.000005396629
 78       0.001350960553
 79      -0.006144108173
 80       0.000004419792
 81      -0.000447745693
 82      -0.000452075523
 83       0.002130161635
 84      -0.004931172342
 85      -0.002755886024
 86      -0.000084223395
 87       0.000212240467
 88      -0.001245304819
 89       0.001012570625
 90       0.000636052686
 91       0.000325719983
 92       0.001628645670
 93      -0.017403860809
 94       0.000000000886
 95      -0.000000000643
 96       0.001156211805
 97       0.000000004566
 98       0.000000002206
 99       0.009095630717
100      -0.000806108977
101      -0.000000000487
102      -0.000000000097
103       0.000039105568
104       0.000020192725
 Sym=     1a
 Ene= -1.02726616065759E+01
 Spin= Alpha
 Occup= 2.000000
  1      -0.698830879782
  2      -0.035314869074
  3       0.021700754175
  4       0.000031271296
  5       0.001631002383
  6      -0.000603788998
  7      -0.002569171378
  8       0.000861878989
  9       0.001462432107
 10      -0.000559664795
 11       0.000212015428
 12      -0.000404996509
 13      -0.001520977491
 14      -0.000066479594
 15      -0.698820060847
 16      -0.035314305427
 17       0.021700332571
 18      -0.000031292334
 19      -0.001631010179
 20      -0.000603790349
 21       0.002569239442
 22      -0.000861848048
 23       0.001462553148
 24      -0.000559682139
 25      -0.000212041264
 26       0.000404988015
 27      -0.001520977125
 28      -0.000066466786
 29       0.003110630343
 30      -0.004258341631
 31      -0.001480816276
 32       0.000327131102
 33       0.001008913707
 34       0.002019590077
 35      -0.006253202549
 36       0.001764074165
 37       0.000163640027
 38       0.000141743842
 39       0.002019516876
 40      -0.006253135134
 41      -0.001764046411
 42      -0.000163613003
 43       0.000141715319
 44       0.003110626426
 45      -0.004258217327
 46       0.001480786710
 47      -0.000327138618
 48       0.001008910855
 49       0.000229485684
 50       0.000859474835
 51      -0.008800642174
 52      -0.000000001490
 53       0.000000002568
 54       0.000671494387
 55       0.000000036557
 56       0.000000001345
 57       0.013849232468
 58      -0.000672765979
 59      -0.000000001365
 60      -0.000000003908
 61       0.000302277583
 62       0.000091117978
 63      -0.000016148420
 64      -0.001244509964
 65       0.006099609385
 66       0.000028677373
 67       0.000218824887
 68      -0.000276909412
 69       0.000979099326
 70      -0.003231664168
 71      -0.001672633104
 72       0.000902970676
 73      -0.000359532947
 74       0.000273088319
 75      -0.000129627099
 76      -0.000217433466
 77      -0.000016148604
 78      -0.001244525683
 79       0.006099680109
 80      -0.000028674470
 81      -0.000218825294
 82      -0.000276911962
 83      -0.000979138559
 84       0.003231687853
 85      -0.001672688013
 86       0.000902983272
 87       0.000359548318
 88      -0.000273091848
 89      -0.000129627562
 90      -0.000217438658
 91       0.000127085805
 92       0.001325828710
 93      -0.007401688772
 94       0.000000001631
 95       0.000000001470
 96      -0.000047527805
 97      -0.000000009304
 98      -0.000000003944
 99       0.000856702413
100       0.000163293008
101       0.000000001061
102      -0.000000000212
103      -0.000006590908
104      -0.000002985902
 Sym=     1a
 Ene= -1.02725774807416E+01
 Spin= Alpha
 Occup= 2.000000
  1       0.698416487980
  2       0.036432188238
  3      -0.032695076296
  4      -0.000045263032
  5       0.000509749001
  6       0.000141017226
  7       0.000870493536
  8      -0.004615094954
  9       0.002494198613
 10      -0.000553484904
 11      -0.000160320828
 12       0.000527094578
 13      -0.000354491992
 14       0.000016004429
 15      -0.698427314071
 16      -0.036432735161
 17       0.032695409698
 18      -0.000045282304
 19       0.000509721965
 20      -0.000141029401
 21       0.000870531365
 22      -0.004615111000
 23      -0.002494165450
 24       0.000553469002
 25      -0.000160351203
 26       0.000527103936
 27       0.000354472917
 28      -0.000015992055
 29      -0.002505341089
 30       0.005557828175
 31       0.001350980239
 32      -0.000809181770
 33      -0.001239046199
 34      -0.002248764440
 35       0.006031178875
 36      -0.001681506692
 37      -0.000683775525
 38      -0.000541866635
 39       0.002248790584
 40      -0.006031267523
 41      -0.001681533733
 42      -0.000683773313
 43       0.000541850738
 44       0.002505396949
 45      -0.005557903644
 46       0.001350996230
 47      -0.000809192196
 48       0.001239078886
 49      -0.000000040471
 50       0.000000000867
 51      -0.000000042265
 52      -0.000000351443
 53      -0.000284155829
 54       0.000000006590
 55      -0.000692056063
 56       0.000101117845
 57       0.000000100320
 58      -0.000000005441
 59      -0.000004595909
 60       0.000391294862
 61       0.000000001051
 62       0.000000000923
 63       0.000041367403
 64      -0.000607188047
 65       0.001319257113
 66      -0.000034103504
 67       0.000063795398
 68      -0.000225331628
 69       0.000952003525
 70      -0.001592736597
 71      -0.002628627402
 72       0.000935944388
 73      -0.000354799280
 74       0.000450258856
 75      -0.000244529661
 76      -0.000208980552
 77      -0.000041366883
 78       0.000607169124
 79      -0.001319185246
 80      -0.000034103056
 81       0.000063791678
 82       0.000225327708
 83       0.000951991945
 84      -0.001592690471
 85       0.002628598040
 86      -0.000935929652
 87      -0.000354802268
 88       0.000450251956
 89       0.000244525304
 90       0.000208978802
 91       0.000000001644
 92       0.000000015418
 93      -0.000000066450
 94      -0.000009972433
 95      -0.000123831485
 96      -0.000000000880
 97       0.000168829739
 98       0.000236727989
 99       0.000000009968
100       0.000000001050
101      -0.000018705407
102       0.000031984049
103      -0.000000000077
104       0.000000000080
 Sym=     1a
 Ene= -1.14879197528830E+00
 Spin= Alpha
 Occup= 2.000000
  1      -0.056300734406
  2       0.103647625687
  3       0.004276363820
  4       0.008364511576
  5       0.011215422393
  6       0.061436067382
  7      -0.003167337029
  8       0.006898391692
  9       0.008230471203
 10       0.010111111320
 11       0.002832513571
 12       0.000199368394
 13      -0.002813188634
 14      -0.000517835645
 15      -0.056300685475
 16       0.103647491107
 17       0.004276689434
 18      -0.008364058022
 19      -0.011215367881
 20       0.061436075190
 21       0.003167346983
 22      -0.006898481399
 23       0.008230694175
 24       0.010111151031
 25      -0.002832546730
 26      -0.000199354828
 27      -0.002813167366
 28      -0.000517843682
 29       0.014182105670
 30       0.006504435229
 31      -0.002271564620
 32       0.001232020896
 33       0.002218534631
 34       0.014783313927
 35       0.002548449603
 36       0.003326756605
 37       0.001414551728
 38       0.000829441819
 39       0.014783452908
 40       0.002548421424
 41      -0.003326783453
 42      -0.001414520159
 43       0.000829402263
 44       0.014182026185
 45       0.006504476294
 46       0.002271576528
 47      -0.001232078976
 48       0.002218549805
 49      -0.148411820378
 50       0.293531522505
 51       0.017018187901
 52      -0.000000049662
 53      -0.000000099854
 54      -0.048370504904
 55       0.000000007220
 56      -0.000000039489
 57       0.008124182173
 58       0.015667225114
 59       0.000000040663
 60       0.000000023853
 61      -0.012450009750
 62      -0.006820170566
 63       0.160175123721
 64       0.316235068279
 65       0.188945893467
 66       0.029063243036
 67      -0.086390377110
 68      -0.007058873454
 69       0.011240873804
 70      -0.034649880470
 71      -0.010319369555
 72       0.001906535842
 73      -0.000499857403
 74      -0.002033040989
 75      -0.006045482796
 76      -0.004074610539
 77       0.160175361905
 78       0.316235515980
 79       0.188946345646
 80      -0.029063487921
 81       0.086390394586
 82      -0.007058786991
 83      -0.011240988175
 84       0.034649903378
 85      -0.010319449020
 86       0.001906552113
 87       0.000499922963
 88       0.002033061422
 89      -0.006045462854
 90      -0.004074632026
 91       0.076673704986
 92       0.150912231279
 93       0.057688175058
 94      -0.000000042769
 95      -0.000000003395
 96      -0.063849058387
 97       0.000000000531
 98       0.000000007031
 99      -0.006537095761
100       0.006066397629
101       0.000000006707
102       0.000000000455
103       0.000530770792
104       0.000246412350
 Sym=     1a
 Ene= -1.03450577000718E+00
 Spin= Alpha
 Occup= 2.000000
  1       0.054154503158
  2      -0.106419559045
  3       0.020620228190
  4      -0.016288551350
  5       0.027734989990
  6      -0.071694196965
  7      -0.001508660250
  8       0.008023559912
  9      -0.006390575513
 10      -0.013583476531
 11      -0.004322945023
 12       0.004104844736
 13      -0.001114810105
 14       0.000483690887
 15      -0.054153989238
 16       0.106418559680
 17      -0.020620257800
 18      -0.016287964281
 19       0.027735205500
 20       0.071693804274
 21      -0.001508917610
 22       0.008023616303
 23       0.006390473258
 24       0.013583446087
 25      -0.004322802903
 26       0.004104894837
 27       0.001114815203
 28      -0.000483632551
 29      -0.019675399530
 30      -0.007556572065
 31       0.002390182153
 32      -0.001292820278
 33      -0.002583232257
 34      -0.018595141147
 35      -0.006644997436
 36      -0.003249738111
 37      -0.000983868415
 38      -0.001033077226
 39       0.018595245512
 40       0.006645047925
 41      -0.003249724038
 42      -0.000983843358
 43       0.001033018147
 44       0.019675003259
 45       0.007556410518
 46       0.002390105439
 47      -0.001292756964
 48       0.002583259512
 49      -0.000000766276
 50       0.000001581912
 51       0.000000217355
 52      -0.041036572355
 53       0.163276654692
 54       0.000001757516
 55      -0.004251876989
 56       0.016921628229
 57       0.000000207688
 58       0.000000143158
 59       0.006261334154
 60      -0.026139193858
 61       0.000000018067
 62      -0.000000023150
 63       0.199729703491
 64       0.403009880505
 65       0.252860831885
 66       0.026681549752
 67      -0.063670131260
 68      -0.021869583431
 69       0.011272297395
 70      -0.025445548404
 71      -0.019704099143
 72       0.004761237487
 73      -0.001236520394
 74      -0.001145563879
 75      -0.002913015336
 76      -0.002521360877
 77      -0.199730388318
 78      -0.403011280091
 79      -0.252861686788
 80       0.026681940739
 81      -0.063670269012
 82       0.021870101444
 83       0.011272441514
 84      -0.025445568955
 85       0.019704283067
 86      -0.004761232015
 87      -0.001236587819
 88      -0.001145539227
 89       0.002913015585
 90       0.002521380204
 91       0.000001652755
 92       0.000003292479
 93       0.000001509580
 94      -0.004803573364
 95       0.019102644820
 96      -0.000001140128
 97      -0.001143220041
 98       0.004188950414
 99      -0.000000143010
100       0.000000113017
101       0.000865577047
102      -0.003610007501
103       0.000000011055
104      -0.000000003805
 Sym=     1a
 Ene= -1.02921660712628E+00
 Spin= Alpha
 Occup= 2.000000
  1       0.042216639660
  2      -0.082415688589
  3      -0.004612812788
  4      -0.005793685112
  5      -0.008940356276
  6      -0.038404643190
  7      -0.001457626495
  8      -0.003805670209
  9      -0.002934599388
 10      -0.005670239642
 11      -0.001978056069
 12       0.000380827975
 13       0.002034088710
 14       0.000429850307
 15       0.042217378853
 16      -0.082417158768
 17      -0.004612494404
 18       0.005793683585
 19       0.008939956819
 20      -0.038405568795
 21       0.001457698381
 22       0.003805556540
 23      -0.002934394931
 24      -0.005670324013
 25       0.001977642829
 26      -0.000380874482
 27       0.002034194190
 28       0.000429829429
 29      -0.012808203057
 30      -0.002720599944
 31       0.001690817404
 32      -0.001030557754
 33      -0.001619337225
 34      -0.014173289275
 35      -0.002797402440
 36      -0.002371815787
 37      -0.001156541243
 38      -0.000771738180
 39      -0.014173776066
 40      -0.002797473819
 41       0.002371932261
 42       0.001156634632
 43      -0.000771691504
 44      -0.012808134797
 45      -0.002720623426
 46      -0.001690709322
 47       0.001030508268
 48      -0.001619312836
 49      -0.102232713186
 50       0.213689066148
 51       0.029654397022
 52       0.000000495605
 53      -0.000001139593
 54       0.261694502500
 55       0.000000045234
 56      -0.000000193605
 57       0.039399633136
 58       0.022935853221
 59      -0.000000015657
 60       0.000000163359
 61       0.003158821062
 62       0.001548528108
 63      -0.063938621928
 64      -0.129130882337
 65      -0.078793792106
 66      -0.011018310067
 67       0.026195379174
 68       0.045732928960
 69      -0.004297044706
 70       0.008986316270
 71       0.016980455712
 72      -0.000549117930
 73       0.001493307906
 74      -0.003161329118
 75       0.001551809904
 76       0.001184803118
 77      -0.063935958091
 78      -0.129125552441
 79      -0.078790208647
 80       0.011018130077
 81      -0.026194506261
 82       0.045732637239
 83       0.004296993920
 84      -0.008985937976
 85       0.016980003378
 86      -0.000549013237
 87      -0.001493317267
 88       0.003161319415
 89       0.001551750660
 90       0.001184784402
 91       0.241681403917
 92       0.482816357798
 93       0.212191731092
 94      -0.000000066406
 95      -0.000000098436
 96      -0.166970712395
 97       0.000000010206
 98      -0.000000008337
 99      -0.017470955071
100       0.014263849320
101       0.000000005712
102       0.000000016951
103       0.001230954287
104       0.000555576920
 Sym=     1a
 Ene= -7.84084351606724E-01
 Spin= Alpha
 Occup= 2.000000
  1       0.172548941786
  2      -0.352255995692
  3      -0.079709194791
  4      -0.002337131139
  5      -0.065580338480
  6       0.020456840492
  7       0.000037129096
  8      -0.028055830893
  9       0.008299240779
 10       0.004316836600
 11      -0.001062668751
 12       0.002450000920
 13       0.007410674461
 14       0.000554850188
 15       0.172548878897
 16      -0.352255865085
 17      -0.079709347276
 18       0.002336434810
 19       0.065580380392
 20       0.020456672821
 21      -0.000037058651
 22       0.028055850208
 23       0.008299280365
 24       0.004316782679
 25       0.001062707975
 26      -0.002450010285
 27       0.007410675256
 28       0.000554864241
 29      -0.109030159506
 30      -0.018092119424
 31       0.009951318817
 32      -0.006192608319
 33      -0.006790684784
 34      -0.103832525998
 35      -0.017656400919
 36      -0.011655382316
 37      -0.005803302130
 38      -0.002185140092
 39      -0.103832721509
 40      -0.017656338545
 41       0.011655409177
 42       0.005803285976
 43      -0.002185035714
 44      -0.109029882810
 45      -0.018092062735
 46      -0.009951225898
 47       0.006192626624
 48      -0.006790783773
 49      -0.073041053498
 50       0.163132666045
 51       0.032635046819
 52      -0.000000029769
 53      -0.000000124454
 54      -0.137849913010
 55      -0.000000024499
 56      -0.000000032285
 57      -0.029309340640
 58      -0.010425455377
 59      -0.000000013444
 60       0.000000024415
 61      -0.012292345270
 62      -0.007295449761
 63       0.046491410706
 64       0.102141704700
 65       0.051965407847
 66       0.005941621169
 67      -0.054536602798
 68       0.135318990634
 69      -0.000446792153
 70      -0.017880986329
 71       0.063018940221
 72      -0.006281744220
 73       0.003124926731
 74      -0.008008959958
 75      -0.002884320135
 76      -0.001417059436
 77       0.046491442825
 78       0.102141815511
 79       0.051965326704
 80      -0.005941305732
 81       0.054536801154
 82       0.135319309807
 83       0.000446967228
 84       0.017880994774
 85       0.063019110514
 86      -0.006281799390
 87      -0.003124980717
 88       0.008008959282
 89      -0.002884353322
 90      -0.001417027970
 91      -0.060001794638
 92      -0.122366779606
 93      -0.073976777931
 94       0.000000021175
 95      -0.000000030834
 96       0.008587554828
 97      -0.000000007957
 98       0.000000007294
 99      -0.002229993961
100       0.000195201347
101      -0.000000001043
102       0.000000003494
103      -0.000285559388
104      -0.000140161718
 Sym=     1a
 Ene= -6.81136883939094E-01
 Spin= Alpha
 Occup= 2.000000
  1       0.137543616316
  2      -0.296383066777
  3       0.005075824092
  4      -0.008100322472
  5       0.108979519569
  6      -0.017732342266
  7       0.002760035666
  8       0.046938478928
  9       0.005208547163
 10      -0.007604944521
 11      -0.001699144004
 12       0.003913433740
 13      -0.005497201892
 14       0.001412534174
 15      -0.137543795265
 16       0.296383441041
 17      -0.005075780408
 18      -0.008099369004
 19       0.108979408586
 20       0.017732343013
 21       0.002759292167
 22       0.046938417638
 23      -0.005208764215
 24       0.007604932311
 25      -0.001699013878
 26       0.003913409393
 27       0.005497166927
 28      -0.001412451338
 29      -0.130008351981
 30      -0.034960022698
 31       0.009566261440
 32      -0.003691944569
 33      -0.007206979036
 34      -0.123139249522
 35      -0.029639703974
 36      -0.011584637222
 37      -0.002889002035
 38      -0.002594347423
 39       0.123139514289
 40       0.029640076601
 41      -0.011584673155
 42      -0.002888927925
 43       0.002594236189
 44       0.130008379287
 45       0.034959736956
 46       0.009566241900
 47      -0.003692018856
 48       0.007207082729
 49      -0.000000005953
 50      -0.000000027691
 51      -0.000000030311
 52       0.076950520721
 53      -0.231203765890
 54      -0.000000134410
 55       0.015247359586
 56      -0.026100231471
 57      -0.000000083759
 58       0.000000037708
 59      -0.006023376926
 60       0.015441605426
 61       0.000000008626
 62       0.000000006785
 63      -0.030615730609
 64      -0.069979373258
 65      -0.026874109817
 66       0.012017924029
 67       0.078100035089
 68      -0.225072497349
 69       0.009940850422
 70       0.029611411974
 71      -0.114978657983
 72       0.006317466291
 73      -0.004237488935
 74       0.007442554966
 75       0.003428098394
 76       0.000216950453
 77       0.030615546294
 78       0.069978958721
 79       0.026873884106
 80       0.012018573080
 81       0.078100245039
 82       0.225072494389
 83       0.009941083306
 84       0.029611594429
 85       0.114978625522
 86      -0.006317401306
 87      -0.004237499782
 88       0.007442540380
 89      -0.003428081435
 90      -0.000216960802
 91       0.000000007273
 92       0.000000010583
 93       0.000000097158
 94       0.021941930771
 95      -0.063909785853
 96      -0.000000011354
 97       0.008429109584
 98      -0.030176688116
 99      -0.000000032891
100       0.000000005592
101      -0.002307524152
102       0.006465396853
103       0.000000002876
104       0.000000002382
 Sym=     1a
 Ene= -6.06251676926240E-01
 Spin= Alpha
 Occup= 2.000000
  1       0.038536502572
  2      -0.079543422268
  3      -0.020942951782
  4       0.041256526158
  5      -0.162794365741
  6       0.132814808654
  7       0.018722681337
  8      -0.057474466221
  9       0.042374956027
 10       0.011578311283
 11       0.006502689137
 12      -0.012339732889
 13       0.003859642446
 14      -0.003794221355
 15       0.038536264797
 16      -0.079542882614
 17      -0.020943281629
 18      -0.041254647646
 19       0.162794734336
 20       0.132814704898
 21      -0.018722169564
 22       0.057474833194
 23       0.042374877465
 24       0.011578318633
 25      -0.006502752112
 26       0.012339737197
 27       0.003859616317
 28      -0.003794140060
 29      -0.027726698965
 30      -0.007085188038
 31       0.002107789082
 32      -0.003608503587
 33       0.000873548809
 34      -0.039894920634
 35      -0.005119878848
 36      -0.002273282752
 37      -0.003730024017
 38       0.001453413405
 39      -0.039893592701
 40      -0.005119476719
 41       0.002273286724
 42       0.003729987978
 43       0.001453508259
 44      -0.027727306036
 45      -0.007085384674
 46      -0.002107730513
 47       0.003608444810
 48       0.000873484156
 49       0.130223994268
 50      -0.297646720660
 51      -0.057336258149
 52       0.000000149057
 53       0.000000027434
 54       0.164213878145
 55       0.000000083294
 56      -0.000000041620
 57       0.071968946451
 58       0.000208036885
 59      -0.000000015351
 60      -0.000000011011
 61       0.008595910944
 62       0.006068099285
 63       0.084370975813
 64       0.179835076727
 65       0.164873830092
 66      -0.033711158759
 67       0.206028786028
 68      -0.189025113323
 69      -0.017993956131
 70       0.103476044097
 71      -0.085670948080
 72       0.010237536681
 73      -0.002616548842
 74       0.003452915244
 75       0.008219981987
 76       0.004652546782
 77       0.084371030354
 78       0.179835248861
 79       0.164873742001
 80       0.033710698617
 81      -0.206028970639
 82      -0.189025280096
 83       0.017993902651
 84      -0.103476176700
 85      -0.085671026362
 86       0.010237496292
 87       0.002616592429
 88      -0.003452931269
 89       0.008219985286
 90       0.004652571804
 91       0.058744582109
 92       0.126078621772
 93       0.066474449625
 94       0.000000033782
 95      -0.000000007630
 96       0.046575466578
 97      -0.000000000072
 98       0.000000007647
 99       0.032540102905
100      -0.003286705703
101      -0.000000007006
102      -0.000000000044
103      -0.000077273112
104      -0.000047001618
 Sym=     1a
 Ene= -5.51375276649544E-01
 Spin= Alpha
 Occup= 2.000000
  1      -0.027145102764
  2       0.055889838465
  3       0.034938142036
  4      -0.253157088510
  5      -0.025144697186
  6      -0.036463771649
  7      -0.107360058187
  8       0.001988259503
  9      -0.004746260435
 10      -0.004068411138
 11      -0.006027801529
 12       0.002299838692
 13       0.002209296329
 14      -0.001136828579
 15       0.027144609745
 16      -0.055888906077
 17      -0.034936991671
 18      -0.253156827115
 19      -0.025142575999
 20       0.036462914525
 21      -0.107359729831
 22       0.001989075417
 23       0.004745993510
 24       0.004068595746
 25      -0.006027924054
 26       0.002299906520
 27      -0.002209466378
 28       0.001136850140
 29      -0.066684280791
 30      -0.003634371767
 31      -0.002180276322
 32      -0.003894591081
 33      -0.003231304386
 34       0.184552973549
 35       0.037014222030
 36       0.007433515564
 37       0.005614688111
 38       0.002693673326
 39      -0.184552417511
 40      -0.037014322072
 41       0.007433439091
 42       0.005614702140
 43      -0.002693599598
 44       0.066684185269
 45       0.003634420036
 46      -0.002180239776
 47      -0.003894567856
 48       0.003231346804
 49       0.000000210490
 50      -0.000000364749
 51      -0.000000012921
 52      -0.121902624751
 53      -0.152273522000
 54       0.000000582170
 55      -0.058829172443
 56      -0.037641144179
 57       0.000000554403
 58      -0.000000132854
 59       0.007076668368
 60       0.005646444046
 61      -0.000000022360
 62      -0.000000012368
 63       0.017070796372
 64       0.035908432023
 65       0.037589201874
 66      -0.189306984990
 67      -0.002788416458
 68      -0.112918129711
 69      -0.111262614122
 70      -0.008552593748
 71      -0.057056048901
 72       0.002952230153
 73       0.003189302384
 74       0.004667408448
 75      -0.005175721283
 76       0.008981470349
 77      -0.017069939680
 78      -0.035906605196
 79      -0.037587217572
 80      -0.189306137154
 81      -0.002790605350
 82       0.112919396691
 83      -0.111262165099
 84      -0.008553932427
 85       0.057056714473
 86      -0.002952221671
 87       0.003189230499
 88       0.004667516406
 89       0.005175818200
 90      -0.008981381469
 91      -0.000000086245
 92      -0.000000101323
 93      -0.000000607178
 94      -0.056489586606
 95      -0.066853077548
 96      -0.000000082346
 97      -0.023082319755
 98      -0.033358515644
 99       0.000000071016
100       0.000000010711
101       0.005288681981
102       0.005586507315
103       0.000000000732
104      -0.000000001981
 Sym=     1a
 Ene= -5.21612687739255E-01
 Spin= Alpha
 Occup= 2.000000
  1       0.004489458194
  2      -0.000059232673
  3      -0.015489692148
  4      -0.008264110527
  5       0.168339168326
  6       0.220487502589
  7      -0.010608080919
  8       0.061604465292
  9       0.078406856120
 10       0.011469139794
 11       0.004982962882
 12       0.008649571052
 13      -0.006832450787
 14       0.001518868748
 15       0.004489981816
 16      -0.000060314188
 17      -0.015490245224
 18       0.008264052777
 19      -0.168339530453
 20       0.220489022847
 21       0.010608125697
 22      -0.061604373661
 23       0.078407403655
 24       0.011469177492
 25      -0.004983236976
 26      -0.008649412721
 27      -0.006832397365
 28       0.001518947883
 29      -0.147102281181
 30      -0.038593568153
 31       0.007850151864
 32      -0.001746425006
 33      -0.002553869771
 34      -0.085301670486
 35      -0.031020359345
 36      -0.006271977204
 37       0.000560351496
 38       0.002238817973
 39      -0.085301121060
 40      -0.031020674568
 41       0.006272031869
 42      -0.000560435183
 43       0.002238842978
 44      -0.147104576215
 45      -0.038594031521
 46      -0.007850238171
 47       0.001746554794
 48      -0.002553925258
 49       0.038111779847
 50      -0.103654264465
 51      -0.070905644984
 52      -0.000001511213
 53      -0.000001418593
 54      -0.076053019143
 55      -0.000000709028
 56      -0.000000449814
 57      -0.017759606750
 58       0.026338858176
 59       0.000000089196
 60       0.000000024971
 61       0.012303910987
 62       0.007887042659
 63      -0.046760050601
 64      -0.100351349592
 65      -0.092783027254
 66       0.049772380118
 67      -0.153948728120
 68      -0.187767946097
 69       0.031673990057
 70      -0.109190504559
 71      -0.096065060489
 72      -0.003659145890
 73      -0.003844096099
 74       0.013504535848
 75      -0.006393653639
 76      -0.004649155815
 77      -0.046760363706
 78      -0.100352005517
 79      -0.092783800679
 80      -0.049776325158
 81       0.153948842753
 82      -0.187766087285
 83      -0.031676328564
 84       0.109190420155
 85      -0.096064143070
 86      -0.003659226714
 87       0.003844084042
 88      -0.013504476433
 89      -0.006393572131
 90      -0.004649384712
 91       0.068227497975
 92       0.135661137267
 93       0.177860998935
 94      -0.000000713180
 95      -0.000000729638
 96       0.120101880976
 97      -0.000000352414
 98      -0.000000349505
 99       0.050753316101
100      -0.007747796190
101       0.000000061533
102       0.000000056114
103       0.000985973138
104       0.000529638053
 Sym=     1a
 Ene= -5.10186858462182E-01
 Spin= Alpha
 Occup= 2.000000
  1       0.063530313948
  2      -0.141921995926
  3       0.025572532392
  4      -0.048567135591
  5       0.057723012943
  6       0.214867554944
  7      -0.023573517431
  8       0.044093176341
  9       0.092152177472
 10       0.013159094309
 11       0.006000477812
 12      -0.014782586026
 13      -0.006390887505
 14      -0.001349448731
 15      -0.063530452745
 16       0.141922333993
 17      -0.025572193283
 18      -0.048570176727
 19       0.057721770498
 20      -0.214867139211
 21      -0.023574747060
 22       0.044092723632
 23      -0.092152103152
 24      -0.013158924250
 25       0.006000364695
 26      -0.014782704152
 27       0.006390766634
 28       0.001349175416
 29      -0.203715670148
 30      -0.061053096883
 31       0.009590926550
 32      -0.004932895266
 33      -0.004463712346
 34      -0.094425747083
 35      -0.034377076067
 36      -0.007946105287
 37      -0.000987363082
 38       0.002269767332
 39       0.094421802918
 40       0.034375947409
 41      -0.007945954118
 42      -0.000987228617
 43      -0.002269901100
 44       0.203717638836
 45       0.061053539906
 46       0.009590845044
 47      -0.004933056891
 48       0.004463845733
 49       0.000000062320
 50      -0.000000131982
 51      -0.000000289010
 52      -0.174935864669
 53       0.183895306049
 54      -0.000000013355
 55      -0.065324526501
 56       0.053414424447
 57       0.000000233365
 58       0.000000063286
 59       0.003795007205
 60       0.000286289195
 61       0.000000036268
 62       0.000000014478
 63      -0.034548011465
 64      -0.077912519368
 65      -0.062475757102
 66      -0.100893377833
 67      -0.088112269933
 68       0.205897790446
 69      -0.060010159261
 70      -0.046998750668
 71       0.090546468985
 72      -0.000314169173
 73       0.003793459170
 74      -0.007984971358
 75      -0.004701065416
 76       0.004554652304
 77       0.034547865011
 78       0.077912178432
 79       0.062475733093
 80      -0.100893691708
 81      -0.088111598296
 82      -0.205898220968
 83      -0.060010163085
 84      -0.046998103505
 85      -0.090546682375
 86       0.000314163371
 87       0.003793503798
 88      -0.007984982875
 89       0.004701065905
 90      -0.004554667331
 91       0.000000123530
 92       0.000000275241
 93       0.000000197632
 94      -0.095393155882
 95       0.098962740364
 96       0.000000318671
 97      -0.048499811472
 98       0.050736308092
 99       0.000000168982
100      -0.000000037534
101       0.007506462090
102      -0.006678635748
103       0.000000002754
104      -0.000000000741
 Sym=     1a
 Ene= -4.50399789276506E-01
 Spin= Alpha
 Occup= 2.000000
  1       0.003178544864
  2      -0.009150211669
  3       0.008604839299
  4       0.259831332116
  5       0.117211531654
  6      -0.061016779850
  7       0.084564469431
  8       0.050410239347
  9      -0.014288938406
 10      -0.001423705891
 11       0.002457296028
 12       0.002600763053
 13      -0.003665783047
 14      -0.015418030757
 15       0.003178859665
 16      -0.009151384943
 17       0.008609567166
 18      -0.259833183121
 19      -0.117211164779
 20      -0.061015320034
 21      -0.084565165859
 22      -0.050411539555
 23      -0.014286512455
 24      -0.001423343478
 25      -0.002457502773
 26      -0.002600672208
 27      -0.003666142112
 28      -0.015418047211
 29       0.138526169084
 30       0.060309910473
 31       0.000878254439
 32       0.005859373238
 33       0.004782919010
 34      -0.219238831075
 35      -0.086892651857
 36      -0.006176227073
 37      -0.002455937205
 38      -0.006096009556
 39      -0.219241614628
 40      -0.086893753464
 41       0.006176366198
 42       0.002455891825
 43      -0.006095978135
 44       0.138524865102
 45       0.060309318575
 46      -0.000878361472
 47      -0.005859424675
 48       0.004782878935
 49       0.018492103575
 50      -0.035818869852
 51      -0.017480775803
 52       0.000002454619
 53      -0.000000553265
 54      -0.023645836690
 55       0.000001099074
 56      -0.000000251022
 57       0.042088180795
 58      -0.001574542728
 59       0.000000018385
 60       0.000000023548
 61       0.006486005726
 62      -0.014315949801
 63       0.016191722840
 64       0.033542647660
 65       0.049165071706
 66      -0.237101798068
 67      -0.038991045959
 68       0.006044095172
 69      -0.163178567595
 70      -0.028961931566
 71       0.000788083423
 72       0.001620280025
 73       0.007415295749
 74       0.002060403857
 75      -0.005518681210
 76       0.006616915784
 77       0.016191135154
 78       0.033541217340
 79       0.049165042543
 80       0.237103754695
 81       0.038993473388
 82       0.006044839186
 83       0.163179649424
 84       0.028963404702
 85       0.000787671397
 86       0.001620341013
 87      -0.007415187527
 88      -0.002060376187
 89      -0.005518840699
 90       0.006616981369
 91       0.017471654192
 92       0.039106779072
 93       0.015314870934
 94       0.000001899461
 95      -0.000000292665
 96       0.060139221321
 97       0.000001062691
 98      -0.000000113891
 99       0.037374418362
100      -0.003130291005
101      -0.000000130923
102       0.000000017705
103       0.000256278972
104      -0.000551505468
 Sym=     1a
 Ene= -4.44577056030457E-01
 Spin= Alpha
 Occup= 2.000000
  1      -0.001449883492
  2       0.001318623901
  3       0.017444335811
  4       0.192391307054
  5      -0.006137841834
  6      -0.047083789463
  7       0.072794247002
  8       0.009139439859
  9      -0.002269419780
 10       0.002136520200
 11      -0.012273778351
 12       0.002359387416
 13      -0.002014436927
 14       0.001468969969
 15       0.001449690179
 16      -0.001317845209
 17      -0.017444140310
 18       0.192387337639
 19      -0.006140728330
 20       0.047085141893
 21       0.072792223985
 22       0.009138922274
 23       0.002269335255
 24      -0.002136609371
 25      -0.012273896400
 26       0.002359544942
 27       0.002014452370
 28      -0.001469271750
 29       0.145789228486
 30       0.058444220909
 31      -0.002226728920
 32       0.005035312507
 33       0.002933800535
 34      -0.129724123318
 35      -0.043409482058
 36      -0.002524469400
 37      -0.005481049766
 38      -0.002596261828
 39       0.129720887742
 40       0.043408164951
 41      -0.002524443589
 42      -0.005481007020
 43       0.002596146748
 44      -0.145787754682
 45      -0.058444150792
 46      -0.002226677207
 47       0.005035179322
 48      -0.002933742057
 49      -0.000001717564
 50       0.000004165505
 51       0.000000052436
 52      -0.318029410900
 53      -0.142748302264
 54       0.000006796601
 55      -0.161828130674
 56      -0.057262265918
 57      -0.000000592273
 58       0.000000137685
 59      -0.006072342496
 60      -0.002899090683
 61       0.000000123865
 62      -0.000000037317
 63       0.011633101405
 64       0.022847438576
 65       0.042387352844
 66      -0.172575170115
 67      -0.029017642198
 68      -0.041543441443
 69      -0.107499681779
 70      -0.020595628140
 71      -0.028251348204
 72      -0.000499884408
 73      -0.006794481602
 74       0.000728386095
 75      -0.004684910949
 76       0.009309143421
 77      -0.011633523777
 78      -0.022848326101
 79      -0.042389007868
 80      -0.172571517030
 81      -0.029019722905
 82       0.041542445614
 83      -0.107497155570
 84      -0.020597018917
 85       0.028251435018
 86       0.000500150227
 87      -0.006794619388
 88       0.000728386972
 89       0.004684970329
 90      -0.009308974787
 91      -0.000002866494
 92      -0.000005945436
 93      -0.000006584493
 94      -0.255308377045
 95      -0.111685300164
 96      -0.000010212228
 97      -0.139138550012
 98      -0.063116365700
 99      -0.000005467428
100       0.000000468940
101       0.017139322945
102       0.007316384444
103      -0.000000003434
104      -0.000000010947
 Sym=     1a
 Ene= -4.35782276237797E-01
 Spin= Alpha
 Occup= 2.000000
  1      -0.010384600280
  2       0.035554237581
  3       0.006374376779
  4       0.038876104445
  5       0.066088372387
  6       0.102690414030
  7       0.027920585070
  8       0.015724771582
  9       0.032403166150
 10       0.002754366650
 11       0.003785374991
 12      -0.001966789757
 13      -0.003653027862
 14      -0.002445750776
 15      -0.010384622877
 16       0.035554314417
 17       0.006374022186
 18      -0.038884303132
 19      -0.066088021142
 20       0.102688691152
 21      -0.027924060342
 22      -0.015724595739
 23       0.032402671458
 24       0.002754495081
 25      -0.003784551066
 26       0.001966753106
 27      -0.003653128919
 28      -0.002445639943
 29      -0.040597467408
 30      -0.023160758148
 31       0.003108319812
 32       0.000372987399
 33       0.000790022187
 34      -0.059393817768
 35      -0.020456553920
 36      -0.003135873821
 37       0.000623499824
 38       0.001709224280
 39      -0.059398598404
 40      -0.020458109067
 41       0.003135881356
 42      -0.000623369004
 43       0.001709137015
 44      -0.040592429710
 45      -0.023158767860
 46      -0.003108359635
 47      -0.000373073325
 48       0.000790041822
 49      -0.070786321849
 50       0.170526937611
 51      -0.022862461730
 52       0.000007102825
 53       0.000002748868
 54       0.315569521921
 55       0.000003506062
 56       0.000001242416
 57      -0.035458775427
 58       0.015381531547
 59       0.000000203569
 60       0.000000073672
 61       0.009606651947
 62       0.004109715680
 63      -0.014751893548
 64      -0.031772686631
 65      -0.046141242542
 66      -0.023878264627
 67       0.026451947381
 68      -0.110833774792
 69      -0.015762898210
 70       0.014775680107
 71      -0.048813463047
 72       0.005187401103
 73      -0.000531373469
 74       0.003782322475
 75       0.001175977143
 76       0.001387369693
 77      -0.014751493297
 78      -0.031771853893
 79      -0.046140053618
 80       0.023884277719
 81      -0.026450648891
 82      -0.110835250557
 83       0.015766707771
 84      -0.014774864529
 85      -0.048814317855
 86       0.005187339297
 87       0.000531711271
 88      -0.003782335761
 89       0.001175789395
 90       0.001387707720
 91      -0.122917926653
 92      -0.255371445754
 93      -0.279988224360
 94       0.000005489456
 95       0.000002428041
 96      -0.488508184335
 97       0.000003033456
 98       0.000001379478
 99      -0.265222041056
100       0.022093869383
101      -0.000000355519
102      -0.000000155573
103      -0.000478698312
104      -0.000237882581
 Sym=     1a
 Ene= -3.85856678156117E-01
 Spin= Alpha
 Occup= 2.000000
  1      -0.013123854986
  2       0.034342797211
  3       0.065004373759
  4      -0.116607131421
  5       0.327982288350
  6      -0.022210483630
  7      -0.018112776335
  8       0.121065983093
  9       0.003522535216
 10      -0.014073044645
 11       0.002650800671
 12      -0.006206664470
 13      -0.011185889859
 14       0.006348479250
 15      -0.013124648231
 16       0.034344976032
 17       0.065002405881
 18       0.116606021779
 19      -0.327982906881
 20      -0.022208885573
 21       0.018112408586
 22      -0.121065942963
 23       0.003521272106
 24      -0.014072990271
 25      -0.002650936327
 26       0.006206479320
 27      -0.011185707241
 28       0.006348595372
 29      -0.183964585941
 30      -0.095837421521
 31       0.005408907653
 32       0.003831804540
 33      -0.006713204759
 34       0.003331823002
 35       0.007051599304
 36      -0.004283566605
 37       0.007810543740
 38       0.000557179142
 39       0.003333319951
 40       0.007052466482
 41       0.004283431563
 42      -0.007810542608
 43       0.000557330757
 44      -0.183964772566
 45      -0.095837921869
 46      -0.005408831981
 47      -0.003831813204
 48      -0.006713265805
 49       0.063189681763
 50      -0.159827766869
 51      -0.021139218746
 52      -0.000000345385
 53       0.000001689112
 54       0.091950095009
 55       0.000000193714
 56      -0.000000093928
 57       0.078942640491
 58      -0.017624027855
 59       0.000000026580
 60      -0.000000138941
 61      -0.007194236365
 62      -0.005441343638
 63       0.054386449028
 64       0.112979135175
 65       0.137347665567
 66      -0.069246797804
 67       0.206317458750
 68       0.149419642738
 69      -0.042636391030
 70       0.140021812800
 71       0.108161633220
 72       0.000772445845
 73       0.000038657016
 74       0.000300242549
 75       0.005877371370
 76       0.004276838370
 77       0.054387561470
 78       0.112981617726
 79       0.137348882978
 80       0.069248808313
 81      -0.206324170448
 82       0.149420976337
 83       0.042637930787
 84      -0.140026380236
 85       0.108162907958
 86       0.000772449234
 87      -0.000038696022
 88      -0.000300168020
 89       0.005877499523
 90       0.004276957575
 91       0.003294241934
 92       0.012176483596
 93      -0.037856250736
 94      -0.000000118811
 95       0.000000971115
 96       0.036819905229
 97      -0.000000135279
 98       0.000000671544
 99       0.032908175461
100      -0.001507956044
101       0.000000011819
102      -0.000000076320
103      -0.000943300617
104      -0.000561293195
 Sym=     1a
 Ene= -3.79079758118479E-01
 Spin= Alpha
 Occup= 2.000000
  1       0.036012303516
  2      -0.091328271725
  3      -0.046157848217
  4      -0.028770863199
  5      -0.027647362218
  6      -0.119073350351
  7      -0.008427996301
  8      -0.059349617487
  9       0.000249391235
 10      -0.015237112263
 11      -0.002283576497
 12      -0.004743253834
 13      -0.003021530891
 14      -0.003729561062
 15      -0.036012018265
 16       0.091327588360
 17       0.046156369550
 18      -0.028772141966
 19      -0.027641610436
 20       0.119073963912
 21      -0.008428888720
 22      -0.059347628956
 23      -0.000249314877
 24       0.015237306539
 25      -0.002283561619
 26      -0.004743452728
 27       0.003021770970
 28       0.003729407194
 29       0.009075203392
 30       0.017274806502
 31      -0.001097954506
 32      -0.000942928186
 33      -0.002606393590
 34       0.011947949841
 35       0.013105668743
 36      -0.000046347329
 37       0.000484939423
 38      -0.003264726808
 39      -0.011946871506
 40      -0.013105177720
 41      -0.000046485072
 42       0.000485039738
 43       0.003264680729
 44      -0.009073105494
 45      -0.017273373342
 46      -0.001097939060
 47      -0.000942809503
 48       0.002606475758
 49      -0.000000525112
 50       0.000001320864
 51       0.000000221947
 52      -0.061914009784
 53       0.146799488250
 54      -0.000000675073
 55       0.005600628749
 56      -0.057159424332
 57      -0.000000814364
 58       0.000000155940
 59       0.004003709397
 60      -0.025515198271
 61       0.000000151980
 62      -0.000000120093
 63      -0.050815163400
 64      -0.106257683225
 65      -0.078624390885
 66       0.110681587357
 67      -0.404810511808
 68      -0.136497102768
 69       0.078924803440
 70      -0.274317807806
 71      -0.083920055685
 72      -0.003199627342
 73      -0.003078277976
 74       0.008217530350
 75      -0.009238925805
 76      -0.006752804786
 77       0.050814242214
 78       0.106255756825
 79       0.078622047519
 80       0.110685025131
 81      -0.404805826660
 82       0.136493920892
 83       0.078927280661
 84      -0.274314561215
 85       0.083917758722
 86       0.003199646334
 87      -0.003078362058
 88       0.008217477692
 89       0.009238696379
 90       0.006752902603
 91      -0.000000023381
 92      -0.000000096374
 93       0.000000387086
 94      -0.040470996892
 95       0.037039917844
 96      -0.000000329792
 97      -0.029365940856
 98       0.034382101971
 99      -0.000000271205
100      -0.000000018547
101       0.003103764112
102      -0.005480720058
103       0.000000007440
104       0.000000004232
 Sym=     1a
 Ene= -3.16805031986940E-01
 Spin= Alpha
 Occup= 2.000000
  1       0.008825285627
  2      -0.026534857198
  3      -0.022677836468
  4      -0.155865585324
  5      -0.095440724681
  6       0.020669231285
  7      -0.012494077965
  8      -0.032066118627
  9       0.022590358731
 10      -0.005066831625
 11       0.016606085818
 12       0.005115546561
 13       0.010174965346
 14       0.008914924458
 15       0.008825313252
 16      -0.026535024548
 17      -0.022678100405
 18       0.155861259274
 19       0.095442070448
 20       0.020670770561
 21       0.012494456632
 22       0.032068358372
 23       0.022592895834
 24      -0.005066666185
 25      -0.016605192771
 26      -0.005115043602
 27       0.010174733530
 28       0.008914808858
 29      -0.117177711657
 30      -0.065545325263
 31      -0.001212168889
 32      -0.005634697327
 33      -0.001977511907
 34       0.201798014721
 35       0.138191356282
 36       0.004242790492
 37       0.002822368065
 38       0.000738378642
 39       0.201792671635
 40       0.138187538354
 41      -0.004242860382
 42      -0.002822151234
 43       0.000738287301
 44      -0.117173178661
 45      -0.065541781660
 46       0.001212365240
 47       0.005634564439
 48      -0.001977492388
 49      -0.002550278351
 50       0.000895503283
 51       0.014473857895
 52      -0.000004307559
 53       0.000000184719
 54       0.003178176508
 55      -0.000002705593
 56       0.000002719314
 57      -0.037011879097
 58       0.003416677300
 59      -0.000001739525
 60       0.000000782097
 61       0.018574974635
 62      -0.026844886478
 63      -0.003286588451
 64      -0.004404369743
 65      -0.036562544581
 66      -0.381444647679
 67      -0.121538278422
 68      -0.042425304852
 69      -0.286399187365
 70      -0.086605391766
 71      -0.024014917085
 72      -0.000331999919
 73      -0.001150962904
 74       0.000320637793
 75      -0.006391748457
 76       0.010360174404
 77      -0.003285287289
 78      -0.004401927715
 79      -0.036554836990
 80       0.381459133664
 81       0.121550960688
 82      -0.042427057524
 83       0.286410085622
 84       0.086615204075
 85      -0.024016393595
 86      -0.000332233725
 87       0.001150761633
 88      -0.000320918456
 89      -0.006392214925
 90       0.010360453446
 91      -0.000158542031
 92      -0.002148437742
 93       0.018714594659
 94      -0.000016017791
 95       0.000005933741
 96      -0.015973488621
 97      -0.000011059089
 98       0.000003598734
 99      -0.013528900388
100       0.000680188928
101       0.000000671925
102      -0.000000200571
103       0.000869806050
104      -0.001032561676
 Sym=     1a
 Ene= -3.11733270609295E-01
 Spin= Alpha
 Occup= 2.000000
  1      -0.003193528041
  2       0.010754519666
  3      -0.039662749151
  4      -0.074329991972
  5       0.015717630078
  6      -0.026483812778
  7       0.000323599920
  8      -0.001869850201
  9      -0.061245999022
 10      -0.004938259662
 11       0.012929019151
 12       0.005174249082
 13       0.004775146932
 14      -0.000866580558
 15       0.003192985987
 16      -0.010752667890
 17       0.039663223796
 18      -0.074340710083
 19       0.015710192684
 20       0.026482664021
 21       0.000322621235
 22      -0.001873005677
 23       0.061245065751
 24       0.004938629830
 25       0.012930035581
 26       0.005174592794
 27      -0.004775873126
 28       0.000865955179
 29      -0.056039154372
 30      -0.053424870379
 31       0.000414071046
 32      -0.002525391483
 33      -0.000102768006
 34       0.093992846695
 35       0.059670034321
 36       0.001420722324
 37       0.004253889113
 38      -0.000096119559
 39      -0.094006984571
 40      -0.059679067334
 41       0.001421095119
 42       0.004254092256
 43       0.000096195813
 44       0.056046346073
 45       0.053429435951
 46       0.000413888917
 47      -0.002525764248
 48       0.000102944627
 49       0.000000180828
 50      -0.000000240057
 51      -0.000000747241
 52      -0.116281720597
 53      -0.002631393187
 54       0.000000424110
 55      -0.062341698040
 56       0.031103208494
 57       0.000001122200
 58       0.000000050058
 59      -0.050832111890
 60       0.005980220283
 61      -0.000000625982
 62       0.000000940849
 63      -0.011647417289
 64      -0.018358507384
 65      -0.087928486320
 66       0.266890865956
 67       0.122876949334
 68      -0.010206959487
 69       0.199760969233
 70       0.097725087695
 71       0.006775063405
 72       0.001660080190
 73      -0.003317690957
 74      -0.002236743125
 75       0.005574210571
 76      -0.006365034233
 77       0.011647886547
 78       0.018359337340
 79       0.087931523379
 80       0.266865256662
 81       0.122868904660
 82       0.010207602816
 83       0.199741543592
 84       0.097719115368
 85      -0.006774922132
 86      -0.001660034972
 87      -0.003317758581
 88      -0.002236805071
 89      -0.005573831600
 90       0.006364311744
 91       0.000000012931
 92       0.000000084967
 93      -0.000000544392
 94      -0.473937487416
 95       0.057864386092
 96       0.000000319113
 97      -0.331872918827
 98       0.033243575368
 99       0.000000357098
100      -0.000000026691
101       0.019687364639
102      -0.001884722169
103      -0.000000016293
104       0.000000031564
 Sym=     1a
 Ene= -2.95511954235710E-01
 Spin= Alpha
 Occup= 2.000000
  1      -0.006121485914
  2       0.023034822988
  3      -0.046909208033
  4      -0.017757310604
  5      -0.012665648807
  6       0.082998565656
  7       0.003640957610
  8      -0.033426292098
  9       0.022734601199
 10       0.001095816647
 11       0.008681186799
 12      -0.006644698147
 13       0.000024564935
 14      -0.001399928361
 15       0.006121596460
 16      -0.023035034258
 17       0.046908434220
 18      -0.017754701455
 19      -0.012665227645
 20      -0.082998094136
 21       0.003641552636
 22      -0.033426504976
 23      -0.022733994858
 24      -0.001095966776
 25       0.008680933547
 26      -0.006644959539
 27      -0.000024369456
 28       0.001400117774
 29      -0.065253724783
 30      -0.045632979840
 31       0.002396204704
 32      -0.001971119794
 33       0.001810375957
 34       0.015136765444
 35       0.011059306843
 36      -0.000663199928
 37       0.001126663053
 38       0.002071501592
 39      -0.015134392148
 40      -0.011057130084
 41      -0.000663126634
 42       0.001126655428
 43      -0.002071447806
 44       0.065251622619
 45       0.045631922489
 46       0.002396126699
 47      -0.001971023240
 48      -0.001810409977
 49       0.000000071926
 50      -0.000000205235
 51       0.000000059776
 52      -0.006540012940
 53      -0.047543304395
 54       0.000000244655
 55       0.036341813887
 56      -0.162802132334
 57      -0.000000266147
 58       0.000000039151
 59       0.000370848190
 60      -0.058876554687
 61       0.000000130879
 62      -0.000000225349
 63       0.025477190240
 64       0.050662619078
 65       0.133837837090
 66       0.114428909955
 67      -0.068979839191
 68       0.138245398802
 69       0.090822977690
 70      -0.059835464870
 71       0.110420669763
 72      -0.005860543016
 73       0.000478875971
 74      -0.002240459236
 75       0.000307193016
 76      -0.003577547072
 77      -0.025477090992
 78      -0.050662417354
 79      -0.133837792001
 80       0.114433771932
 81      -0.068978386700
 82      -0.138246649691
 83       0.090826712295
 84      -0.059834457482
 85      -0.110421580553
 86       0.005860548257
 87       0.000478958446
 88      -0.002240505922
 89      -0.000307288497
 90       0.003577684892
 91       0.000000008110
 92       0.000000018314
 93       0.000000073001
 94       0.018368731989
 95      -0.590116169331
 96      -0.000000382353
 97       0.002942594783
 98      -0.386672866672
 99      -0.000000229511
100       0.000000009857
101      -0.000315655076
102       0.021303184930
103       0.000000009422
104       0.000000005467
 Sym=     1a
 Ene= 3.43354302224387E-02
 Spin= Alpha
 Occup= 0.000000
  1       0.006274561176
  2      -0.031840472219
  3       0.153435292187
  4       0.057677225719
  5       0.061901641590
  6      -0.040522051719
  7       0.141172083914
  8       0.251116620203
  9      -0.035094121242
 10      -0.002150902208
 11       0.012527635801
 12       0.005945046602
 13       0.006940328121
 14       0.000179837109
 15      -0.006274850196
 16       0.031840329237
 17      -0.153411275687
 18       0.057680082956
 19       0.061903003850
 20       0.040511287710
 21       0.141180475992
 22       0.251121346522
 23       0.035069984480
 24       0.002151713388
 25       0.012527339849
 26       0.005945662672
 27      -0.006940588448
 28      -0.000179644197
 29      -0.024245146490
 30      -0.130267269270
 31      -0.000692236205
 32      -0.001473805790
 33       0.002113374136
 34       0.050885543716
 35       0.328616132234
 36      -0.002365873776
 37       0.001387619061
 38      -0.004673445797
 39      -0.050886753087
 40      -0.328642927389
 41      -0.002366169870
 42       0.001387742593
 43       0.004673028661
 44       0.024241674166
 45       0.130241558511
 46      -0.000691863796
 47      -0.001473965951
 48      -0.002113668635
 49       0.000000398357
 50       0.000000030829
 51      -0.000011879577
 52      -0.583683342673
 53      -0.126154948909
 54       0.000000703219
 55      -0.515227313586
 56      -0.131776190824
 57      -0.000001943280
 58       0.000000348896
 59       0.022157539955
 60       0.006808682502
 61       0.000000005220
 62      -0.000000022447
 63      -0.008199175861
 64      -0.017324510936
 65      -0.030167558256
 66       0.210315610965
 67       0.056627729282
 68       0.022758459546
 69       0.201826523013
 70       0.042820629600
 71       0.028206135398
 72       0.000773844345
 73      -0.014710220022
 74      -0.005951926355
 75      -0.004501254544
 76       0.008751669584
 77       0.008202107547
 78       0.017330240761
 79       0.030189993743
 80       0.210314543426
 81       0.056631214988
 82      -0.022765577304
 83       0.201824300937
 84       0.042826837635
 85      -0.028214262762
 86      -0.000773786523
 87      -0.014710156475
 88      -0.005951901501
 89       0.004500934197
 90      -0.008751846519
 91       0.000000551367
 92       0.000000820729
 93       0.000006329961
 94       0.372164677859
 95       0.079159868987
 96      -0.000001690455
 97       0.399115438574
 98       0.089854557965
 99      -0.000002988253
100       0.000000090310
101       0.008079050038
102       0.001709097668
103       0.000000008190
104      -0.000000000682
 Sym=     1a
 Ene= 4.01156136295174E-02
 Spin= Alpha
 Occup= 0.000000
  1       0.057868498348
  2      -0.114666163384
  3      -1.128699090176
  4       0.044748492253
  5       0.096319096760
  6       0.193341898693
  7       0.146848793276
  8       0.305754202826
  9       0.475183235808
 10      -0.010413321396
 11      -0.005562358084
 12       0.011646299824
 13       0.008123451337
 14      -0.001625416734
 15       0.057868469916
 16      -0.114664789038
 17      -1.128715817379
 18      -0.044753363287
 19      -0.096315808828
 20       0.193343195761
 21      -0.146862808837
 22      -0.305739106834
 23       0.475179459617
 24      -0.010413378007
 25       0.005562551287
 26      -0.011646060427
 27       0.008123171293
 28      -0.001624912273
 29       0.068604801271
 30       0.918020800771
 31       0.009537685673
 32      -0.001752396552
 33       0.003420979437
 34       0.036619332193
 35       0.900740390387
 36      -0.007700661158
 37       0.002920621682
 38       0.006031221119
 39       0.036620984268
 40       0.900748507580
 41       0.007700579677
 42      -0.002920542087
 43       0.006031432213
 44       0.068602408469
 45       0.918008299298
 46      -0.009537746851
 47       0.001752376236
 48       0.003420987908
 49       0.002649753159
 50      -0.052638325202
 51       0.431076840098
 52      -0.000012840869
 53      -0.000002578517
 54       0.011270035497
 55      -0.000010880639
 56      -0.000002745344
 57       0.002896307219
 58      -0.004679960641
 59       0.000000488608
 60       0.000000187807
 61      -0.000745404961
 62       0.003571975714
 63      -0.035087941472
 64      -0.069869748390
 65      -0.287991182667
 66       0.006161900421
 67       0.055582274275
 68       0.067414494293
 69      -0.011622391004
 70       0.131441649758
 71       0.054839545732
 72      -0.002620938522
 73       0.001896205396
 74       0.003830876362
 75       0.005157977871
 76       0.001758177268
 77      -0.035087448054
 78      -0.069868498209
 79      -0.287991102389
 80      -0.006151637240
 81      -0.055579379884
 82       0.067413117988
 83       0.011633330696
 84      -0.131439569795
 85       0.054838192147
 86      -0.002621024963
 87      -0.001896757444
 88      -0.003831127579
 89       0.005158218318
 90       0.001757684836
 91      -0.012087669748
 92      -0.013123781355
 93      -0.170251886230
 94       0.000007828269
 95       0.000001468493
 96       0.023602440525
 97       0.000008474960
 98       0.000001757677
 99       0.070044271019
100      -0.003293433085
101       0.000000186482
102       0.000000039490
103       0.000227280635
104       0.000399187809
 Sym=     1a
 Ene= 6.51280667234135E-02
 Spin= Alpha
 Occup= 0.000000
  1      -0.092317652222
  2       0.203143343752
  3       1.042015110220
  4       0.052008007818
  5      -0.083249347606
  6       0.172713370943
  7       0.167889422047
  8      -0.315359439103
  9       0.479619611075
 10      -0.025624450111
 11      -0.008574609799
 12       0.016173877467
 13      -0.003073380515
 14      -0.003292901397
 15      -0.092316650067
 16       0.203144480859
 17       1.041953979202
 18      -0.052035694453
 19       0.083255322657
 20       0.172713145174
 21      -0.167955601659
 22       0.315392873631
 23       0.479604284513
 24      -0.025624987600
 25       0.008573954430
 26      -0.016173569009
 27      -0.003073780131
 28      -0.003290454341
 29       0.063561744358
 30      -0.475291718889
 31       0.002659076583
 32      -0.009302082592
 33       0.011413039673
 34       0.011033065512
 35      -0.394988349400
 36       0.001121690354
 37      -0.002168433733
 38       0.011187722730
 39       0.011042780542
 40      -0.394881688417
 41      -0.001121629714
 42       0.002168924980
 43       0.011187539099
 44       0.063551630267
 45      -0.475381752517
 46      -0.002659045817
 47       0.009301944046
 48       0.011413696951
 49      -0.037562613991
 50       0.086664306701
 51       0.322113983332
 52      -0.000012995975
 53      -0.000001014942
 54      -0.036654369316
 55      -0.000009350358
 56      -0.000000161468
 57       0.315352917163
 58      -0.024251761678
 59       0.000000501476
 60       0.000000312879
 61      -0.000173955560
 62      -0.003512193819
 63      -0.077014477688
 64      -0.142207566270
 65      -0.650189085849
 66      -0.048644515812
 67       0.075604453159
 68       0.211208908506
 69      -0.071420120480
 70       0.084140011384
 71       0.333698788922
 72       0.005756749189
 73       0.000600831517
 74      -0.004693521776
 75       0.002657595677
 76       0.002883241785
 77      -0.077013026689
 78      -0.142203755465
 79      -0.650188223978
 80       0.048660791818
 81      -0.075599726192
 82       0.211205389131
 83       0.071441439451
 84      -0.084136468350
 85       0.333696321729
 86       0.005756439048
 87      -0.000600769642
 88       0.004693270472
 89       0.002657961160
 90       0.002882469925
 91      -0.032809428442
 92      -0.056538101058
 93      -0.361117493704
 94       0.000006908972
 95       0.000000094163
 96       0.089885871094
 97       0.000007480486
 98       0.000000108156
 99       0.148797337695
100      -0.004447928297
101       0.000000229954
102       0.000000033368
103      -0.000838330054
104      -0.000766481192
 Sym=     1a
 Ene= 7.43948153167313E-02
 Spin= Alpha
 Occup= 0.000000
  1      -0.011265210960
  2      -0.001602711469
  3       0.543835769327
  4      -0.272266382235
  5       0.044903797772
  6       0.006559574772
  7      -0.690348283460
  8       0.261044762516
  9       0.144112300096
 10       0.005350013584
 11      -0.006688864089
 12       0.002380895695
 13       0.002572696840
 14      -0.021575565573
 15       0.011273794672
 16       0.001583930404
 17      -0.543924083747
 18      -0.272259666501
 19       0.044899361132
 20      -0.006584228582
 21      -0.690326614280
 22       0.261021163997
 23      -0.144184645772
 24      -0.005347161110
 25      -0.006689908448
 26       0.002383043800
 27      -0.002572332272
 28       0.021575962922
 29       0.083251624107
 30       0.899316962900
 31       0.002051967360
 32      -0.002097520521
 33      -0.004593312446
 34      -0.081081302488
 35      -1.115463158278
 36       0.002317094886
 37       0.005891442695
 38      -0.000308052694
 39       0.081079166446
 40       1.115485674089
 41       0.002317049614
 42       0.005891217765
 43       0.000306883455
 44      -0.083260602527
 45      -0.899289811716
 46       0.002052388692
 47      -0.002098595602
 48       0.004592152190
 49       0.000001711077
 50      -0.000003780393
 51      -0.000017823839
 52      -0.149765142371
 53       0.002197960828
 54       0.000001367248
 55      -0.087038469500
 56       0.019908124861
 57      -0.000019808574
 58       0.000001274919
 59       0.006986489057
 60       0.004424145861
 61       0.000000115609
 62       0.000000237827
 63      -0.012494965201
 64      -0.032639655300
 65      -0.012735850869
 66       0.091668034760
 67       0.028168451510
 68       0.026415791214
 69       0.129123816429
 70       0.019127182752
 71       0.017035702943
 72       0.002857963475
 73       0.002445766704
 74      -0.001483546610
 75      -0.002873679818
 76       0.006370389193
 77       0.012503648308
 78       0.032655341142
 79       0.012813409233
 80       0.091662782654
 81       0.028177620104
 82      -0.026441173299
 83       0.129115846373
 84       0.019139345408
 85      -0.017076903767
 86      -0.002858636688
 87       0.002445805239
 88      -0.001483814053
 89       0.002873406842
 90      -0.006370698790
 91       0.000001872468
 92       0.000003109418
 93       0.000021827832
 94       0.069736162269
 95      -0.010091036660
 96      -0.000004902127
 97       0.073401759849
 98      -0.011297238119
 99      -0.000008721228
100       0.000000276411
101       0.002977433673
102       0.000231112670
103       0.000000062572
104       0.000000048202
 Sym=     1a
 Ene= 9.33705286979719E-02
 Spin= Alpha
 Occup= 0.000000
  1      -0.104002583770
  2       0.164840749325
  3       2.382267157644
  4       0.011567434495
  5      -0.029424136115
  6      -0.141714542962
  7       0.016275205409
  8       0.187214347324
  9      -0.454567254878
 10       0.002494252821
 11       0.002962766375
 12       0.002059599717
 13       0.004230827207
 14      -0.000232334567
 15       0.104002542139
 16      -0.164840933252
 17      -2.382266194362
 18       0.011569322997
 19      -0.029424302383
 20       0.141715283640
 21       0.016279182658
 22       0.187214061143
 23       0.454568869224
 24      -0.002494314523
 25       0.002962736226
 26       0.002059483825
 27      -0.004230838585
 28       0.000232415759
 29      -0.040074835459
 30      -1.316883792879
 31      -0.004538299827
 32       0.004120055582
 33       0.003121342870
 34      -0.031741069419
 35      -1.027897926177
 36       0.003916779271
 37       0.004794444842
 38      -0.003158608619
 39       0.031741314083
 40       1.027886657823
 41       0.003916744816
 42       0.004794433894
 43       0.003158658547
 44       0.040075219304
 45       1.316895103103
 46      -0.004538284635
 47       0.004120156472
 48      -0.003121360200
 49       0.000000070839
 50      -0.000000064334
 51       0.000000063036
 52      -0.052869299323
 53      -0.006764670685
 54       0.000000186448
 55      -0.015670435653
 56       0.034724576159
 57       0.000001804549
 58       0.000000005349
 59       0.001850132260
 60      -0.003425052685
 61       0.000000056735
 62      -0.000000026629
 63      -0.004280352355
 64      -0.016881936936
 65       0.036057115248
 66       0.000680486096
 67      -0.040226544039
 68      -0.026654682326
 69      -0.004310829652
 70      -0.029171813991
 71      -0.052451506124
 72      -0.004222816216
 73      -0.001046744518
 74      -0.000682119849
 75      -0.000696145489
 76       0.000363710578
 77       0.004280230900
 78       0.016881587675
 79      -0.036057259376
 80       0.000681651638
 81      -0.040226684147
 82       0.026655026205
 83      -0.004308622464
 84      -0.029171689772
 85       0.052451740547
 86       0.004222791945
 87      -0.001046643948
 88      -0.000682149357
 89       0.000696146617
 90      -0.000363659214
 91      -0.000000037539
 92       0.000000040704
 93      -0.000001399452
 94       0.018417383786
 95       0.010184170906
 96       0.000000012578
 97       0.018325887001
 98      -0.003333794875
 99       0.000000346533
100      -0.000000021557
101       0.001170872787
102       0.000235779484
103       0.000000004176
104      -0.000000003647
 Sym=     1a
 Ene= 1.40343941589872E-01
 Spin= Alpha
 Occup= 0.000000
  1       0.011541158523
  2      -0.039437337692
  3      -0.051949018413
  4       0.274166788062
  5      -0.000009372454
  6      -0.117599022687
  7       1.049532185548
  8       0.011850534389
  9      -0.253340686602
 10       0.002115672004
 11       0.003811216915
 12      -0.013598554541
 13       0.002523476712
 14      -0.006310953625
 15       0.011538627927
 16      -0.039428863817
 17      -0.051991110489
 18      -0.274166533291
 19       0.000034836594
 20      -0.117573408320
 21      -1.049532740454
 22      -0.011762488674
 23      -0.253277558070
 24       0.002113385089
 25      -0.003810846967
 26       0.013599480482
 27       0.002522451430
 28      -0.006310570048
 29      -0.048867938752
 30      -1.328828357104
 31      -0.000708171846
 32       0.006833461722
 33       0.001568378043
 34       0.020541976841
 35       1.291883825020
 36      -0.002640480792
 37       0.001472496455
 38       0.001929381509
 39       0.020543940318
 40       1.291860633786
 41       0.002640348366
 42      -0.001471330309
 43       0.001931145723
 44      -0.048873594153
 45      -1.328821150431
 46       0.000707492067
 47      -0.006833028497
 48       0.001570056857
 49      -0.036546921937
 50       0.046651397909
 51       0.710487746934
 52       0.000000765285
 53       0.000013655418
 54      -0.056119890081
 55       0.000001224408
 56       0.000011546555
 57      -0.191745104313
 58      -0.004708738592
 59      -0.000000116613
 60       0.000000331758
 61       0.006042763614
 62       0.008942752098
 63      -0.011086024572
 64      -0.006431759162
 65      -0.225918214070
 66       0.027734036893
 67       0.035552877588
 68      -0.084693445799
 69       0.085072787053
 70       0.114513283723
 71      -0.113710000277
 72      -0.000701750633
 73       0.007109706692
 74      -0.001882205553
 75       0.001999906654
 76       0.002864403125
 77      -0.011077966238
 78      -0.006415640281
 79      -0.225855158279
 80      -0.027744612502
 81      -0.035553650770
 82      -0.084706270989
 83      -0.085086382301
 84      -0.114513486811
 85      -0.113731393052
 86      -0.000702683561
 87      -0.007109612983
 88       0.001880867092
 89       0.001999683137
 90       0.002864320542
 91      -0.015967429130
 92      -0.030435425423
 93      -0.124612171429
 94      -0.000000262089
 95      -0.000007370728
 96       0.033480288011
 97      -0.000000515410
 98      -0.000007789441
 99       0.073855961339
100      -0.002649397395
101      -0.000000021249
102      -0.000000318083
103       0.001445220838
104       0.001712054021
 Sym=     1a
 Ene= 1.47601232544639E-01
 Spin= Alpha
 Occup= 0.000000
  1       0.019431777767
  2      -0.046274387113
  3       0.160920976709
  4      -0.006968816912
  5       0.294085916795
  6      -0.236275777632
  7      -0.018038513235
  8       0.930951056326
  9      -0.678497715532
 10       0.022833932149
 11       0.000280022432
 12       0.009582483151
 13       0.013286250740
 14      -0.003783053101
 15      -0.019433113241
 16       0.046278845542
 17      -0.160914441767
 18      -0.006943708748
 19       0.294086300921
 20       0.236288712371
 21      -0.017937556288
 22       0.930952559786
 23       0.678525728458
 24      -0.022834360795
 25       0.000280198635
 26       0.009580968025
 27      -0.013286357385
 28       0.003783728949
 29       0.067493203771
 30       0.124993308052
 31      -0.003939669368
 32       0.007038269469
 33      -0.015422105509
 34      -0.010266026467
 35       0.376949901273
 36      -0.002738626775
 37       0.013375732738
 38      -0.012618319039
 39       0.010266530138
 40      -0.377074229601
 41      -0.002738860150
 42       0.013375816719
 43       0.012617658868
 44      -0.067489495789
 45      -0.124862965712
 46      -0.003939891547
 47       0.007039136917
 48       0.015422218126
 49       0.000002185695
 50      -0.000002324419
 51      -0.000047148310
 52       0.043977055311
 53       0.299254893467
 54       0.000003440017
 55       0.043952666040
 56       0.214347145247
 57       0.000012289327
 58       0.000000216185
 59      -0.001691809369
 60       0.007094086057
 61      -0.000000573690
 62      -0.000000471494
 63      -0.077257426447
 64      -0.147189940369
 65      -0.678990935681
 66      -0.097531598927
 67      -0.004197765280
 68       0.118330755088
 69      -0.135018175108
 70       0.002184813436
 71       0.236953923217
 72       0.010791350012
 73       0.002032359590
 74      -0.014516768045
 75       0.000806993776
 76       0.000715937759
 77       0.077258988374
 78       0.147191448393
 79       0.679018995726
 80      -0.097531076573
 81      -0.004192965877
 82      -0.118319351878
 83      -0.135013840187
 84       0.002199102486
 85      -0.236937247314
 86      -0.010791112127
 87       0.002032905773
 88      -0.014516958993
 89      -0.000807233740
 90      -0.000716378603
 91       0.000001013229
 92       0.000001846487
 93       0.000008576612
 94      -0.016148493092
 95      -0.152339094858
 96      -0.000001997970
 97      -0.023087501817
 98      -0.155316659799
 99      -0.000004824821
100       0.000000185193
101      -0.000986741582
102      -0.007324824837
103      -0.000000112971
104      -0.000000103029
 Sym=     1a
 Ene= 1.80313495930696E-01
 Spin= Alpha
 Occup= 0.000000
  1      -0.020531987860
  2       0.095620820527
  3       0.027175342003
  4       0.114316929420
  5      -0.014763098957
  6       0.106723682215
  7       0.391791357106
  8      -0.007404794452
  9       0.223233408344
 10      -0.008126439548
 11      -0.002998485801
 12       0.021160247569
 13       0.005152083984
 14      -0.000311549188
 15      -0.020532235378
 16       0.095621160525
 17       0.027182525178
 18      -0.114319542123
 19       0.014757734975
 20       0.106722902981
 21      -0.391793421817
 22       0.007386117076
 23       0.223230415142
 24      -0.008126175802
 25       0.002998532154
 26      -0.021160370223
 27       0.005152499349
 28      -0.000311466271
 29       0.073591785392
 30      -0.298283939345
 31       0.004795129617
 32      -0.003422577549
 33       0.001043338096
 34       0.078170962515
 35       0.518808102652
 36      -0.004412083655
 37      -0.005838941546
 38      -0.001251376772
 39       0.078171704511
 40       0.518822869915
 41       0.004412254780
 42       0.005838727735
 43      -0.001251494883
 44       0.073592808116
 45      -0.298279653912
 46      -0.004795300613
 47       0.003422409803
 48       0.001043366154
 49       0.122767400837
 50      -0.199211196525
 51      -2.348244439346
 52      -0.000000921316
 53      -0.000002171222
 54       0.188890974210
 55      -0.000000074546
 56      -0.000000355422
 57       0.353526852567
 58       0.006483752650
 59       0.000000034454
 60      -0.000000020448
 61      -0.039230549117
 62      -0.021783219357
 63       0.058585911175
 64       0.108613790466
 65       0.624721330942
 66       0.045886053173
 67      -0.177039880259
 68       0.236160982325
 69       0.113935026592
 70      -0.378214271745
 71       0.420591079081
 72       0.008899211267
 73       0.000479702195
 74       0.004704243358
 75      -0.004629326472
 76      -0.002721583652
 77       0.058585503738
 78       0.108613027624
 79       0.624718003665
 80      -0.045884304424
 81       0.177040228376
 82       0.236161131398
 83      -0.113932310749
 84       0.378215143396
 85       0.420592392986
 86       0.008899356647
 87      -0.000479645333
 88      -0.004703991926
 89      -0.004629357590
 90      -0.002721654130
 91       0.059821177429
 92       0.109047774564
 93       0.603907855101
 94       0.000000287180
 95       0.000000705095
 96      -0.106181926306
 97       0.000000150874
 98       0.000000644616
 99      -0.287152169547
100       0.011903675275
101       0.000000046237
102       0.000000056680
103      -0.006351096786
104      -0.003458835436
 Sym=     1a
 Ene= 2.20661307367812E-01
 Spin= Alpha
 Occup= 0.000000
  1      -0.096568807066
  2       0.146060746503
  3       2.685333867843
  4       0.056366001539
  5       0.267229617746
  6       0.189715562995
  7       0.140637118052
  8       1.764296225478
  9       1.003965071696
 10      -0.001058912576
 11      -0.011976449844
 12      -0.003478622333
 13       0.030104891341
 14       0.010255851929
 15       0.096568770987
 16      -0.146060114819
 17      -2.685335064280
 18       0.056364735189
 19       0.267229054248
 20      -0.189715614316
 21       0.140620970057
 22       1.764295451412
 23      -1.003967334459
 24       0.001059063308
 25      -0.011976346501
 26      -0.003478844097
 27      -0.030104984475
 28      -0.010255864944
 29       0.069468621941
 30       0.181067018236
 31       0.016513600413
 32       0.018725515893
 33       0.005294482568
 34       0.133601476221
 35       0.166005861567
 36      -0.011648907603
 37       0.001232907687
 38       0.012736475054
 39      -0.133604484024
 40      -0.165975572720
 41      -0.011648617350
 42       0.001232841464
 43      -0.012736135461
 44      -0.069464585777
 45      -0.181094476734
 46       0.016513982313
 47       0.018725561617
 48      -0.005294859915
 49       0.000000594304
 50      -0.000001813210
 51      -0.000005357788
 52       0.096625914206
 53       0.057311727130
 54       0.000000950744
 55       0.145259198328
 56      -0.208541459974
 57       0.000001131587
 58       0.000000015225
 59       0.004692983190
 60      -0.001615250326
 61      -0.000000069175
 62      -0.000000111119
 63       0.046281410525
 64       0.058376092953
 65       0.843908292873
 66       0.013389010036
 67      -0.070843055365
 68      -0.127616642084
 69       0.048713713207
 70      -0.194198063320
 71      -0.287519194436
 72      -0.002942543482
 73       0.002587033115
 74      -0.009821778568
 75      -0.008898948194
 76      -0.001389199132
 77      -0.046280887420
 78      -0.058374874932
 79      -0.843905131644
 80       0.013390040345
 81      -0.070841392375
 82       0.127617566583
 83       0.048714981412
 84      -0.194194670222
 85       0.287521425086
 86       0.002942580469
 87       0.002587057534
 88      -0.009821874104
 89       0.008898957494
 90       0.001389216796
 91       0.000000150267
 92       0.000000344486
 93       0.000001033982
 94      -0.057253481991
 95       0.046898616116
 96      -0.000000281844
 97      -0.068289281522
 98       0.062915232822
 99      -0.000000597621
100       0.000000021712
101      -0.003041119334
102      -0.000825274495
103      -0.000000016662
104      -0.000000010931
 Sym=     1a
 Ene= 3.19213139870319E-01
 Spin= Alpha
 Occup= 0.000000
  1       0.022869500641
  2      -0.107368287092
  3       0.357991066314
  4      -0.045129179240
  5       0.147880199822
  6      -0.137279838524
  7       0.250494947478
  8      -0.327587594291
  9       0.122584959205
 10      -0.015300884942
 11      -0.001554653245
 12      -0.008617328844
 13      -0.012088685894
 14      -0.004167945649
 15       0.022870008553
 16      -0.107369834838
 17       0.357983637343
 18       0.045129046811
 19      -0.147880340370
 20      -0.137280748263
 21      -0.250492274991
 22       0.327593682262
 23       0.122582652509
 24      -0.015300945266
 25       0.001554225433
 26       0.008617244119
 27      -0.012088630613
 28      -0.004167675834
 29      -0.044776210919
 30      -0.190618467659
 31       0.003975259414
 32      -0.006685594670
 33      -0.002623138244
 34      -0.002982125153
 35      -0.012305049335
 36      -0.006034428800
 37       0.006178721332
 38       0.001396451974
 39      -0.002980404001
 40      -0.012309006326
 41       0.006034734999
 42      -0.006178792403
 43       0.001396096770
 44      -0.044777034402
 45      -0.190616151657
 46      -0.003975152254
 47       0.006685649158
 48      -0.002623051794
 49      -0.142404751796
 50       0.666170910769
 51      -1.370811984101
 52       0.000000432008
 53       0.000000550422
 54      -0.367800387660
 55      -0.000002194665
 56       0.000000085723
 57      -1.964587142090
 58       0.011674089913
 59      -0.000000010345
 60      -0.000000027022
 61       0.027227798273
 62       0.018388889537
 63      -0.030554548813
 64      -0.052708744373
 65      -0.532706615145
 66      -0.042977296220
 67       0.196224741130
 68      -0.032289786295
 69      -0.067644664315
 70       0.306486672039
 71       0.142936138474
 72      -0.022720888499
 73       0.008548831737
 74      -0.020064722288
 75      -0.014229288646
 76      -0.006852334498
 77      -0.030554648043
 78      -0.052708838957
 79      -0.532708851349
 80       0.042977428457
 81      -0.196224895587
 82      -0.032289265346
 83       0.067645387357
 84      -0.306487184665
 85       0.142937064273
 86      -0.022720801846
 87      -0.008548881371
 88       0.020064680815
 89      -0.014229325482
 90      -0.006852230774
 91       0.085392807118
 92       0.100993718201
 93       1.817825395043
 94      -0.000000011382
 95       0.000000023322
 96      -0.001945086865
 97      -0.000000219716
 98       0.000000092913
 99      -0.524119801889
100       0.022185144800
101       0.000000001334
102      -0.000000020831
103       0.000906899320
104       0.000716471130
 Sym=     1a
 Ene= 3.66605408831630E-01
 Spin= Alpha
 Occup= 0.000000
  1      -0.022532331974
  2       0.154911786512
  3      -0.753693666442
  4       0.021336535512
  5       0.078155759741
  6       0.028546955015
  7      -0.230556532286
  8       0.143820826368
  9      -0.678501449584
 10       0.014306864263
 11       0.003935015616
 12      -0.009099998629
 13      -0.002550628950
 14      -0.029933109145
 15       0.022533156278
 16      -0.154918635816
 17       0.753698794637
 18       0.021337317045
 19       0.078160620270
 20      -0.028548885252
 21      -0.230553846142
 22       0.143812927440
 23       0.678504864194
 24      -0.014306797305
 25       0.003935068746
 26      -0.009099391448
 27       0.002551739317
 28       0.029933023376
 29       0.030025609538
 30       0.124815537748
 31      -0.007281936297
 32      -0.008194090392
 33       0.001608192925
 34      -0.203084632052
 35       0.149717689385
 36       0.003574779312
 37       0.024065161016
 38      -0.003243952109
 39       0.203088230584
 40      -0.149725257242
 41       0.003574874745
 42       0.024064654060
 43       0.003243714107
 44      -0.030025228832
 45      -0.124811365643
 46      -0.007282185296
 47      -0.008194196120
 48      -0.001607496002
 49      -0.000000020656
 50       0.000001107579
 51      -0.000000963227
 52       0.221707725731
 53      -0.609463163383
 54      -0.000000579336
 55       0.293817873608
 56      -1.483659139006
 57       0.000000409770
 58       0.000000047841
 59       0.013626039106
 60      -0.042474236629
 61      -0.000000072893
 62      -0.000000071810
 63       0.063024863992
 64       0.159707450499
 65       0.322003495611
 66       0.039891627155
 67      -0.133733679059
 68       0.262518797153
 69       0.067059949933
 70      -0.250571362374
 71       0.586084118269
 72      -0.020975548799
 73      -0.000448141512
 74       0.008426651691
 75       0.001213629007
 76       0.001214492442
 77      -0.063024650609
 78      -0.159706316717
 79      -0.322005540805
 80       0.039890182412
 81      -0.133733278991
 82      -0.262519181884
 83       0.067057544134
 84      -0.250574126568
 85      -0.586084347133
 86       0.020975495767
 87      -0.000448084810
 88       0.008426766297
 89      -0.001213472444
 90      -0.001214486044
 91       0.000000100152
 92       0.000000413921
 93      -0.000000597940
 94      -0.077436159311
 95       0.283156078843
 96      -0.000000157027
 97      -0.104394653706
 98       0.462596612414
 99       0.000000293654
100      -0.000000006889
101      -0.007576963658
102       0.022006114788
103      -0.000000003152
104       0.000000017327
 Sym=     1a
 Ene= 3.85009878639706E-01
 Spin= Alpha
 Occup= 0.000000
  1      -0.020813075820
  2       0.111130031867
  3      -0.135701279807
  4       0.092686012397
  5      -0.050354816245
  6       0.058647009407
  7      -0.392920333760
  8      -0.135609538343
  9       0.293334832931
 10       0.011686909057
 11      -0.045809044477
 12       0.004852623645
 13      -0.008707775377
 14      -0.067737491499
 15       0.020818133395
 16      -0.111169405151
 17       0.135743206873
 18       0.092690656946
 19      -0.050334494496
 20      -0.058657633960
 21      -0.392929150595
 22      -0.135641958397
 23      -0.293318978544
 24      -0.011685579114
 25      -0.045808199108
 26       0.004854891051
 27       0.008712496476
 28       0.067737359250
 29       0.419742842396
 30      -0.153266440695
 31      -0.002673770167
 32      -0.026247340558
 33      -0.002848595204
 34      -0.441241154571
 35       0.149587898470
 36      -0.000889754794
 37       0.035627870865
 38       0.025737113156
 39       0.441246808115
 40      -0.149596502116
 41      -0.000889365081
 42       0.035626023471
 43      -0.025736358579
 44      -0.419732689887
 45       0.153250785855
 46      -0.002674248342
 47      -0.026248777693
 48       0.002848521236
 49       0.000002408349
 50      -0.000007451154
 51       0.000003038532
 52       0.422181453872
 53       0.232418802828
 54       0.000000658448
 55      -0.728570575314
 56       0.227690931119
 57      -0.000005444762
 58       0.000000998148
 59       0.000277161837
 60       0.014184849005
 61      -0.000000400008
 62      -0.000000097566
 63      -0.014601957122
 64      -0.050966164240
 65      -0.071322805001
 66       0.137326927787
 67       0.064516245681
 68      -0.076049906040
 69       0.181627075065
 70       0.072335469401
 71      -0.152763545849
 72      -0.000439889132
 73       0.012506887645
 74       0.002066555325
 75       0.002493675315
 76      -0.001302712391
 77       0.014603702576
 78       0.050975078908
 79       0.071297817015
 80       0.137324786776
 81       0.064521023631
 82       0.076049066607
 83       0.181628507381
 84       0.072322784602
 85       0.152767013472
 86       0.000438878081
 87       0.012506788858
 88       0.002066402783
 89      -0.002492745142
 90       0.001303063890
 91       0.000001094726
 92       0.000003805778
 93       0.000001519769
 94       0.012503356733
 95      -0.062468762893
 96      -0.000003015167
 97       0.133750753265
 98      -0.092043243185
 99      -0.000001552770
100      -0.000000199011
101      -0.012760485089
102      -0.008244947084
103      -0.000000000511
104       0.000000015331
 Sym=     1a
 Ene= 4.03708818194916E-01
 Spin= Alpha
 Occup= 0.000000
  1       0.080369121161
  2      -0.546846340890
  3       0.485845973524
  4      -0.127751054223
  5      -0.257804167954
  6      -0.258207229963
  7       0.290931715834
  8       0.509325720023
  9       0.449182754031
 10       0.028633641486
 11      -0.016198583884
 12      -0.014780880890
 13       0.071349564164
 14      -0.002562550003
 15       0.080367540660
 16      -0.546835383950
 17       0.485812549396
 18       0.127749891415
 19       0.257806730316
 20      -0.258202115541
 21      -0.290910221944
 22      -0.509314916748
 23       0.449186216145
 24       0.028634473605
 25       0.016201300772
 26       0.014780665680
 27       0.071348964259
 28      -0.002566818324
 29       0.299209167993
 30      -0.250706993252
 31       0.017550888324
 32       0.016870523754
 33      -0.004807096467
 34       0.220650936804
 35      -0.153694487941
 36      -0.009043529596
 37       0.045482045819
 38       0.020649719066
 39       0.220628592279
 40      -0.153691529643
 41       0.009043308410
 42      -0.045484163185
 43       0.020651400560
 44       0.299231818422
 45      -0.250707991800
 46      -0.017550828924
 47      -0.016869194396
 48      -0.004807177835
 49       0.130371584372
 50      -0.571227724486
 51       0.561971941349
 52      -0.000012705538
 53      -0.000003406139
 54       0.058580087488
 55       0.000020001097
 56       0.000003073819
 57      -0.666967357048
 58       0.049676940984
 59       0.000000081128
 60      -0.000000024634
 61      -0.010704953557
 62       0.004306883594
 63       0.032404953563
 64       0.185919983293
 65      -0.767036302150
 66       0.062525176057
 67      -0.064100403582
 68      -0.023434787540
 69      -0.026787419871
 70       0.302193839628
 71       0.113617249538
 72      -0.026195340128
 73       0.002882102717
 74       0.013027784463
 75       0.017297784537
 76       0.006014050964
 77       0.032404862813
 78       0.185919497142
 79      -0.767041865702
 80      -0.062534581633
 81       0.064098477216
 82      -0.023436051345
 83       0.026779595817
 84      -0.302195296958
 85       0.113616250291
 86      -0.026195611317
 87      -0.002883190090
 88      -0.013027949296
 89       0.017297899452
 90       0.006014030228
 91       0.047385826630
 92       0.149259692590
 93       0.235790655507
 94      -0.000000564502
 95       0.000000013556
 96      -0.132523296243
 97      -0.000003685013
 98      -0.000000213863
 99      -0.110795060961
100      -0.010383879553
101       0.000000361133
102       0.000000108785
103       0.001357922920
104       0.001505409283
 Sym=     1a
 Ene= 4.49488105833541E-01
 Spin= Alpha
 Occup= 0.000000
  1      -0.021612392841
  2       0.028650733634
  3      -0.599652557707
  4       0.056569789545
  5      -0.357777049119
  6       0.261802952460
  7       0.121679452097
  8       0.828141513202
  9      -0.031958709386
 10      -0.022637545468
 11       0.007504594790
 12      -0.008420383012
 13       0.046280809954
 14      -0.001756462624
 15      -0.021611868757
 16       0.028646877655
 17      -0.599650940547
 18      -0.056570888849
 19       0.357774119479
 20       0.261796710102
 21      -0.121677065949
 22      -0.828132407042
 23      -0.031961509680
 24      -0.022637180213
 25      -0.007504589991
 26       0.008420695083
 27       0.046280869187
 28      -0.001756909214
 29       0.030530389164
 30       0.239345264577
 31       0.023206356045
 32       0.028325050665
 33       0.032432735936
 34       0.269236021345
 35       0.148796861115
 36      -0.011377760154
 37       0.023382040934
 38       0.006242313188
 39       0.269232412115
 40       0.148789994147
 41       0.011377373009
 42      -0.023381958744
 43       0.006241811176
 44       0.030527112674
 45       0.239347850282
 46      -0.023206097850
 47      -0.028325636398
 48       0.032432131481
 49      -0.188792233259
 50       1.036642474016
 51      -1.177840250325
 52      -0.000009723815
 53       0.000001667898
 54      -0.197837547207
 55       0.000014075709
 56       0.000000222835
 57       0.790306047062
 58      -0.038942474246
 59      -0.000000083330
 60       0.000000220555
 61       0.014195215665
 62       0.012885530722
 63      -0.034566782955
 64      -0.158910588285
 65       0.651046455875
 66      -0.027094015158
 67       0.225793111447
 68       0.022228053212
 69       0.052450876007
 70       0.019024078133
 71      -0.085722093724
 72       0.025035135541
 73       0.003961589529
 74      -0.014689551966
 75      -0.011761262750
 76      -0.010371074226
 77      -0.034566952098
 78      -0.158911040668
 79       0.651043551664
 80       0.027092136227
 81      -0.225792778430
 82       0.022232016819
 83      -0.052454481378
 84      -0.019025270953
 85      -0.085720460317
 86       0.025035360672
 87      -0.003961315131
 88       0.014689186418
 89      -0.011760954189
 90      -0.010371227238
 91      -0.025917212218
 92      -0.078471985210
 93      -0.182972506404
 94      -0.000000553563
 95      -0.000000402071
 96       0.115109405974
 97      -0.000001782591
 98      -0.000000412075
 99       0.085590502179
100       0.012080175096
101       0.000000321849
102      -0.000000082396
103      -0.001927318120
104      -0.000615419738
 Sym=     1a
 Ene= 4.61771418465027E-01
 Spin= Alpha
 Occup= 0.000000
  1      -0.113763660517
  2       0.704292393492
  3      -2.435236419644
  4       0.072784203444
  5      -0.026366198953
  6       0.531123160110
  7      -0.136665632409
  8      -0.567593963348
  9      -1.223773250678
 10      -0.009081418634
 11      -0.007994907201
 12       0.008670939206
 13       0.002478979336
 14      -0.000565221879
 15       0.113763617957
 16      -0.704291649949
 17       2.435243335574
 18       0.072787220006
 19      -0.026369447556
 20      -0.531125567077
 21      -0.136660701088
 22      -0.567582849491
 23       1.223772701857
 24       0.009081912333
 25      -0.007994130400
 26       0.008671039522
 27      -0.002479626613
 28       0.000565286049
 29      -0.073637259809
 30       0.199544224491
 31      -0.004273987967
 32      -0.022588217626
 33       0.013759846382
 34      -0.160318068101
 35       0.287725640770
 36       0.011556539544
 37       0.005912988883
 38       0.016406665898
 39       0.160312452225
 40      -0.287733138457
 41       0.011556409506
 42       0.005913451952
 43      -0.016407085900
 44       0.073635993008
 45      -0.199542054083
 46      -0.004273669405
 47      -0.022588098023
 48      -0.013759640013
 49       0.000001570883
 50      -0.000009146021
 51       0.000012748250
 52      -0.355275085288
 53       0.236831566350
 54       0.000002094859
 55       0.354645956414
 56      -0.182695166234
 57      -0.000009553043
 58       0.000000198653
 59      -0.001332241866
 60      -0.013463242517
 61      -0.000000124589
 62      -0.000000329519
 63       0.013390064516
 64       0.103716662196
 65      -0.751855084045
 66       0.024473582417
 67      -0.049871980990
 68      -0.257105948325
 69      -0.100038144923
 70       0.058357723127
 71       0.157003481037
 72      -0.033292761391
 73       0.014419591127
 74      -0.026809496772
 75      -0.001008231474
 76       0.004876153667
 77      -0.013389753831
 78      -0.103714723062
 79       0.751842992647
 80       0.024474255965
 81      -0.049868112754
 82       0.257106389719
 83      -0.100039026371
 84       0.058355730736
 85      -0.157002025018
 86       0.033292381903
 87       0.014420166678
 88      -0.026809619086
 89       0.001008639959
 90      -0.004876144115
 91       0.000000176987
 92       0.000000464061
 93       0.000002475901
 94      -0.006779090623
 95       0.001590086680
 96      -0.000000796963
 97      -0.026189199742
 98       0.000800566866
 99      -0.000000814010
100      -0.000000097192
101       0.013115728167
102      -0.010047824757
103       0.000000026030
104      -0.000000009837
 Sym=     1a
 Ene= 4.91088397245485E-01
 Spin= Alpha
 Occup= 0.000000
  1      -0.023601372244
  2       0.148820710699
  3      -0.246919026217
  4       0.059132337204
  5      -0.189583340451
  6       0.385878008260
  7      -0.358961861721
  8      -0.065836939537
  9      -0.920867783276
 10       0.015438446072
 11      -0.038136863648
 12       0.057403738166
 13      -0.005903250745
 14      -0.005256042969
 15      -0.023597123139
 16       0.148800420240
 17      -0.246876777203
 18      -0.059126781792
 19       0.189597192357
 20       0.385870804206
 21       0.358957755067
 22       0.065814596791
 23      -0.920856290408
 24       0.015439508260
 25       0.038137273323
 26      -0.057405673517
 27      -0.005904782306
 28      -0.005256939802
 29       0.070259844365
 30      -0.379713991178
 31      -0.013582095655
 32      -0.004450507185
 33      -0.029150061639
 34      -0.324343401987
 35      -0.020528293498
 36       0.014413599839
 37      -0.013299238583
 38       0.029654348695
 39      -0.324345977183
 40      -0.020524422385
 41      -0.014414747090
 42       0.013299811548
 43       0.029656304354
 44       0.070271865733
 45      -0.379731546621
 46       0.013582534079
 47       0.004452278621
 48      -0.029151074026
 49       0.093959994471
 50      -0.821315464227
 51       1.196944296364
 52       0.000010597917
 53      -0.000029021852
 54       0.133859679279
 55      -0.000030331769
 56       0.000083373357
 57      -2.642866536466
 58      -0.039099454459
 59       0.000000839113
 60      -0.000003608271
 61       0.005409057921
 62      -0.015132879786
 63      -0.032454295583
 64      -0.104333547748
 65      -0.385916735281
 66      -0.088869743952
 67       0.089802430172
 68       0.195768051896
 69      -0.083010648492
 70       0.261429858141
 71      -0.097237811881
 72       0.009117278792
 73      -0.019146604891
 74       0.020788829949
 75       0.012132369520
 76       0.007278261897
 77      -0.032454434949
 78      -0.104339892316
 79      -0.385831212850
 80       0.088875747391
 81      -0.089821472872
 82       0.195769245510
 83       0.083007649312
 84      -0.261419047175
 85      -0.097214502984
 86       0.009118603780
 87       0.019145843268
 88      -0.020785785220
 89       0.012130839435
 90       0.007277466312
 91       0.058168172379
 92       0.082959279057
 93       1.435979309029
 94       0.000001918315
 95      -0.000004431393
 96       0.032212167818
 97       0.000004328257
 98      -0.000013248261
 99      -0.438311512605
100       0.019356832918
101      -0.000000306053
102       0.000000973971
103       0.003970196626
104       0.001414863203
 Sym=     1a
 Ene= 4.92791602065204E-01
 Spin= Alpha
 Occup= 0.000000
  1      -0.045404286317
  2       0.262678359664
  3      -0.530134924497
  4       0.073839985150
  5       0.087760556064
  6       0.141377467946
  7      -0.019336849212
  8      -0.080336014387
  9      -0.091564602268
 10      -0.020008406850
 11       0.011130968575
 12      -0.019419655325
 13       0.017058419340
 14       0.011312270869
 15       0.045406143880
 16      -0.262688284775
 17       0.530144945934
 18       0.073847329018
 19       0.087745154020
 20      -0.141406653187
 21      -0.019367590328
 22      -0.080346514484
 23       0.091639798000
 24       0.020007141906
 25       0.011128229571
 26      -0.019415681230
 27      -0.017057772249
 28      -0.011312076999
 29      -0.068491467204
 30       0.202848833383
 31       0.010186473943
 32       0.018742955846
 33       0.011228795208
 34       0.119710380506
 35      -0.000969358802
 36      -0.017698299800
 37       0.006212769477
 38       0.000726947326
 39      -0.119681959599
 40       0.000975616779
 41      -0.017696882667
 42       0.006211569712
 43      -0.000729397127
 44       0.068492104382
 45      -0.202819129257
 46       0.010184968013
 47       0.018742746726
 48      -0.011226475328
 49      -0.000004513845
 50       0.000036701840
 51      -0.000051802420
 52       0.268343652255
 53      -0.686889229278
 54      -0.000006242391
 55      -0.685660946623
 56       2.018871853240
 57       0.000111356635
 58       0.000001427880
 59       0.023604505512
 60      -0.089076590375
 61      -0.000000002451
 62       0.000000604047
 63       0.000379626107
 64       0.071423813915
 65      -1.036718077775
 66       0.063561030010
 67      -0.242838102814
 68      -0.035305729633
 69      -0.017654408045
 70       0.128013004649
 71      -0.288159698963
 72      -0.021446551305
 73      -0.010109707727
 74       0.035748099418
 75       0.018769428401
 76       0.008878284520
 77      -0.000377120883
 78      -0.071416247571
 79       1.036754881175
 80       0.063554695457
 81      -0.242833277702
 82       0.035288895551
 83      -0.017661155199
 84       0.128034865063
 85       0.288166810270
 86       0.021445977700
 87      -0.010111021761
 88       0.035749835890
 89      -0.018770552351
 90      -0.008878947759
 91      -0.000002554285
 92      -0.000003989633
 93      -0.000059382723
 94       0.042231832442
 95      -0.109118270752
 96      -0.000000888147
 97       0.107905575890
 98      -0.328748906480
 99       0.000018246115
100      -0.000000733739
101      -0.008567998446
102       0.022755816055
103      -0.000000165732
104      -0.000000037274
 Sym=     1a
 Ene= 5.28411298419229E-01
 Spin= Alpha
 Occup= 0.000000
  1      -0.082784948290
  2       0.469602657103
  3      -2.151418247557
  4       0.014131262052
  5       0.217396773053
  6      -0.022908003314
  7       0.153191071623
  8      -1.158005877730
  9      -0.525669850474
 10       0.013283238056
 11       0.039676924436
 12       0.000261591539
 13       0.012509856133
 14       0.062432747646
 15       0.082785640008
 16      -0.469601010434
 17       2.151400608639
 18       0.014127346915
 19       0.217395106734
 20       0.022911859987
 21       0.153195792159
 22      -1.158016501246
 23       0.525674137213
 24      -0.013283522873
 25       0.039677221982
 26       0.000259607787
 27      -0.012508913789
 28      -0.062432646105
 29      -0.508107655236
 30       0.325311287624
 31      -0.028991491198
 32       0.041736296805
 33       0.011246209663
 34       0.099446054867
 35      -0.090982317123
 36       0.024834847205
 37      -0.010958579007
 38      -0.015639295798
 39      -0.099430260204
 40       0.090976347779
 41       0.024836539529
 42      -0.010958435414
 43       0.015638328182
 44       0.508120569035
 45      -0.325305860843
 46      -0.028992858473
 47       0.041735900427
 48      -0.011246437901
 49      -0.000001273922
 50       0.000005541650
 51      -0.000005258063
 52       0.545524999487
 53       0.345156301654
 54      -0.000001152518
 55      -0.939063380446
 56      -0.679802432514
 57       0.000008442175
 58      -0.000000113666
 59      -0.007489668085
 60       0.000474882666
 61       0.000000489629
 62       0.000000399584
 63       0.009884034810
 64       0.056807183464
 65      -0.210470010978
 66       0.006561866771
 67       0.029240262470
 68      -0.055293300098
 69       0.079070694999
 70       0.103130283240
 71       0.110412973375
 72      -0.003545040609
 73      -0.001892281804
 74      -0.016767989786
 75       0.009356290384
 76      -0.011945978761
 77      -0.009884022917
 78      -0.056808020504
 79       0.210479876252
 80       0.006562433945
 81       0.029233504264
 82       0.055290616982
 83       0.079068905498
 84       0.103132801373
 85      -0.110413787702
 86       0.003545252608
 87      -0.001892298092
 88      -0.016768288039
 89      -0.009356628850
 90       0.011945638525
 91      -0.000000509857
 92      -0.000001619678
 93      -0.000003133584
 94       0.123341906330
 95       0.062233248978
 96       0.000000819561
 97       0.101762141800
 98       0.090165225838
 99       0.000001315905
100       0.000000067941
101      -0.016028765831
102      -0.010786427415
103      -0.000000012816
104      -0.000000001915
 Sym=     1a
 Ene= 5.49732497718062E-01
 Spin= Alpha
 Occup= 0.000000
  1      -0.102097710935
  2       0.435215878068
  3      -1.741170308118
  4      -0.094844986649
  5       0.578256390155
  6      -0.203295099464
  7       0.056420450079
  8      -1.609940621743
  9       0.551810997783
 10       0.047433520712
 11      -0.009975331578
 12       0.002454367778
 13       0.023300270671
 14      -0.037007080758
 15       0.102096573379
 16      -0.435208680440
 17       1.741154613657
 18      -0.094836987816
 19       0.578255551504
 20       0.203288574928
 21       0.056405461690
 22      -1.609945271173
 23      -0.551798211420
 24      -0.047433361114
 25      -0.009974239558
 26       0.002456026076
 27      -0.023300896376
 28       0.037006272647
 29      -0.065456559989
 30      -0.047836734046
 31      -0.012670151986
 32       0.026308063758
 33      -0.009310650800
 34      -0.379954061557
 35       0.301417666261
 36       0.023920670499
 37       0.052184862319
 38      -0.000805064814
 39       0.379947123735
 40      -0.301393754173
 41       0.023919632441
 42       0.052184117069
 43       0.000806462884
 44       0.065460359369
 45       0.047835483893
 46      -0.012669977326
 47       0.026308344873
 48       0.009309986270
 49      -0.000001317184
 50       0.000009511891
 51      -0.000011949487
 52      -0.296090974164
 53      -0.118132279208
 54      -0.000000287913
 55       0.374187107701
 56       0.480309270521
 57       0.000019749471
 58      -0.000000044844
 59      -0.001109415548
 60       0.005568149576
 61       0.000000028492
 62      -0.000000226873
 63       0.020161846075
 64       0.060744070876
 65       0.087654351728
 66      -0.003948345515
 67       0.054400968610
 68      -0.010955658152
 69      -0.018860591782
 70       0.041055449643
 71      -0.209677089656
 72       0.017454971054
 73      -0.001279301642
 74      -0.000375800793
 75       0.005572308729
 76       0.006535223966
 77      -0.020161175032
 78      -0.060742276951
 79      -0.087642605528
 80      -0.003945819723
 81       0.054402900995
 82       0.010952327510
 83      -0.018863221354
 84       0.041059810634
 85       0.209676549741
 86      -0.017454918863
 87      -0.001279224596
 88      -0.000375131484
 89      -0.005572418269
 90      -0.006535319230
 91      -0.000000619447
 92      -0.000001371107
 93      -0.000009973012
 94      -0.049802287698
 95      -0.054696382937
 96       0.000000371346
 97      -0.024684315288
 98      -0.069688144770
 99       0.000003864221
100      -0.000000020507
101       0.009124593381
102       0.004825278833
103      -0.000000029660
104      -0.000000011015
 Sym=     1a
 Ene= 5.93287743115969E-01
 Spin= Alpha
 Occup= 0.000000
  1       0.084257664413
  2      -0.294357723661
  3       0.563815456580
  4      -0.026851228851
  5       0.344753894453
  6       0.204569623723
  7      -0.313201367619
  8      -0.301421748246
  9      -0.306592100234
 10      -0.007928684893
 11      -0.049049217591
 12       0.079574710356
 13       0.030443660363
 14      -0.010090121361
 15       0.084255657617
 16      -0.294343133361
 17       0.563751002340
 18       0.026838826322
 19      -0.344759968796
 20       0.204565702537
 21       0.313209103888
 22       0.301446738949
 23      -0.306583553731
 24      -0.007928374088
 25       0.049048219819
 26      -0.079574731821
 27       0.030444138866
 28      -0.010086167395
 29       0.705861777821
 30      -0.714867986075
 31       0.066069815669
 32      -0.030730503674
 33      -0.085504323641
 34       0.257198054291
 35      -0.406170037458
 36      -0.069046959242
 37      -0.025541807534
 38       0.003510319938
 39       0.257211877807
 40      -0.406178310365
 41       0.069047802020
 42       0.025542720684
 43       0.003510749132
 44       0.705850644549
 45      -0.714846128153
 46      -0.066068264260
 47       0.030728245345
 48      -0.085503796820
 49      -0.039620947231
 50       0.090505847607
 51      -0.104902994799
 52      -0.000003339029
 53      -0.000000969009
 54       0.039748402142
 55       0.000006582699
 56       0.000000194695
 57       0.341524873476
 58      -0.008142576891
 59      -0.000000043498
 60       0.000000357347
 61       0.043276343713
 62       0.012378065359
 63       0.022511650667
 64       0.035013659123
 65       0.331308269696
 66      -0.108164359817
 67       0.135030458288
 68      -0.123253901322
 69       0.061229491080
 70      -0.228483702593
 71      -0.060869787975
 72      -0.004126129675
 73      -0.008615542648
 74       0.008501016944
 75      -0.008666934784
 76      -0.005248189696
 77       0.022511907236
 78       0.035015178691
 79       0.331304009014
 80       0.108163871590
 81      -0.135029270066
 82      -0.123254707278
 83      -0.061230787994
 84       0.228480513581
 85      -0.060870892331
 86      -0.004126258923
 87       0.008615838785
 88      -0.008500750818
 89      -0.008666587255
 90      -0.005248477316
 91      -0.034717865673
 92      -0.122823720478
 93      -0.134060313216
 94      -0.000001066892
 95      -0.000000245556
 96       0.043503827828
 97      -0.000000310007
 98      -0.000000009696
 99       0.079484328456
100       0.004054961411
101       0.000000117596
102       0.000000013619
103       0.000848090461
104       0.000302915346
 Sym=     1a
 Ene= 6.05769342727074E-01
 Spin= Alpha
 Occup= 0.000000
  1       0.113251563664
  2      -0.918641827422
  3       2.200291678191
  4       0.474670946735
  5       0.066713914912
  6       0.132403471635
  7      -0.912563167049
  8      -0.370018667093
  9      -0.110251016865
 10      -0.026797535442
 11       0.056802720004
 12       0.002256340626
 13       0.046118556170
 14       0.039605107038
 15       0.113252802987
 16      -0.918652401302
 17       2.200366344071
 18      -0.474675187934
 19      -0.066697659636
 20       0.132400142196
 21       0.912577125135
 22       0.369965538802
 23      -0.110248380730
 24      -0.026798593641
 25      -0.056802938500
 26      -0.002255430881
 27       0.046117857311
 28       0.039604280966
 29      -0.318327845021
 30       0.034900963748
 31       0.008901451084
 32       0.041018340583
 33       0.040943313560
 34       0.295081942952
 35      -1.642343561448
 36      -0.091178041881
 37      -0.048829356813
 38      -0.042300915210
 39       0.295075461208
 40      -1.642347959244
 41       0.091178051079
 42       0.048829250528
 43      -0.042301231463
 44      -0.318333379952
 45       0.034908836204
 46      -0.008900535617
 47      -0.041016938864
 48       0.040943784511
 49       0.048792885722
 50      -0.180453976926
 51      -0.071141502378
 52      -0.000003520076
 53      -0.000002181098
 54      -0.130277456871
 55       0.000004872376
 56       0.000007219551
 57       0.273878717870
 58       0.038985158602
 59       0.000000004909
 60      -0.000000565772
 61      -0.013188404935
 62       0.008473665068
 63      -0.023304894182
 64      -0.072491019581
 65      -0.152301626439
 66       0.084283645158
 67      -0.044987642957
 68       0.061637993178
 69      -0.121588063088
 70       0.007981436166
 71       0.094024802788
 72      -0.005153620405
 73       0.016054499114
 74       0.006892269945
 75      -0.006001423829
 76       0.003335638938
 77      -0.023305486753
 78      -0.072493485190
 79      -0.152293040699
 80      -0.084282118479
 81       0.044986314610
 82       0.061638459854
 83       0.121585244375
 84      -0.007978573794
 85       0.094028895136
 86      -0.005153540880
 87      -0.016054359842
 88      -0.006892603920
 89      -0.006001790556
 90       0.003335496706
 91       0.019333281847
 92       0.071985945385
 93      -0.120876068553
 94      -0.000000819862
 95      -0.000000430194
 96      -0.092792409863
 97      -0.000000222924
 98      -0.000000786491
 99      -0.049720268824
100      -0.017107522440
101       0.000000086190
102       0.000000118915
103      -0.000734948767
104      -0.001171034669
 Sym=     1a
 Ene= 6.31303218081014E-01
 Spin= Alpha
 Occup= 0.000000
  1      -0.112039660728
  2       0.807552461041
  3      -2.435111545101
  4       0.294259769430
  5      -0.351264994082
  6      -0.378606953254
  7      -0.561933002642
  8       0.662291156045
  9       0.899344233416
 10       0.000812118213
 11       0.041079838142
 12      -0.027916541197
 13      -0.037839968794
 14       0.029021217314
 15       0.112045777382
 16      -0.807600837882
 17       2.435232362729
 18       0.294268810345
 19      -0.351270879285
 20       0.378619704550
 21      -0.561967976753
 22       0.662318935537
 23      -0.899366244013
 24      -0.000811047493
 25       0.041080633857
 26      -0.027916733115
 27       0.037840421174
 28      -0.029022226906
 29      -0.260271746452
 30       1.706683559987
 31      -0.101926853739
 32       0.046891034142
 33       0.068939613313
 34      -0.092599418477
 35       0.604362090821
 36       0.027903323259
 37       0.008914223190
 38      -0.005020561360
 39       0.092595453710
 40      -0.604376279925
 41       0.027903512163
 42       0.008912144772
 43       0.005021132271
 44       0.260267890361
 45      -1.706753274142
 46      -0.101929056693
 47       0.046892953391
 48      -0.068942229072
 49      -0.000001777802
 50       0.000011094684
 51      -0.000013236151
 52      -0.123650207699
 53      -0.031947022950
 54       0.000008367026
 55       0.294793789280
 56       0.026350481828
 57       0.000005123372
 58      -0.000001403875
 59       0.006378714868
 60       0.016487011161
 61      -0.000000534145
 62      -0.000000159572
 63      -0.012722155617
 64      -0.045652341968
 65      -0.029664777574
 66      -0.004633658243
 67       0.015694697626
 68      -0.012826774370
 69       0.034532679247
 70      -0.054831151402
 71       0.106041147954
 72      -0.006764155129
 73      -0.001214730418
 74       0.007964157608
 75      -0.004529366473
 76       0.002276521962
 77       0.012721506287
 78       0.045650465643
 79       0.029659993483
 80      -0.004637153586
 81       0.015699847283
 82       0.012826267701
 83       0.034529987050
 84      -0.054826878717
 85      -0.106031677197
 86       0.006764512022
 87      -0.001214917171
 88       0.007964601613
 89       0.004529650826
 90      -0.002276438599
 91      -0.000001320081
 92      -0.000004314521
 93      -0.000001734926
 94      -0.069018374313
 95      -0.030193081558
 96       0.000003780027
 97      -0.011061386741
 98      -0.001363115408
 99       0.000005743039
100       0.000000721164
101       0.003209560229
102      -0.002184144616
103      -0.000000092309
104      -0.000000048179
 Sym=     1a
 Ene= 6.40632999732517E-01
 Spin= Alpha
 Occup= 0.000000
  1      -0.099937781610
  2       0.892330374804
  3      -2.256103168770
  4       0.386594094157
  5      -0.013428352315
  6      -0.217133373219
  7      -1.403375670957
  8       0.405035854027
  9       0.344580102523
 10      -0.021821658714
 11       0.015527105980
 12       0.026432332748
 13      -0.014700386751
 14       0.024239562694
 15      -0.099926772616
 16       0.892252254718
 17      -2.255882729774
 18      -0.386642784666
 19       0.013387035451
 20      -0.217113392923
 21       1.403455239535
 22      -0.404941587513
 23       0.344539527724
 24      -0.021824074205
 25      -0.015530177145
 26      -0.026434251941
 27      -0.014693936204
 28       0.024246452451
 29       0.177947426919
 30       1.525207879165
 31      -0.062298375931
 32       0.025674675176
 33       0.028182834236
 34       0.175059362694
 35      -0.150912704608
 36      -0.020505691844
 37      -0.057625149000
 38      -0.012529565962
 39       0.175097136838
 40      -0.151108206084
 41       0.020520113086
 42       0.057628787510
 43      -0.012532909854
 44       0.177950107580
 45       1.525153242187
 46       0.062295000600
 47      -0.025674447135
 48       0.028183252250
 49       0.077086993099
 50      -0.512165840545
 51       0.497400303219
 52      -0.000000005567
 53      -0.000003747778
 54      -0.395992393815
 55      -0.000002229261
 56       0.000009555986
 57      -0.092616901871
 58       0.064470912659
 59      -0.000000573345
 60      -0.000000591180
 61       0.033613063616
 62       0.012664520687
 63       0.013084838043
 64       0.017058795457
 65       0.285345752630
 66      -0.077682414561
 67       0.148548655958
 68      -0.000123956583
 69      -0.075557761730
 70      -0.013803260667
 71      -0.233181473009
 72      -0.006539812529
 73      -0.003875618939
 74       0.012681537285
 75      -0.011262519219
 76      -0.002120846849
 77       0.013085248248
 78       0.017058777407
 79       0.285369077816
 80       0.077682914480
 81      -0.148551972412
 82      -0.000121845720
 83       0.075546687429
 84       0.013797635451
 85      -0.233187166045
 86      -0.006539344168
 87       0.003876293191
 88      -0.012680401670
 89      -0.011261992715
 90      -0.002120727920
 91       0.054781227720
 92       0.174905462473
 93       0.046738545574
 94       0.000001363732
 95      -0.000001336795
 96      -0.169260858648
 97      -0.000000252678
 98      -0.000000906139
 99      -0.265334205191
100      -0.034445206356
101       0.000000029202
102       0.000000074730
103       0.004428512740
104       0.001631765453
 Sym=     1a
 Ene= 6.42972849889203E-01
 Spin= Alpha
 Occup= 0.000000
  1      -0.064182429488
  2       0.443669517173
  3      -1.043402837530
  4      -0.612927074956
  5      -0.259406369586
  6      -0.060011648936
  7       1.166822542436
  8       0.696364504598
  9       0.129582292344
 10       0.019182900169
 11      -0.042913527928
 12      -0.010513236035
 13      -0.040416294941
 14      -0.056822334374
 15       0.064192460260
 16      -0.443769627698
 17       1.043657560117
 18      -0.612882936599
 19      -0.259400062542
 20       0.060033325000
 21       1.166661789014
 22       0.696396921578
 23      -0.129607110572
 24      -0.019180712896
 25      -0.042910915803
 26      -0.010509223564
 27       0.040418116380
 28       0.056819068631
 29       0.022006850617
 30      -0.191536340662
 31       0.013780046727
 32      -0.001178474344
 33      -0.034396610427
 34      -0.250495682888
 35       1.620983024969
 36       0.125828647136
 37       0.016532224192
 38       0.037585219169
 39       0.250468869200
 40      -1.620955698427
 41       0.125825720159
 42       0.016524381240
 43      -0.037582672830
 44      -0.022032903125
 45       0.191367054145
 46       0.013773228182
 47      -0.001175754444
 48       0.034394133008
 49      -0.000001615904
 50       0.000015361237
 51      -0.000021768830
 52       0.075995033835
 53      -0.044875505356
 54       0.000007207016
 55      -0.197966239300
 56       0.136452551683
 57       0.000022136640
 58      -0.000000592506
 59      -0.018549962044
 60      -0.022111027983
 61      -0.000001857303
 62      -0.000000722558
 63       0.000566602228
 64       0.014690786533
 65      -0.131142223292
 66       0.012158204156
 67      -0.044129040320
 68      -0.004797444572
 69      -0.126211290770
 70      -0.025365879064
 71      -0.017799514116
 72       0.000153260643
 73       0.005349152877
 74       0.006906136172
 75      -0.002563303792
 76      -0.005890432867
 77      -0.000569103650
 78      -0.014696659133
 79       0.131109959146
 80       0.012149367605
 81      -0.044112823073
 82       0.004799932398
 83      -0.126219924156
 84      -0.025370674492
 85       0.017825729239
 86      -0.000153434575
 87       0.005348731254
 88       0.006907450895
 89       0.002563900627
 90       0.005890321926
 91      -0.000001765889
 92      -0.000005403508
 93      -0.000009903753
 94       0.072259541755
 95      -0.002404976203
 96       0.000002254086
 97      -0.001798075071
 98      -0.014100874490
 99       0.000009133205
100       0.000000426168
101      -0.000561268602
102       0.002445248613
103      -0.000000250242
104      -0.000000091260
 Sym=     1a
 Ene= 6.61534245443051E-01
 Spin= Alpha
 Occup= 0.000000
  1       0.016705086237
  2      -0.246403844230
  3       0.622878680912
  4      -0.244616906533
  5      -0.005567884009
  6       0.150909619203
  7       0.645308861292
  8      -0.030642983308
  9      -0.158876694014
 10      -0.005847314911
 11      -0.030235666615
 12       0.024797328554
 13      -0.019303333648
 14      -0.020446195214
 15       0.016703430549
 16      -0.246393602914
 17       0.622859225387
 18       0.244634273335
 19       0.005574287875
 20       0.150909664964
 21      -0.645338857852
 22       0.030620731515
 23      -0.158875123822
 24      -0.005846445886
 25       0.030236635084
 26      -0.024797451579
 27      -0.019304768576
 28      -0.020448532581
 29       0.009414476946
 30      -0.673091492655
 31       0.029907836435
 32      -0.023398067056
 33      -0.018159443057
 34      -0.167989252299
 35       0.385167232900
 36       0.030934426818
 37       0.019055026146
 38       0.005662297311
 39      -0.168000158931
 40       0.385217774934
 41      -0.030938410977
 42      -0.019055442520
 43       0.005662714029
 44       0.009417287447
 45      -0.673098602251
 46      -0.029908212177
 47       0.023398524731
 48      -0.018160324339
 49       0.109914639966
 50      -0.528824913415
 51      -0.279311048036
 52      -0.000000896502
 53       0.000001529188
 54      -0.923098683966
 55       0.000002854953
 56      -0.000005417412
 57       1.474788427873
 58       0.162133794150
 59       0.000000333024
 60       0.000000240000
 61       0.009853984742
 62       0.001211099298
 63      -0.033520565928
 64      -0.180573213735
 65       0.541542579297
 66      -0.041021221923
 67       0.059330088434
 68       0.064729647599
 69       0.113090765332
 70      -0.179908008610
 71      -0.053809850369
 72      -0.016428535802
 73      -0.005970639144
 74      -0.001245439851
 75      -0.028453912255
 76      -0.018464731620
 77      -0.033520352779
 78      -0.180572189265
 79       0.541536824121
 80       0.041021725920
 81      -0.059328678600
 82       0.064728459046
 83      -0.113088072527
 84       0.179908893778
 85      -0.053811411257
 86      -0.016428643078
 87       0.005970496700
 88       0.001245312940
 89      -0.028454007162
 90      -0.018464739556
 91       0.061428303522
 92       0.198007196950
 93      -0.502241067579
 94      -0.000000982573
 95       0.000000634253
 96      -0.391001741999
 97      -0.000000211004
 98       0.000000618552
 99      -0.319098898444
100      -0.086232136657
101      -0.000000115563
102      -0.000000017004
103      -0.001651572386
104      -0.000426909328
 Sym=     1a
 Ene= 7.86121210023132E-01
 Spin= Alpha
 Occup= 0.000000
  1      -0.040343082801
  2       0.567365149046
  3      -1.118222946616
  4      -0.170896703103
  5       0.130266335993
  6       0.140172130999
  7       1.511127713887
  8      -0.199618312984
  9      -0.648555422293
 10      -0.012587852041
 11       0.057794368166
 12       0.064630775763
 13      -0.000118360649
 14       0.001561780219
 15      -0.040338336761
 16       0.567296237265
 17      -1.117848420103
 18       0.170893706068
 19      -0.130255393412
 20       0.140177560330
 21      -1.511129897919
 22       0.199506611064
 23      -0.648612175335
 24      -0.012588532184
 25      -0.057796472210
 26      -0.064629548671
 27      -0.000121397362
 28       0.001564052351
 29      -0.170095919494
 30      -0.470046945149
 31       0.031509721639
 32      -0.068038606298
 33       0.022418139719
 34       0.562921854827
 35       0.563806684655
 36       0.019752837606
 37       0.001793516922
 38      -0.115100812669
 39       0.562895590579
 40       0.563770009547
 41      -0.019754431969
 42      -0.001791671544
 43      -0.115103406513
 44      -0.170139338065
 45      -0.470082160401
 46      -0.031506592809
 47       0.068038852504
 48       0.022417221462
 49       0.079362042260
 50      -0.883595890839
 51       1.374199520187
 52      -0.000000898796
 53       0.000001648315
 54      -0.017231099265
 55      -0.000001064885
 56      -0.000009841013
 57      -1.791163606896
 58      -0.072728132926
 59      -0.000000639725
 60      -0.000000196854
 61      -0.003862108514
 62       0.037323025097
 63       0.007965544551
 64       0.049298102749
 65      -0.378322114008
 66       0.316667328590
 67       0.089542544841
 68       0.007621134496
 69      -0.143384100097
 70       0.055777478573
 71      -0.095289489455
 72       0.011925445149
 73       0.015664245126
 74       0.016429629423
 75       0.013302301639
 76      -0.007788307826
 77       0.007967810411
 78       0.049308494518
 79      -0.378325922474
 80      -0.316663224239
 81      -0.089543591897
 82       0.007615469407
 83       0.143381237084
 84      -0.055773995768
 85      -0.095291451554
 86       0.011925977351
 87      -0.015663487481
 88      -0.016430409930
 89       0.013301570190
 90      -0.007788451396
 91       0.060237831041
 92       0.171453163922
 93       0.790599332971
 94       0.000000453205
 95       0.000003396805
 96       0.182445670177
 97      -0.000000194973
 98      -0.000000463598
 99      -0.586864342472
100       0.003822892860
101       0.000000093813
102       0.000000044212
103       0.006518714866
104       0.001523916771
 Sym=     1a
 Ene= 8.35232285965930E-01
 Spin= Alpha
 Occup= 0.000000
  1       0.061097265387
  2      -1.137845662340
  3       7.154667256851
  4       0.025472975351
  5      -0.142289232061
  6       0.065904098696
  7      -0.083632967472
  8       2.382408149506
  9      -0.224226358076
 10      -0.005590415129
 11       0.025193079066
 12      -0.012398114273
 13      -0.058606528257
 14      -0.026305005288
 15      -0.061098692993
 16       1.137867600509
 17      -7.154701223233
 18       0.025477881037
 19      -0.142296514391
 20      -0.065893555446
 21      -0.083731441572
 22       2.382421431856
 23       0.224185893137
 24       0.005589633416
 25       0.025189462704
 26      -0.012398231294
 27       0.058606787538
 28       0.026304905941
 29      -0.574424260754
 30      -0.546055049460
 31      -0.032795023792
 32      -0.028302408249
 33       0.036026961055
 34      -0.573323633148
 35      -0.573785542097
 36       0.034161669675
 37       0.005180261052
 38      -0.038421129580
 39       0.573358471660
 40       0.573811188117
 41       0.034161827822
 42       0.005178002894
 43       0.038414266249
 44       0.574405501112
 45       0.546020611850
 46      -0.032797738334
 47      -0.028297885445
 48      -0.036022753227
 49       0.000001920900
 50      -0.000023169628
 51       0.000028250415
 52       0.039486560140
 53      -0.115755665304
 54      -0.000005861094
 55      -0.051011427236
 56       0.488073228551
 57      -0.000042934911
 58      -0.000003423734
 59       0.029836420317
 60       0.037811361174
 61      -0.000001021193
 62       0.000000512826
 63       0.068492998371
 64       0.283156462321
 65       0.200256847665
 66      -0.092197772166
 67       0.112142508204
 68      -0.158765990679
 69       0.151452509250
 70      -0.235381573460
 71      -0.133484725165
 72       0.015516566806
 73      -0.008471424849
 74       0.017840494795
 75      -0.015255447453
 76       0.008755157045
 77      -0.068493289437
 78      -0.283155753231
 79      -0.200277097526
 80      -0.092216865776
 81       0.112145314614
 82       0.158765206060
 83       0.151463227519
 84      -0.235390843179
 85       0.133482621208
 86      -0.015514974169
 87      -0.008472750474
 88       0.017840562673
 89       0.015256220814
 90      -0.008755448718
 91       0.000002542092
 92       0.000008195495
 93       0.000021105425
 94      -0.037158334034
 95      -0.197313055471
 96       0.000009274557
 97       0.027746405550
 98       0.061520308410
 99      -0.000025987018
100      -0.000000120046
101      -0.003609545115
102      -0.001532571738
103       0.000000099868
104       0.000000002349
 Sym=     1a
 Ene= 8.92264023244667E-01
 Spin= Alpha
 Occup= 0.000000
  1       0.001173040061
  2      -0.013545889642
  3      -0.157309365680
  4      -0.041703750137
  5      -0.001037744252
  6      -0.039107585888
  7       0.160193277391
  8      -0.038417397759
  9      -0.140655902350
 10      -0.016945529355
 11       0.002912414854
 12       0.096348391440
 13      -0.021627154529
 14      -0.000725890533
 15       0.001172265364
 16      -0.013529024466
 17      -0.157422822999
 18       0.041703609795
 19       0.001036214002
 20      -0.039108636671
 21      -0.160196183434
 22       0.038458485197
 23      -0.140656434020
 24      -0.016945643879
 25      -0.002912255917
 26      -0.096348341891
 27      -0.021625868132
 28      -0.000723936723
 29      -0.065387959414
 30      -0.071907282749
 31      -0.023651667196
 32      -0.043635649199
 33       0.009564114015
 34       0.030999616425
 35       0.091656108828
 36       0.027866563270
 37      -0.017227528247
 38      -0.063933796759
 39       0.031009338864
 40       0.091664803831
 41      -0.027865342267
 42       0.017228283175
 43      -0.063933396443
 44      -0.065381306365
 45      -0.071898935502
 46       0.023651862395
 47       0.043634697326
 48       0.009562519112
 49      -0.014579211741
 50       0.443811491086
 51       0.726538979411
 52       0.000000582114
 53      -0.000001688575
 54       0.285009845109
 55      -0.000000151631
 56       0.000004010508
 57       0.175786518837
 58       0.165138916516
 59       0.000000418916
 60       0.000000584014
 61       0.016082480330
 62       0.015250063303
 63       0.026639735640
 64       0.109587177268
 65      -0.085813730343
 66       0.128077658350
 67       0.241638896355
 68       0.212490202892
 69      -0.117828863475
 70      -0.236246387910
 71      -0.339339720421
 72      -0.028314714177
 73       0.002066137924
 74       0.015430156498
 75      -0.006282000943
 76      -0.008559355494
 77       0.026637921706
 78       0.109579310833
 79      -0.085815262934
 80      -0.128078713909
 81      -0.241634478214
 82       0.212494029509
 83       0.117830944429
 84       0.236237966556
 85      -0.339339242407
 86      -0.028315080399
 87      -0.002066310460
 88      -0.015429809477
 89      -0.006281805182
 90      -0.008559734241
 91      -0.093896592749
 92      -0.322772945645
 93      -0.424030124394
 94      -0.000001425055
 95      -0.000002566580
 96      -0.593240637143
 97       0.000001832754
 98       0.000001355675
 99       1.238434356233
100       0.006126905897
101      -0.000000023771
102      -0.000000014250
103       0.010197638013
104       0.002420311461
 Sym=     1a
 Ene= 9.40476796605453E-01
 Spin= Alpha
 Occup= 0.000000
  1       0.022921791244
  2      -0.341431502256
  3       1.942269102213
  4       0.027313974239
  5      -0.013463430431
  6       0.003943422033
  7       0.124671780886
  8       0.439783747889
  9      -0.055563609404
 10       0.043035944376
 11      -0.087138243198
 12      -0.011376335910
 13      -0.033108501985
 14       0.136489298944
 15      -0.022921213232
 16       0.341423708852
 17      -1.942241986302
 18       0.027314161750
 19      -0.013459657693
 20      -0.003947093571
 21       0.124662313459
 22       0.439786784503
 23       0.055579783264
 24      -0.043034027979
 25      -0.087139209903
 26      -0.011378736675
 27       0.033108336386
 28      -0.136489711377
 29      -0.178998250103
 30      -0.245017417742
 31      -0.049256658165
 32       0.110809771898
 33      -0.142073595590
 34      -0.112215788260
 35      -0.194861305426
 36       0.044131810252
 37      -0.133620702356
 38       0.096940736196
 39       0.112212993826
 40       0.194864431859
 41       0.044131355354
 42      -0.133621860621
 43      -0.096945945218
 44       0.178993352546
 45       0.245016405362
 46      -0.049254772237
 47       0.110810504972
 48       0.142070932617
 49       0.000000273361
 50      -0.000007542815
 51      -0.000023815681
 52      -0.016988919601
 53       0.064582905530
 54      -0.000000259885
 55       0.219435509413
 56       0.220209500760
 57       0.000015423439
 58      -0.000001257350
 59      -0.007191437775
 60      -0.079135665864
 61       0.000001225801
 62       0.000000634717
 63      -0.011975166109
 64      -0.048983514389
 65       0.142568358525
 66       0.471901396721
 67      -0.026942785694
 68       0.081484328641
 69      -0.620668307479
 70       0.095844410701
 71      -0.256471433420
 72       0.006259574752
 73       0.024170690906
 74       0.001718422031
 75      -0.010595105127
 76      -0.013669794884
 77       0.011977223278
 78       0.048992810227
 79      -0.142571413678
 80       0.471897260188
 81      -0.026957375534
 82      -0.081491413689
 83      -0.620665231891
 84       0.095870817404
 85       0.256491849532
 86      -0.006259674858
 87       0.024170422057
 88       0.001717876116
 89       0.010595105410
 90       0.013669736278
 91      -0.000000394855
 92      -0.000002565961
 93       0.000003247129
 94      -0.343045721022
 95      -0.100234174369
 96       0.000004058545
 97       0.316902314424
 98       0.108232709057
 99      -0.000008803583
100      -0.000000056234
101       0.001598628232
102       0.008394559370
103      -0.000000077250
104      -0.000000121657
 Sym=     1a
 Ene= 1.02361821970556E+00
 Spin= Alpha
 Occup= 0.000000
  1      -0.058317098579
  2       0.660972105153
  3      -1.611357990422
  4      -0.008207104402
  5       0.098504465576
  6       0.205117873516
  7       0.222008746392
  8       0.214990362961
  9      -0.535953646740
 10      -0.024789395046
 11      -0.008874162241
 12      -0.049464933272
 13       0.011043701531
 14       0.004143814108
 15      -0.058317308901
 16       0.660977531430
 17      -1.611397386729
 18       0.008206804064
 19      -0.098504492889
 20       0.205118628002
 21      -0.222008062634
 22      -0.214980379028
 23      -0.535964860787
 24      -0.024790166435
 25       0.008873583283
 26       0.049464837272
 27       0.011044173729
 28       0.004141373498
 29       0.176586346760
 30       0.070640295855
 31       0.059517303761
 32       0.027188315201
 33       0.009197281498
 34       0.301305386668
 35       0.291975106421
 36      -0.025562131235
 37       0.005426780305
 38       0.021664428923
 39       0.301308435317
 40       0.291976770410
 41       0.025561987689
 42      -0.005428300582
 43       0.021664144712
 44       0.176588172091
 45       0.070642326893
 46      -0.059518652089
 47      -0.027187293825
 48       0.009198058801
 49      -0.029822776307
 50       0.553889999614
 51       1.914077238094
 52       0.000001020395
 53       0.000001685738
 54      -0.003509758631
 55      -0.000003694342
 56       0.000001453532
 57      -1.459702533778
 58       0.139679564080
 59      -0.000000082304
 60      -0.000000873112
 61      -0.061579875687
 62      -0.017174018855
 63      -0.054031752510
 64      -0.211149264807
 65      -0.171749526074
 66      -0.010117768118
 67      -0.460765280393
 68       0.028023813487
 69      -0.044699246214
 70       1.005203799205
 71      -0.375712006562
 72      -0.006044214007
 73      -0.003513242293
 74       0.001045580736
 75      -0.006288387861
 76      -0.009360918861
 77      -0.054030496439
 78      -0.211142415729
 79      -0.171763931031
 80       0.010132467386
 81       0.460763490216
 82       0.028021578576
 83       0.044679756481
 84      -1.005199922292
 85      -0.375703405998
 86      -0.006044116879
 87       0.003513683552
 88      -0.001045467283
 89      -0.006287973260
 90      -0.009360658119
 91       0.047490838746
 92       0.307119167798
 93      -0.275256014475
 94      -0.000010916593
 95      -0.000000784463
 96      -0.314806075508
 97       0.000013636707
 98       0.000001040405
 99       0.730744248296
100       0.007366016551
101       0.000000205524
102       0.000000061708
103       0.003527652235
104       0.007142306850
 Sym=     1a
 Ene= 1.05490534327964E+00
 Spin= Alpha
 Occup= 0.000000
  1      -0.002226444924
  2      -0.014019029228
  3       0.392026996084
  4       0.066867401542
  5      -0.068902360600
  6       0.009866185438
  7      -1.037256706518
  8       0.083491249067
  9       0.429234433204
 10       0.108923199201
 11      -0.041584805865
 12       0.051557351430
 13      -0.019961791188
 14      -0.004822794208
 15      -0.002227257884
 16      -0.014015177909
 17       0.392046017451
 18      -0.066866666520
 19       0.068903405240
 20       0.009865924409
 21       1.037256436345
 22      -0.083514189219
 23       0.429258297220
 24       0.108923997312
 25       0.041585767138
 26      -0.051558157299
 27      -0.019962203979
 28      -0.004820181845
 29       0.208131404363
 30       0.302133805811
 31      -0.090451222930
 32      -0.005475846344
 33      -0.069514175730
 34      -0.289742062686
 35      -0.254005088231
 36      -0.017332445193
 37       0.001892345498
 38      -0.026411995035
 39      -0.289741923516
 40      -0.253999345137
 41       0.017332204525
 42      -0.001890551239
 43      -0.026412475448
 44       0.208133486059
 45       0.302141780745
 46       0.090452338009
 47       0.005474744166
 48      -0.069515483603
 49      -0.033134033445
 50       0.246080409732
 51      -1.839268678405
 52      -0.000000857976
 53       0.000000230882
 54      -0.068338516403
 55       0.000002119882
 56      -0.000002843462
 57       0.615158110836
 58       0.076974792397
 59      -0.000000216973
 60       0.000000686045
 61       0.064792438692
 62      -0.102301425266
 63      -0.090735152114
 64      -0.511227717289
 65       0.903592048306
 66       0.430442683583
 67       0.002795439212
 68      -0.285576386829
 69      -0.661036542739
 70      -0.142849085597
 71       0.637870886700
 72      -0.006187664510
 73      -0.051796385316
 74       0.019571185273
 75      -0.017011807704
 76      -0.013898363299
 77      -0.090733815977
 78      -0.511221390120
 79       0.903594740881
 80      -0.430445395515
 81      -0.002798796882
 82      -0.285574112157
 83       0.661039505719
 84       0.142854926367
 85       0.637860655451
 86      -0.006187649325
 87       0.051796234472
 88      -0.019570664184
 89      -0.017011567557
 90      -0.013898281240
 91      -0.038873504604
 92      -0.236510268929
 93       0.403736399475
 94       0.000001196355
 95       0.000004151045
 96      -0.020407229090
 97      -0.000001552724
 98      -0.000004910348
 99      -0.033572202442
100      -0.003850908480
101       0.000000070668
102      -0.000000224660
103      -0.014602820918
104      -0.032120409545
 Sym=     1a
 Ene= 1.07802805408309E+00
 Spin= Alpha
 Occup= 0.000000
  1      -0.004365344566
  2       0.047321065470
  3      -0.309669990905
  4      -0.082804116541
  5       0.021636920339
  6       0.017717703531
  7       0.197143705704
  8      -0.133857870869
  9      -0.099625947993
 10      -0.036398393893
 11       0.075281928626
 12       0.004147087404
 13       0.020137424834
 14      -0.077424102408
 15       0.004366564533
 16      -0.047335108524
 17       0.309692773556
 18      -0.082803075090
 19       0.021639408414
 20      -0.017723497323
 21       0.197142021005
 22      -0.133858646655
 23       0.099635154514
 24       0.036398374757
 25       0.075281034682
 26       0.004144932877
 27      -0.020137729153
 28       0.077424144088
 29      -0.024004486106
 30      -0.097486938536
 31       0.057318421406
 32      -0.055625667718
 33       0.097849570509
 34       0.053611391635
 35       0.097013839322
 36       0.004985401525
 37       0.056003253697
 38      -0.079021736781
 39      -0.053616841039
 40      -0.097014372309
 41       0.004983880793
 42       0.056003959616
 43       0.079022134437
 44       0.023999820697
 45       0.097485652846
 46       0.057319555955
 47      -0.055625216928
 48      -0.097848046657
 49       0.000000321116
 50      -0.000005055906
 51      -0.000019393364
 52       0.098765388198
 53      -0.034879706270
 54       0.000000649661
 55      -0.715211461924
 56      -0.016313505731
 57       0.000014251989
 58      -0.000001237759
 59      -0.081775958810
 60       0.091390278131
 61       0.000000008015
 62       0.000000639491
 63      -0.031190966717
 64      -0.191070314808
 65       0.150735419962
 66      -0.066335253283
 67      -0.022822008630
 68      -0.082703028605
 69       0.177488854462
 70      -0.021646798532
 71       0.152286447993
 72      -0.014769196779
 73      -0.025396912960
 74       0.007082458857
 75       0.008647084827
 76       0.010661018275
 77       0.031190620558
 78       0.191066265688
 79      -0.150720665339
 80      -0.066332132792
 81      -0.022827454549
 82       0.082705365394
 83       0.177482319439
 84      -0.021631653609
 85      -0.152284868964
 86       0.014769406183
 87      -0.025397377709
 88       0.007082318978
 89      -0.008647116326
 90      -0.010660819023
 91      -0.000000605566
 92      -0.000003978711
 93       0.000004227061
 94      -0.815509382516
 95       0.200352255500
 96       0.000003986422
 97       1.215530436751
 98      -0.301922815554
 99      -0.000008400238
100      -0.000000103117
101       0.037452761771
102      -0.020838119587
103      -0.000000067382
104      -0.000000010455
 Sym=     1a
 Ene= 1.10308983344898E+00
 Spin= Alpha
 Occup= 0.000000
  1      -0.037590044746
  2       0.637607505078
  3      -2.684545745909
  4      -0.017840427629
  5      -0.029372668627
  6       0.132673108907
  7       0.142014574329
  8      -0.373016662169
  9      -0.286985904301
 10       0.037143577572
 11       0.010009498396
 12       0.034692985257
 13       0.014539358714
 14       0.013755694427
 15       0.037590712603
 16      -0.637614626763
 17       2.684560428793
 18      -0.017838275137
 19      -0.029365485797
 20      -0.132680502217
 21       0.141966918606
 22      -0.373027333861
 23       0.287006180455
 24      -0.037136652740
 25       0.010002942249
 26       0.034675787459
 27      -0.014539756240
 28      -0.013753489682
 29       0.197362305669
 30       0.197211705442
 31       0.018829976113
 32       0.025316975142
 33      -0.033966671332
 34       0.292391569654
 35       0.336387565998
 36      -0.001802503153
 37       0.001398622884
 38      -0.049316185190
 39      -0.292386719389
 40      -0.336367257067
 41      -0.001808682793
 42       0.001401992745
 43       0.049305646942
 44      -0.197373741510
 45      -0.197217617947
 46       0.018835302124
 47       0.025317831269
 48       0.033962412832
 49       0.000000777899
 50      -0.000012827362
 51      -0.000078820001
 52       0.088153682436
 53      -0.129259163221
 54       0.000006919536
 55      -0.260481419510
 56      -0.043954230356
 57       0.000012016727
 58       0.000003868060
 59      -0.056821886568
 60       0.021865634809
 61       0.000000699009
 62       0.000006676672
 63       0.059954640563
 64       0.307259754393
 65      -0.684065741134
 66      -0.034678906712
 67       0.443522986559
 68       0.151126087106
 69       0.066422160130
 70      -0.734862770142
 71      -0.081697374535
 72       0.006379062192
 73       0.007044590477
 74      -0.030580523926
 75       0.048619449312
 76       0.020009918684
 77      -0.059963691012
 78      -0.307317995754
 79       0.684167814562
 80      -0.034652313674
 81       0.443524349036
 82      -0.151150321577
 83       0.066374965340
 84      -0.734842836424
 85       0.081761167521
 86      -0.006380838265
 87       0.007042132731
 88      -0.030586942060
 89      -0.048621186614
 90      -0.020011021063
 91      -0.000002478590
 92      -0.000015334710
 93       0.000032208531
 94      -0.163815269140
 95      -0.457860074360
 96      -0.000000306306
 97       0.286752416576
 98       0.588300625991
 99      -0.000003589766
100       0.000000291143
101       0.008546531030
102       0.026600701111
103      -0.000001505928
104       0.000000068652
 Sym=     1a
 Ene= 1.12449754823552E+00
 Spin= Alpha
 Occup= 0.000000
  1       0.006792295338
  2      -0.050173406258
  3       0.083889358790
  4      -0.030505958327
  5      -0.057684529592
  6      -0.067930894778
  7       0.912865386793
  8       0.071523310899
  9       0.079294950099
 10       0.064176315607
 11       0.101212389359
 12       0.211901350675
 13      -0.000041590920
 14       0.019525916007
 15       0.006789074098
 16      -0.050112719753
 17       0.083600783054
 18       0.030507858087
 19       0.057686431564
 20      -0.067918765272
 21      -0.912876526051
 22      -0.071450260674
 23       0.079260279545
 24       0.064180314472
 25      -0.101215800534
 26      -0.211904090819
 27      -0.000039423897
 28       0.019528888000
 29      -0.215757116236
 30      -0.184357896650
 31      -0.042038316921
 32      -0.030925210028
 33      -0.027298214131
 34       0.176738062822
 35       0.306306541853
 36       0.084328949968
 37      -0.032137550549
 38      -0.165566449584
 39       0.176764825034
 40       0.306332571034
 41      -0.084327623814
 42       0.032139117867
 43      -0.165571694467
 44      -0.215739545164
 45      -0.184341484391
 46       0.042037908547
 47       0.030923936625
 48      -0.027300905124
 49       0.025028524865
 50      -0.354531452556
 51      -1.487258318064
 52      -0.000003388613
 53       0.000001767640
 54       0.170227150272
 55       0.000017936603
 56       0.000015015604
 57       0.107610470933
 58       0.079871316113
 59       0.000003156356
 60       0.000001926663
 61      -0.005727671316
 62       0.192159187451
 63      -0.091018419919
 64      -0.599353022147
 65       1.055235732686
 66      -0.325409394040
 67      -0.000643950187
 68      -0.236752161887
 69       0.606067922464
 70      -0.236619674609
 71       0.637134890894
 72      -0.017010560001
 73       0.050583424673
 74       0.077713185738
 75      -0.018209700478
 76      -0.012137809256
 77      -0.091015236342
 78      -0.599335713857
 79       1.055184082829
 80       0.325415504616
 81       0.000614733219
 82      -0.236734986685
 83      -0.606077964488
 84       0.236663387688
 85       0.637124528599
 86      -0.017010348017
 87      -0.050583580988
 88      -0.077709845345
 89      -0.018206078447
 90      -0.012137000621
 91      -0.050638636568
 92      -0.316391281437
 93       0.710379913916
 94       0.000011011638
 95       0.000025767836
 96      -0.021370940063
 97      -0.000019402431
 98      -0.000037941976
 99      -0.060761980356
100       0.007640287084
101      -0.000000646625
102      -0.000001836699
103      -0.033797560687
104       0.007460165045
 Sym=     1a
 Ene= 1.12956276240172E+00
 Spin= Alpha
 Occup= 0.000000
  1       0.004982916793
  2      -0.022786282393
  3      -0.599894317857
  4      -0.011285256872
  5       0.026102561784
  6      -0.064572232590
  7      -0.048852686067
  8      -0.582891513736
  9       0.162217330773
 10      -0.009717841504
 11       0.049362560379
 12       0.020653573689
 13       0.009679940012
 14      -0.027508233950
 15      -0.004982599676
 16       0.022784059435
 17       0.599898251201
 18      -0.011283170346
 19       0.026103775821
 20       0.064569464160
 21      -0.048877702644
 22      -0.582891693551
 23      -0.162215044757
 24       0.009720038167
 25       0.049361744267
 26       0.020648036759
 27      -0.009680132053
 28       0.027509599189
 29       0.036462669793
 30       0.008432608489
 31      -0.023001702874
 32      -0.101844019379
 33       0.043146614639
 34      -0.007129165947
 35      -0.078747453418
 36       0.011054501732
 37       0.008769151438
 38      -0.035210398234
 39       0.007132616721
 40       0.078757091515
 41       0.011050491112
 42       0.008773149409
 43       0.035207772512
 44      -0.036468606975
 45      -0.008438860107
 46      -0.023001771761
 47      -0.101845691478
 48      -0.043148391032
 49       0.000000428611
 50      -0.000006437161
 51      -0.000026376629
 52      -0.037685882072
 53       0.264224676983
 54       0.000002289316
 55      -0.228217917354
 56      -1.034003358063
 57       0.000004599037
 58       0.000000553985
 59       0.032938222973
 60      -0.241123178716
 61       0.000000373916
 62       0.000001710078
 63      -0.012635246048
 64      -0.018637119482
 65       0.299404426195
 66      -0.117757869809
 67      -0.314769559066
 68       0.048459606995
 69       0.192331903543
 70       0.696524025075
 71      -0.061959031341
 72      -0.004399453272
 73      -0.010187631046
 74      -0.016776419156
 75      -0.042900745162
 76      -0.017221341811
 77       0.012632417910
 78       0.018618008346
 79      -0.299366920951
 80      -0.117752078641
 81      -0.314771925593
 82      -0.048464993707
 83       0.192319039161
 84       0.696536939326
 85       0.061975481051
 86       0.004399033017
 87      -0.010188443778
 88      -0.016778416055
 89       0.042900328804
 90       0.017221039413
 91      -0.000000920903
 92      -0.000005973753
 93       0.000012415944
 94      -0.139442117146
 95      -0.643047676640
 96       0.000000290104
 97       0.219454435361
 98       1.187546506675
 99      -0.000003003991
100       0.000000089184
101       0.005463283577
102       0.056356966078
103      -0.000000409091
104       0.000000019346
 Sym=     1a
 Ene= 1.27772624885253E+00
 Spin= Alpha
 Occup= 0.000000
  1       0.003097952444
  2      -0.070948675836
  3       0.157129316235
  4       0.097217261282
  5      -0.018633057263
  6       0.032825891085
  7      -0.713816911178
  8       0.079435883803
  9       0.114310328892
 10      -0.025756715475
 11       0.122764556027
 12       0.082332645481
 13       0.017665200289
 14      -0.183385165751
 15       0.003097928737
 16      -0.070961387930
 17       0.157327749740
 18      -0.097218926995
 19       0.018637972778
 20       0.032833519542
 21       0.713837007776
 22      -0.079485601311
 23       0.114366995353
 24      -0.025744258556
 25      -0.122752252920
 26      -0.082335188244
 27       0.017658891908
 28      -0.183370703645
 29       0.131358827057
 30       0.193435549272
 31      -0.123914420221
 32      -0.327523446436
 33       0.116217613645
 34      -0.163198647465
 35      -0.258151954231
 36      -0.125972547319
 37       0.366720573584
 38      -0.171556405285
 39      -0.163215153805
 40      -0.258173703342
 41       0.125972186492
 42      -0.366708924478
 43      -0.171544763696
 44       0.131358459486
 45       0.193429297389
 46       0.123928552827
 47       0.327514692972
 48       0.116198955575
 49      -0.026029251842
 50       0.292963793516
 51       0.313124155928
 52       0.000001166438
 53       0.000001174634
 54      -0.094320562864
 55       0.000038398984
 56      -0.000058781767
 57       0.078854334324
 58      -0.005840191074
 59      -0.000000205001
 60       0.000000802966
 61      -0.084490429670
 62       0.015202687218
 63       0.026461752260
 64       0.206477964363
 65      -0.416807747219
 66      -0.010954418331
 67      -0.089489488765
 68       0.030074005841
 69      -0.097425016205
 70       0.275059194766
 71      -0.132476001467
 72       0.017669437290
 73       0.032145673628
 74      -0.007365909029
 75      -0.015345678514
 76      -0.011363564337
 77       0.026464528356
 78       0.206492588895
 79      -0.416832495529
 80       0.010989148305
 81       0.089496164826
 82       0.030087416856
 83       0.097355225888
 84      -0.275075807410
 85      -0.132545162857
 86       0.017671197938
 87      -0.032149782468
 88       0.007367628961
 89      -0.015347409889
 90      -0.011359783920
 91       0.010126097455
 92       0.074573681573
 93      -0.248295906317
 94       0.000007833821
 95      -0.000011458897
 96       0.028772095861
 97      -0.000020244081
 98       0.000027929312
 99       0.021720059233
100      -0.005644585021
101      -0.000001151247
102       0.000000564099
103       0.001316388058
104       0.006475330318
 Sym=     1a
 Ene= 1.29091399835666E+00
 Spin= Alpha
 Occup= 0.000000
  1       0.004621671238
  2      -0.011937396993
  3      -0.847307400257
  4      -0.016048844346
  5       0.021268445688
  6      -0.081503027236
  7       0.224637234685
  8      -0.016003523924
  9      -0.414554108064
 10      -0.127036251889
 11       0.146416360348
 12      -0.020134180420
 13       0.054016843534
 14      -0.158944345431
 15      -0.004620710980
 16       0.011932323779
 17       0.847276253329
 18      -0.016038809726
 19       0.021266454967
 20       0.081489381655
 21       0.224598616666
 22      -0.016007090918
 23       0.414547675047
 24       0.127036256746
 25       0.146429809626
 26      -0.020129144622
 27      -0.054018236692
 28       0.158961625022
 29      -0.050553934949
 30       0.021277396045
 31       0.151204729252
 32      -0.072322671632
 33       0.209317242690
 34       0.100337550289
 35       0.180582343023
 36      -0.002612586747
 37       0.144741598329
 38      -0.144947969505
 39      -0.100326461676
 40      -0.180562482759
 41      -0.002622829637
 42       0.144774245420
 43       0.144965281429
 44       0.050547233322
 45      -0.021280565235
 46       0.151195657309
 47      -0.072353576657
 48      -0.209326649748
 49       0.000001225821
 50      -0.000013927581
 51      -0.000026534384
 52       0.032634653971
 53       0.002203463368
 54       0.000004575179
 55       0.893171356185
 56      -0.994483581525
 57       0.000007572626
 58      -0.000001692744
 59       0.039018876787
 60       0.046450001534
 61       0.000003266125
 62      -0.000001219369
 63      -0.024457548056
 64      -0.142921652023
 65       0.371672468885
 66       0.416056894938
 67       0.085143170200
 68      -0.140209227285
 69      -0.815066149293
 70      -0.232729363912
 71       0.627653463837
 72      -0.010383911764
 73      -0.053176711262
 74       0.017762007196
 75       0.015312587023
 76      -0.036679596061
 77       0.024453204012
 78       0.142887824424
 79      -0.371595817665
 80       0.416055088951
 81       0.085136866847
 82       0.140218432200
 83      -0.815076143516
 84      -0.232701426568
 85      -0.627669713946
 86       0.010381955347
 87      -0.053174029590
 88       0.017762215997
 89      -0.015311410278
 90       0.036680777236
 91      -0.000001633348
 92      -0.000010919458
 93       0.000019009892
 94       0.178161291035
 95      -0.171019135703
 96       0.000003212183
 97      -0.494940404875
 98       0.423942266940
 99      -0.000010563335
100       0.000000013849
101      -0.036826118858
102       0.002032536919
103       0.000000155110
104      -0.000000203362
 Sym=     1a
 Ene= 1.41298876014603E+00
 Spin= Alpha
 Occup= 0.000000
  1       0.021426279064
  2      -0.104648198442
  3      -1.264617546273
  4      -0.059869417695
  5       0.058344752373
  6      -0.249643726925
  7      -0.369784480105
  8       0.430805641992
  9      -0.205982471117
 10      -0.050848313089
 11      -0.070885469200
 12       0.235483805237
 13      -0.008262018566
 14       0.021712278171
 15       0.021427384886
 16      -0.104618320375
 17      -1.265345445260
 18       0.059873379557
 19      -0.058360419799
 20      -0.249674112888
 21       0.369805673086
 22      -0.430659211600
 23      -0.206189496935
 24      -0.050883386489
 25       0.070900091486
 26      -0.235468944172
 27      -0.008252671750
 28       0.021720471239
 29       0.168200929727
 30       0.333795907677
 31      -0.103440635412
 32       0.057050124206
 33      -0.094901263577
 34       0.065929678113
 35       0.179975078830
 36      -0.007689246402
 37      -0.038769594637
 38       0.009667644370
 39       0.065965094210
 40       0.180018169492
 41       0.007701478651
 42       0.038750697656
 43       0.009706157602
 44       0.168230534713
 45       0.333842826218
 46       0.103442251234
 47      -0.057068617395
 48      -0.094916248193
 49      -0.010540490371
 50       0.039986612373
 51      -0.429847531632
 52      -0.000007050433
 53       0.000015212560
 54      -0.025601289977
 55      -0.000036852081
 56       0.000237500009
 57       0.154160743325
 58      -0.099663225471
 59       0.000030617671
 60      -0.000012954324
 61      -0.070284163423
 62       0.073549718852
 63      -0.060207531135
 64      -0.500928403815
 65       1.337117122407
 66       0.070556347066
 67      -0.171291636212
 68       0.420184495032
 69      -0.064479588542
 70       0.179025868449
 71      -1.205624419904
 72      -0.061438584408
 73       0.036594949307
 74      -0.015112394270
 75      -0.011598400975
 76      -0.028018089138
 77      -0.060206573235
 78      -0.500921460883
 79       1.337132490802
 80      -0.070553025676
 81       0.171293574676
 82       0.420100254755
 83       0.064481906304
 84      -0.178985870669
 85      -1.205263770063
 86      -0.061430459076
 87      -0.036590481460
 88       0.015097122300
 89      -0.011593233923
 90      -0.028028225843
 91      -0.112429404770
 92      -0.715611182097
 93       1.026705509622
 94      -0.000002647606
 95       0.000025172495
 96       0.293861695983
 97      -0.000003726521
 98      -0.000081858501
 99      -0.715249396599
100      -0.032561849731
101      -0.000006084309
102      -0.000001265104
103       0.021963033424
104       0.023524876686
 Sym=     1a
 Ene= 1.42357679138364E+00
 Spin= Alpha
 Occup= 0.000000
  1      -0.006620564643
  2      -0.142558042690
  3       3.656368163471
  4       0.022673825548
  5      -0.077298490101
  6       0.143180994065
  7       0.182446682816
  8       0.781927628068
  9       1.064937272443
 10       0.163138512545
 11       0.127090360702
 12       0.081673369237
 13      -0.036977859380
 14      -0.078334293947
 15       0.006616722353
 16       0.142574924755
 17      -3.656117248736
 18       0.022660181040
 19      -0.077286359403
 20      -0.143133667829
 21       0.182340112004
 22       0.782008086746
 23      -1.064897196870
 24      -0.163127065200
 25       0.127073432549
 26       0.081717133046
 27       0.036978323356
 28       0.078328363212
 29      -0.151765308514
 30      -0.235821671436
 31       0.030011865296
 32      -0.106909232875
 33       0.102996632046
 34      -0.161066400907
 35      -0.173462764845
 36       0.068232586031
 37      -0.085963624362
 38      -0.228982325797
 39       0.161061095565
 40       0.173440479493
 41       0.068228288248
 42      -0.085974184506
 43       0.228980256129
 44       0.151726931692
 45       0.235743986772
 46       0.029994521097
 47      -0.106894613446
 48      -0.102981649175
 49       0.000000984699
 50      -0.000004379064
 51       0.000037123747
 52      -0.069975434876
 53       0.158982212177
 54       0.000000411552
 55      -0.306746428846
 56       2.371118342143
 57      -0.000017431344
 58       0.000007920041
 59       0.333951004560
 60      -0.128680675864
 61       0.000005177247
 62      -0.000007657361
 63      -0.005961020295
 64      -0.043000466876
 65      -0.040882137773
 66       0.049088550215
 67       0.016394443316
 68       0.413126638898
 69      -0.048377540010
 70       0.189374831396
 71      -1.804478760983
 72      -0.046090946126
 73       0.012222726952
 74      -0.079321992402
 75      -0.025406931483
 76       0.047658481096
 77       0.005972633959
 78       0.043099125555
 79       0.040614005265
 80       0.049101056996
 81       0.016361125501
 82      -0.413206568007
 83      -0.048385711800
 84       0.189407833871
 85       1.804713213298
 86       0.046104138873
 87       0.012229285235
 88      -0.079324356367
 89       0.025409281192
 90      -0.047653543958
 91       0.000010502733
 92       0.000066031569
 93      -0.000090210493
 94      -0.024219588105
 95       0.245315652925
 96      -0.000028595699
 97      -0.068005421696
 98      -0.812928353547
 99       0.000065618058
100       0.000003108344
101      -0.069482300337
102      -0.014347919489
103      -0.000002345289
104      -0.000002300527
 Sym=     1a
 Ene= 1.52385691607995E+00
 Spin= Alpha
 Occup= 0.000000
  1       0.006487196620
  2       0.076622321186
  3      -1.871425490668
  4       0.001445085438
  5       0.028477417555
  6      -0.202737679900
  7       0.063796695288
  8       0.117724826121
  9      -0.167842440866
 10      -0.085376037236
 11       0.076094417292
 12       0.159128176177
 13       0.010251457557
 14       0.100094740231
 15      -0.006489365877
 16      -0.076569696321
 17       1.871240849145
 18       0.001450926052
 19       0.028458518930
 20       0.202710638134
 21       0.063851074916
 22       0.117762950943
 23       0.167736913540
 24       0.085356497458
 25       0.076110979372
 26       0.159168188238
 27      -0.010235765010
 28      -0.100108653732
 29       0.190449290702
 30       0.274322306196
 31      -0.193462774115
 32      -0.341105587003
 33      -0.083063838535
 34       0.164955237481
 35       0.343951277682
 36      -0.005421582346
 37       0.081029465458
 38       0.024810291153
 39      -0.164955652243
 40      -0.343943619137
 41      -0.005409018879
 42       0.081009915426
 43      -0.024818579147
 44      -0.190439597657
 45      -0.274301385368
 46      -0.193514078661
 47      -0.341095312425
 48       0.083126213288
 49       0.000009957285
 50      -0.000108353413
 51      -0.000139870870
 52      -0.000032797427
 53       0.143589631640
 54       0.000010082457
 55      -0.192368228231
 56       1.123333236823
 57      -0.000146729486
 58      -0.000015279297
 59      -0.013084564111
 60      -0.082886156657
 61       0.000029546826
 62      -0.000018442222
 63       0.151530082944
 64       1.115802793243
 65      -2.450041415043
 66       0.126172831454
 67      -0.084448916319
 68      -0.071606461064
 69      -0.405844511593
 70       0.367871566517
 71       0.237105223327
 72       0.073442093398
 73      -0.050354993291
 74      -0.043517105550
 75      -0.016255353989
 76      -0.054100517940
 77      -0.151547174384
 78      -1.115941885149
 79       2.450349522301
 80       0.126180366548
 81      -0.084457449050
 82       0.071616512756
 83      -0.405884528658
 84       0.367951796104
 85      -0.237116607651
 86      -0.073447832296
 87      -0.050341304696
 88      -0.043514452289
 89       0.016261514730
 90       0.054113731663
 91      -0.000013584772
 92      -0.000103010266
 93       0.000290370809
 94      -0.048757894867
 95       0.183112388759
 96      -0.000002665916
 97       0.118747658255
 98      -0.521209895954
 99      -0.000082968102
100      -0.000002282216
101       0.007156896514
102      -0.034999677988
103       0.000001574893
104      -0.000003182056
 Sym=     1a
 Ene= 1.53610922813040E+00
 Spin= Alpha
 Occup= 0.000000
  1       0.012886616202
  2      -0.297187448710
  3       0.950846748282
  4       0.017056768466
  5      -0.078740726436
  6       0.110624040351
  7       0.077067094267
  8       0.179337753977
  9       0.569004813708
 10       0.103204292011
 11       0.043404007696
 12       0.215704745684
 13      -0.067986413139
 14       0.063573532832
 15       0.012884910034
 16      -0.297202006455
 17       0.951256120320
 18      -0.017055149112
 19       0.078747411085
 20       0.110666234340
 21      -0.077046406465
 22      -0.179318511000
 23       0.569070904096
 24       0.103227926271
 25      -0.043389968785
 26      -0.215671828201
 27      -0.067990505380
 28       0.063557125082
 29      -0.035036100275
 30      -0.034132274786
 31      -0.235230623074
 32       0.070851847364
 33      -0.289343886861
 34      -0.040587008753
 35      -0.098574865167
 36       0.047850500947
 37      -0.075777014288
 38       0.017566810307
 39      -0.040622682045
 40      -0.098651200570
 41      -0.047847132677
 42       0.075793984548
 43       0.017558479302
 44      -0.035068409905
 45      -0.034181703073
 46       0.235199309897
 47      -0.070922313354
 48      -0.289331984776
 49      -0.105204732789
 50       1.157017803386
 51       1.410813957322
 52      -0.000000483229
 53       0.000015788339
 54      -0.052253818108
 55      -0.000019045203
 56       0.000115442437
 57       1.884603415423
 58       0.189820372970
 59      -0.000004620075
 60      -0.000009538471
 61      -0.261120812313
 62       0.140683982585
 63       0.078396546152
 64       0.636007344559
 65      -1.345480376461
 66       0.036196426154
 67      -0.031182136653
 68      -0.028329092702
 69      -0.188794634260
 70       0.327047554887
 71      -0.006489314596
 72       0.020584121171
 73       0.053216029501
 74       0.014941603113
 75      -0.038179697635
 76      -0.065837362923
 77       0.078364302263
 78       0.635767726295
 79      -1.344944627571
 80      -0.036171682898
 81       0.031164632468
 82      -0.028315929417
 83       0.188709161183
 84      -0.326968657316
 85      -0.006545874467
 86       0.020567913905
 87      -0.053226669551
 88      -0.014950469828
 89      -0.038176922616
 90      -0.065824867699
 91       0.150809128072
 92       1.157889198652
 93      -3.374478020341
 94      -0.000004167651
 95       0.000018596436
 96       0.063389727629
 97       0.000013625445
 98      -0.000053223893
 99       0.923999459899
100       0.028199861501
101       0.000001725338
102      -0.000003515870
103      -0.011507005914
104       0.026658553347
 Sym=     1a
 Ene= 1.56343391079462E+00
 Spin= Alpha
 Occup= 0.000000
  1       0.030638681478
  2      -0.333197922917
  3       0.099756399211
  4      -0.016107367738
  5       0.007757021894
  6      -0.170144157459
  7      -0.566390431839
  8       0.259534100430
  9       0.253772426193
 10      -0.029562415559
 11      -0.009864537589
 12       0.158310437136
 13      -0.025882490564
 14       0.011318796985
 15       0.030639345797
 16      -0.333203795041
 17       0.099769266800
 18       0.016104713276
 19      -0.007756654551
 20      -0.170148511446
 21       0.566389269929
 22      -0.259550636557
 23       0.253767859590
 24      -0.029568061028
 25       0.009861305571
 26      -0.158312170041
 27      -0.025879512389
 28       0.011318809933
 29       0.121210499346
 30       0.266082456928
 31       0.128141101162
 32       0.052840538267
 33       0.127446671328
 34      -0.125443417404
 35      -0.121228155319
 36       0.091861903266
 37      -0.016776082104
 38      -0.217120090004
 39      -0.125444897102
 40      -0.121227136894
 41      -0.091859213172
 42       0.016772619144
 43      -0.217116545244
 44       0.121209422794
 45       0.266085073903
 46      -0.128141508959
 47      -0.052833412486
 48       0.127449694708
 49      -0.054319298802
 50       0.710036030775
 51       0.292653811620
 52       0.000000602952
 53      -0.000004293438
 54       0.321443443351
 55       0.000009021803
 56      -0.000028231409
 57       3.093449623465
 58       0.273391894996
 59       0.000011518592
 60       0.000006022144
 61       0.321005268981
 62      -0.446065115200
 63      -0.034673582392
 64      -0.328289524824
 65       1.235774905324
 66      -0.036723227532
 67       0.032325590144
 68       0.134371522059
 69       0.226861382864
 70      -0.378313943021
 71      -0.488361391824
 72      -0.063000121654
 73      -0.087512402072
 74      -0.001558521162
 75      -0.074168111846
 76       0.074989451468
 77      -0.034669399857
 78      -0.328256963109
 79       1.235699985599
 80       0.036719519491
 81      -0.032323804105
 82       0.134375480558
 83      -0.226845997582
 84       0.378299867507
 85      -0.488374529806
 86      -0.062998724457
 87       0.087512882985
 88       0.001559531100
 89      -0.074166858273
 90       0.074983495675
 91       0.131316699716
 92       1.088411279632
 93      -3.760737444046
 94      -0.000000885413
 95      -0.000003789151
 96       0.228199566462
 97      -0.000004874040
 98       0.000009480458
 99       0.834299335418
100       0.040017103360
101      -0.000003022848
102      -0.000000313051
103       0.041943459461
104      -0.052234776394
 Sym=     1a
 Ene= 1.56726202881820E+00
 Spin= Alpha
 Occup= 0.000000
  1       0.020288568845
  2      -0.174492018591
  3       1.047029434589
  4       0.056650919401
  5      -0.096123666126
  6       0.025086669986
  7       0.057591780666
  8      -0.179669919416
  9       0.018261825915
 10       0.002055755532
 11       0.027992200193
 12      -0.089858813715
 13       0.044697712780
 14      -0.049569445982
 15      -0.020288033015
 16       0.174485780698
 17      -1.047032020084
 18       0.056649821755
 19      -0.096124961781
 20      -0.025094237604
 21       0.057605864223
 22      -0.179673490536
 23      -0.018255178252
 24      -0.002058215765
 25       0.027988541542
 26      -0.089859251628
 27      -0.044695060062
 28       0.049570184883
 29      -0.171584944293
 30      -0.164337015399
 31       0.081463630541
 32       0.072581526274
 33       0.082098267577
 34      -0.094331166724
 35      -0.189509222140
 36      -0.059630527456
 37       0.186790378064
 38       0.039077795049
 39       0.094325868593
 40       0.189507418026
 41      -0.059633831103
 42       0.186789994926
 43      -0.039088438122
 44       0.171590102882
 45       0.164344969178
 46       0.081454759301
 47       0.072578432248
 48      -0.082093785023
 49      -0.000000153653
 50       0.000004004782
 51      -0.000005708582
 52      -0.067213293008
 53       0.207363020059
 54       0.000005827034
 55      -0.334738741071
 56       1.376250690179
 57       0.000042072265
 58       0.000003709892
 59      -0.648215960610
 60      -0.361195539777
 61       0.000005053068
 62      -0.000006973143
 63       0.022964394506
 64       0.226437692429
 65      -0.793600178531
 66       0.008534519807
 67       0.004043683207
 68       0.216647561583
 69      -0.190633007848
 70       0.289715418418
 71      -0.879486546461
 72      -0.032346647693
 73       0.035591628976
 74      -0.013659040390
 75       0.035870998185
 76      -0.134440727842
 77      -0.022966732140
 78      -0.226456585435
 79       0.793653566738
 80       0.008535594478
 81       0.004040338950
 82      -0.216642567042
 83      -0.190640259200
 84       0.289735850586
 85       0.879475311963
 86       0.032345307709
 87       0.035593860647
 88      -0.013659295224
 89      -0.035872458145
 90       0.134444440106
 91       0.000001514851
 92       0.000012507500
 93      -0.000043890624
 94       0.107673074483
 95       0.161917989371
 96       0.000002527686
 97       0.224495984355
 98      -0.391355913891
 99       0.000009149183
100       0.000000368591
101       0.171572175981
102       0.045373881101
103       0.000000648021
104      -0.000000895518
 Sym=     1a
 Ene= 1.60100714407279E+00
 Spin= Alpha
 Occup= 0.000000
  1       0.027332520105
  2      -0.167130114517
  3      -0.329769645700
  4      -0.086613993983
  5       0.003887280075
  6      -0.194411894369
  7      -0.183493617958
  8       0.198273392359
  9      -0.248880987368
 10      -0.142705824302
 11      -0.095379093464
 12      -0.062674821781
 13      -0.073560541518
 14      -0.048977802904
 15       0.027332248936
 16      -0.167124673828
 17      -0.329833479355
 18       0.086613547934
 19      -0.003889694627
 20      -0.194416530150
 21       0.183499611449
 22      -0.198278601735
 23      -0.248881006297
 24      -0.142707042042
 25       0.095380719407
 26       0.062671796074
 27      -0.073561641711
 28      -0.048980363033
 29       0.033179832393
 30       0.067933710555
 31      -0.030104362803
 32      -0.200145692006
 33       0.140268325961
 34       0.016444735266
 35       0.052360115658
 36      -0.144148415403
 37      -0.063104812812
 38       0.262649221990
 39       0.016450895335
 40       0.052369915994
 41       0.144140350317
 42       0.063112753901
 43       0.262638926882
 44       0.033187513391
 45       0.067946981427
 46       0.030099646088
 47       0.200144160744
 48       0.140270692711
 49       0.007565539587
 50       0.079536049008
 51      -0.350400632250
 52       0.000000414625
 53       0.000001199147
 54       0.436336726223
 55       0.000000005124
 56       0.000007657083
 57       2.687695741747
 58       0.223911785179
 59       0.000003582080
 60      -0.000001595889
 61      -0.064231115205
 62       0.369467443365
 63      -0.090144907887
 64      -0.791992175409
 65       2.356889721990
 66       0.027320319208
 67       0.144951270270
 68       0.048189891150
 69       0.070876581437
 70      -0.909953660846
 71      -0.339783928045
 72      -0.056863637661
 73       0.045603545841
 74       0.025280689176
 75       0.065951065415
 76      -0.047484838365
 77      -0.090142573552
 78      -0.791977165154
 79       2.356867060205
 80      -0.027320016288
 81      -0.144948389684
 82       0.048182563313
 83      -0.070878698386
 84       0.909951906700
 85      -0.339756787708
 86      -0.056861187585
 87      -0.045605217845
 88      -0.025281590591
 89       0.065950655359
 90      -0.047485215641
 91       0.109743948096
 92       0.889848860073
 93      -2.955642000037
 94      -0.000000732942
 95      -0.000000010364
 96       0.126824805362
 97       0.000000394277
 98      -0.000001225304
 99       0.698453451067
100       0.049493141716
101      -0.000000842528
102       0.000000220451
103      -0.028755068777
104       0.032572657579
 Sym=     1a
 Ene= 1.67454630522703E+00
 Spin= Alpha
 Occup= 0.000000
  1       0.040904615256
  2      -0.239642164713
  3      -0.122140048044
  4       0.011487646723
  5      -0.299141730464
  6       0.002592159355
  7       0.171712115337
  8       0.680762414274
  9       0.026081751320
 10      -0.178128756414
 11       0.036631078050
 12       0.018700392098
 13      -0.385309232563
 14       0.030581814868
 15       0.040903918954
 16      -0.239659348804
 17      -0.121777005691
 18      -0.011467067935
 19       0.299148214658
 20       0.002618598226
 21      -0.171819896505
 22      -0.680819053956
 23       0.026120377886
 24      -0.178112876925
 25      -0.036645702405
 26      -0.018696731388
 27      -0.385311734339
 28       0.030571862740
 29       0.120033370080
 30      -0.019838202587
 31       0.000410677416
 32      -0.305188404532
 33       0.010930793476
 34       0.169408162938
 35       0.065426031482
 36       0.018629785091
 37      -0.290912608225
 38       0.028726547972
 39       0.169413090947
 40       0.065428493321
 41      -0.018573120941
 42       0.290862402452
 43       0.028769448573
 44       0.119987611936
 45      -0.019910260617
 46      -0.000348888036
 47       0.305219317781
 48       0.010910939239
 49      -0.001586307626
 50      -0.000578550138
 51      -0.003139263858
 52      -0.000003652271
 53       0.000008114851
 54      -0.091447309309
 55      -0.000008521607
 56       0.000019019945
 57      -0.915956064762
 58      -0.031294922132
 59      -0.000009249539
 60      -0.000001033434
 61       0.041337301930
 62      -0.175564511545
 63       0.038976949473
 64       0.251946072813
 65      -0.555090165227
 66      -0.003965777058
 67      -0.131964561094
 68      -0.094784358852
 69       0.048012208316
 70       0.511398400805
 71       0.048659887257
 72      -0.012710201622
 73      -0.010186610712
 74      -0.026949736315
 75      -0.054646026293
 76       0.040130478869
 77       0.038960633014
 78       0.251822212313
 79      -0.554817351273
 80       0.003962285692
 81       0.131944336484
 82      -0.094772141226
 83      -0.048006789948
 84      -0.511335998051
 85       0.048584173924
 86      -0.012724224947
 87       0.010192247529
 88       0.026952622533
 89      -0.054638791260
 90       0.040135231983
 91      -0.055749789862
 92      -0.413878372778
 93       1.139224561432
 94       0.000001561656
 95       0.000004065636
 96       0.037010351598
 97       0.000004244429
 98      -0.000011617216
 99      -0.323404474305
100      -0.020892515541
101       0.000003525213
102      -0.000001746565
103       0.010718754983
104      -0.017065353151
 Sym=     1a
 Ene= 1.68486545041191E+00
 Spin= Alpha
 Occup= 0.000000
  1       0.003309753547
  2       0.094052784801
  3      -1.904563677662
  4       0.128629800975
  5       0.031565885974
  6      -0.129900381498
  7      -0.675403924963
  8      -0.358384092090
  9      -0.189462204456
 10      -0.079571967012
 11      -0.090269177233
 12       0.004249718748
 13       0.012550038001
 14       0.130951394125
 15      -0.003316825654
 16      -0.094004510357
 17       1.904546001998
 18       0.128638578304
 19       0.031511556864
 20       0.129894195487
 21      -0.675369308049
 22      -0.358270130376
 23       0.189444699906
 24       0.079605599196
 25      -0.090256372740
 26       0.004262782809
 27      -0.012487823079
 28      -0.130958735269
 29       0.277287867448
 30       0.399794501889
 31       0.384959782300
 32       0.174515652136
 33       0.132266532349
 34      -0.083803222471
 35      -0.067952854235
 36       0.334787634933
 37      -0.244107466313
 38      -0.267479477099
 39       0.083784236958
 40       0.067942965130
 41       0.334797579363
 42      -0.244156661195
 43       0.267476965031
 44      -0.277302904662
 45      -0.399782749897
 46       0.384965988236
 47       0.174469144215
 48      -0.132262905632
 49       0.000000659117
 50      -0.000003668110
 51      -0.000009008018
 52      -0.042710726324
 53       0.064467522680
 54       0.000012915756
 55      -0.081431250413
 56       0.098894206367
 57       0.000107242395
 58       0.000003883271
 59      -0.071963993103
 60       0.010998934087
 61      -0.000002067771
 62       0.000015392483
 63       0.076460008336
 64       0.581614926633
 65      -1.290633620463
 66      -0.039822391864
 67      -0.104021112008
 68      -0.058219097212
 69       0.112218802135
 70       0.309687608255
 71       0.411319414346
 72       0.075970689725
 73       0.046660376682
 74       0.023231445916
 75      -0.042005561521
 76      -0.013559625461
 77      -0.076470908849
 78      -0.581691000287
 79       1.290815529219
 80      -0.039820355304
 81      -0.104047868590
 82       0.058241026039
 83       0.112215746444
 84       0.309802727467
 85      -0.411344532629
 86      -0.075969175392
 87       0.046660168033
 88       0.023227741478
 89       0.042018044059
 90       0.013553034687
 91       0.000005703941
 92       0.000043062885
 93      -0.000123495640
 94       0.015727993390
 95       0.030364350467
 96      -0.000002819215
 97       0.038033041092
 98      -0.088459915583
 99       0.000033449643
100       0.000002310838
101       0.032417443930
102      -0.018936079015
103      -0.000001061802
104       0.000001359433
 Sym=     1a
 Ene= 1.73267830713339E+00
 Spin= Alpha
 Occup= 0.000000
  1       0.026950145968
  2       0.089108689606
  3      -2.735715574625
  4       0.067793596365
  5      -0.103939026481
  6      -0.012489135618
  7      -0.019813927736
  8      -1.641696628523
  9      -0.781338160049
 10      -0.170176752603
 11      -0.006711986064
 12      -0.152270115983
 13       0.182214207591
 14       0.148612907184
 15      -0.026950589397
 16      -0.089101395716
 17       2.735703412626
 18       0.067792076980
 19      -0.103939449223
 20       0.012495084836
 21      -0.019852054562
 22      -1.641693474881
 23       0.781325338532
 24       0.170171074570
 25      -0.006722496181
 26      -0.152274797456
 27      -0.182212340169
 28      -0.148608733057
 29      -0.005434170100
 30      -0.135079748972
 31       0.173993672298
 32       0.181520761221
 33       0.003499811843
 34      -0.081185916788
 35       0.099745844611
 36      -0.004417006104
 37       0.417122658059
 38       0.243841777168
 39       0.081189089776
 40      -0.099733058495
 41      -0.004412374184
 42       0.417118612552
 43      -0.243827953070
 44       0.005429837651
 45       0.135068399937
 46       0.174002317655
 47       0.181524108102
 48      -0.003505018710
 49       0.000000769562
 50      -0.000009318390
 51       0.000003294668
 52      -0.067808800187
 53       0.249668937404
 54      -0.000002476666
 55      -0.428460610394
 56       0.696336600603
 57      -0.000043807498
 58      -0.000003394190
 59       0.419225772446
 60      -0.071881344281
 61       0.000009879856
 62      -0.000007470886
 63       0.033865239176
 64       0.391607419994
 65      -1.530005500340
 66      -0.053091166351
 67       0.008668611113
 68       0.149484424571
 69       0.038833827793
 70       0.444762599063
 71      -0.261506090879
 72      -0.012292824577
 73      -0.034168573491
 74       0.003515512026
 75      -0.068997728575
 76       0.009703314077
 77      -0.033863211271
 78      -0.391594556767
 79       1.529971412936
 80      -0.053090362275
 81       0.008673382575
 82      -0.149487404707
 83       0.038820036596
 84       0.444743230906
 85       0.261517241782
 86       0.012292919639
 87      -0.034170554853
 88       0.003513216843
 89       0.068992904427
 90      -0.009696775140
 91      -0.000001567658
 92      -0.000013070034
 93       0.000046813004
 94      -0.133358417547
 95       0.028578563732
 96      -0.000001902130
 97       0.124080725076
 98      -0.189910219758
 99      -0.000010288633
100      -0.000000504047
101      -0.105962891307
102      -0.020465769121
103       0.000001396035
104      -0.000000880822
 Sym=     1a
 Ene= 1.76098930931047E+00
 Spin= Alpha
 Occup= 0.000000
  1       0.013942605771
  2      -0.128652584813
  3       0.195904943459
  4       0.090362132039
  5       0.009347258032
  6       0.064949889643
  7      -1.719939400573
  8       0.073937545955
  9       0.067629736252
 10      -0.166879122740
 11      -0.059195541783
 12       0.171243579534
 13       0.055948100442
 14      -0.024417565326
 15       0.013944244444
 16      -0.128611809128
 17       0.195187787859
 18      -0.090291987585
 19      -0.009350882827
 20       0.064943052371
 21       1.719891397629
 22      -0.073717266755
 23       0.067385016801
 24      -0.166916133805
 25       0.059289081153
 26      -0.171236137596
 27       0.055966229675
 28      -0.024528874698
 29       0.271295145387
 30       0.505493943740
 31       0.266754407145
 32       0.117632510207
 33       0.365158498827
 34      -0.462055238176
 35      -0.538933749224
 36       0.266075183193
 37      -0.126503316971
 38      -0.123259226965
 39      -0.461973634891
 40      -0.538927575998
 41      -0.265995207802
 42       0.126559756812
 43      -0.123256278598
 44       0.271237312766
 45       0.505553848154
 46      -0.266705664998
 47      -0.117699917831
 48       0.365227562465
 49      -0.034989435470
 50       0.333123147029
 51      -0.024886066155
 52       0.000001052559
 53      -0.000033111314
 54      -0.088216133604
 55       0.000050945084
 56      -0.000069471948
 57       0.083259071473
 58       0.045204533664
 59      -0.000017691958
 60       0.000001921083
 61      -0.180390794584
 62       0.333170608871
 63       0.053461609795
 64       0.295767266733
 65      -0.239674585293
 66       0.133964031051
 67      -0.084922467349
 68      -0.121831976730
 69      -0.519960326129
 70       0.198572979793
 71      -0.039009412676
 72      -0.061219215267
 73       0.011728546503
 74       0.007693377696
 75       0.023890263741
 76      -0.110579203243
 77       0.053487002194
 78       0.295979549809
 79      -0.240241259697
 80      -0.133980325028
 81       0.084944324317
 82      -0.121816465604
 83       0.520018728468
 84      -0.198701357089
 85      -0.038969595408
 86      -0.061199751588
 87      -0.011731079321
 88      -0.007699880273
 89       0.023867669270
 90      -0.110576161915
 91      -0.015811230756
 92      -0.085457389863
 93       0.010226223512
 94       0.000012406639
 95      -0.000002846542
 96       0.076315014761
 97      -0.000023688495
 98       0.000022513697
 99      -0.059023672863
100      -0.010153823207
101       0.000002400429
102       0.000004690934
103      -0.014672629407
104       0.047701887203
 Sym=     1a
 Ene= 1.76506567379099E+00
 Spin= Alpha
 Occup= 0.000000
  1      -0.007543294470
  2      -0.157282463276
  3       2.684792912471
  4       0.192843407387
  5      -0.002896059008
  6       0.024493933896
  7      -0.100684592594
  8       0.893823085927
  9       0.844245571089
 10       0.124779492741
 11       0.254282458144
 12       0.027457473906
 13      -0.071407110148
 14       0.339657381000
 15       0.007539098920
 16       0.157325921688
 17      -2.684868092223
 18       0.192869444370
 19      -0.002891171486
 20      -0.024511379901
 21      -0.101304721184
 22       0.893840846128
 23      -0.844283917321
 24      -0.124725534065
 25       0.254258718969
 26       0.027506568735
 27       0.071380133544
 28      -0.339647604047
 29       0.141735051461
 30      -0.205186812000
 31       0.125715255279
 32      -0.246096213354
 33      -0.197085767585
 34      -0.250216919321
 35      -0.033040133823
 36       0.203459048376
 37       0.169512782839
 38      -0.013323302918
 39       0.250383007699
 40       0.033241156803
 41       0.203544342648
 42       0.169471093816
 43       0.013374879959
 44      -0.141833530162
 45       0.204998107294
 46       0.125803100625
 47      -0.246050979247
 48       0.196961000001
 49       0.000005828275
 50      -0.000057294663
 51       0.000010044826
 52       0.017794220605
 53      -0.224269153350
 54       0.000012668972
 55       0.323508200456
 56      -0.491760235045
 57      -0.000038460871
 58      -0.000007814942
 59      -0.131120781417
 60       0.025794929999
 61       0.000032528811
 62      -0.000057363732
 63      -0.082888049521
 64      -0.701028081473
 65       1.939116077454
 66      -0.043699130068
 67       0.065906072237
 68      -0.052456787208
 69       0.187827443121
 70      -0.433279775563
 71      -0.129666578318
 72      -0.053295015158
 73       0.006234868089
 74      -0.017492293473
 75       0.070607940259
 76      -0.004892864283
 77       0.082871674705
 78       0.700938890833
 79      -1.939057461508
 80      -0.043655221386
 81       0.065881327429
 82       0.052495433099
 83       0.187651570628
 84      -0.433228275725
 85       0.129681472400
 86       0.053315219820
 87       0.006238265852
 88      -0.017491684423
 89      -0.070619085377
 90       0.004930391186
 91       0.000001837073
 92       0.000007450445
 93       0.000021361752
 94       0.078765816128
 95      -0.023166916602
 96      -0.000012733818
 97      -0.143672052587
 98       0.159179098980
 99       0.000004601097
100       0.000001333462
101       0.021063173665
102       0.030714665663
103       0.000003080326
104      -0.000008111782
 Sym=     1a
 Ene= 1.78888807794637E+00
 Spin= Alpha
 Occup= 0.000000
  1      -0.005513059410
  2      -0.107086712467
  3       1.764677147550
  4       0.027491169922
  5       0.148217016400
  6       0.031978044700
  7      -0.024282822581
  8       1.139262638082
  9      -0.875861988653
 10      -0.184286341367
 11      -0.096589165078
 12       0.083516828376
 13       0.015442491819
 14       0.075628027433
 15       0.005513322385
 16       0.107089274995
 17      -1.764693102339
 18       0.027488870277
 19       0.148209420713
 20      -0.031972338798
 21      -0.024304468539
 22       1.139270361688
 23       0.875828954551
 24       0.184271522824
 25      -0.096594233415
 26       0.083502791469
 27      -0.015430709188
 28      -0.075626006791
 29      -0.191488043775
 30      -0.134217376493
 31       0.047729483566
 32      -0.326412263591
 33       0.398318207949
 34      -0.126567173243
 35      -0.045334287512
 36       0.126651932569
 37      -0.236727901799
 38       0.425600370412
 39       0.126562994681
 40       0.045348085066
 41       0.126646240983
 42      -0.236729724158
 43      -0.425575259100
 44       0.191479502211
 45       0.134207286526
 46       0.047733984362
 47      -0.326413110225
 48      -0.398308273153
 49       0.000000744645
 50      -0.000008320075
 51      -0.000005462811
 52       0.038173561472
 53      -0.113228753175
 54       0.000000117740
 55       0.108350387022
 56      -0.199702780615
 57      -0.000023073869
 58      -0.000000539952
 59      -0.084995797612
 60       0.128891951982
 61       0.000014451145
 62      -0.000005256276
 63      -0.035491275287
 64      -0.185862286021
 65       0.036489225202
 66      -0.015251819311
 67       0.064490287020
 68       0.186435228331
 69      -0.022854410460
 70      -0.333741948578
 71       0.060221650197
 72       0.066767985281
 73      -0.018400549183
 74      -0.025446681469
 75       0.050872122681
 76       0.026890903733
 77       0.035493591418
 78       0.185868104096
 79      -0.036474945604
 80      -0.015253021083
 81       0.064495768071
 82      -0.186444258760
 83      -0.022870446987
 84      -0.333745460761
 85      -0.060211332740
 86      -0.066772016440
 87      -0.018404410498
 88      -0.025450694571
 89      -0.050876344880
 90      -0.026884849348
 91      -0.000000981490
 92      -0.000007790005
 93       0.000027339395
 94       0.029847882265
 95      -0.046347607969
 96      -0.000000809588
 97      -0.041042102059
 98       0.078421075139
 99      -0.000005763776
100      -0.000000233964
101       0.014286335030
102      -0.009757766539
103       0.000002057111
104      -0.000000964689
 Sym=     1a
 Ene= 1.79934269659850E+00
 Spin= Alpha
 Occup= 0.000000
  1      -0.001046748814
  2      -0.047749754845
  3       0.136414578285
  4       0.063189314117
  5      -0.123914833765
  6      -0.151880527872
  7      -1.020290123636
  8       0.142026032999
  9       0.497307758412
 10       0.128433180469
 11       0.048223304648
 12      -0.256483446156
 13      -0.141777481620
 14      -0.046765463985
 15      -0.001047255315
 16      -0.047752552587
 17       0.136458075037
 18      -0.063188094442
 19       0.123920045618
 20      -0.151887024780
 21       1.020297220743
 22      -0.142035592247
 23       0.497389006262
 24       0.128444154238
 25      -0.048238234994
 26       0.256487130490
 27      -0.141783123252
 28      -0.046787819991
 29       0.309291549299
 30       0.337522552814
 31       0.244115223383
 32       0.024299873472
 33      -0.147275431679
 34      -0.142118407451
 35      -0.375895866640
 36       0.010305708194
 37      -0.075924698557
 38      -0.408908589694
 39      -0.142114253411
 40      -0.375908845960
 41      -0.010297508713
 42       0.075940033638
 43      -0.408932192542
 44       0.309301178575
 45       0.337535604025
 46      -0.244114019628
 47      -0.024320730905
 48      -0.147301791507
 49      -0.008218151566
 50       0.135616187708
 51      -0.041235850704
 52       0.000000319179
 53      -0.000003886797
 54       0.032770723943
 55       0.000001187057
 56      -0.000015039614
 57       0.691549880929
 58      -0.001609355538
 59       0.000005055234
 60       0.000006021735
 61      -0.453547380330
 62       0.067198435117
 63      -0.057947123915
 64      -0.253211778194
 65       0.142200778520
 66      -0.002911990487
 67       0.108226776829
 68       0.136781484140
 69      -0.243383826097
 70      -0.133256070562
 71      -0.212702073626
 72       0.086012670576
 73      -0.009476651500
 74      -0.067133948552
 75       0.051661202106
 76      -0.049458446062
 77      -0.057943633101
 78      -0.253193724180
 79       0.142206683467
 80       0.002909053170
 81      -0.108221799940
 82       0.136767092437
 83       0.243390778319
 84       0.133238554580
 85      -0.212713603062
 86       0.086006492605
 87       0.009479640791
 88       0.067133297373
 89       0.051659224754
 90      -0.049462755630
 91       0.022677310817
 92       0.184184384090
 93      -0.671631051798
 94      -0.000000928879
 95      -0.000002675103
 96       0.012105354874
 97      -0.000000710030
 98       0.000005519494
 99       0.129661767515
100       0.006769168837
101      -0.000001710540
102      -0.000000379940
103      -0.070271970637
104       0.008800797217
 Sym=     1a
 Ene= 1.88710773703386E+00
 Spin= Alpha
 Occup= 0.000000
  1       0.011820597849
  2       0.015388725359
  3      -0.614399852611
  4       0.230261740549
  5       0.068358344591
  6      -0.106669711521
  7      -0.322205844803
  8       0.028688695110
  9      -0.306720019053
 10      -0.318979866427
 11       0.235233096793
 12       0.051499338654
 13       0.148074896585
 14       0.017593555867
 15       0.011820226571
 16       0.015388946863
 17      -0.614331172032
 18      -0.230267380937
 19      -0.068357812472
 20      -0.106674375104
 21       0.322194064752
 22      -0.028707727370
 23      -0.306741120056
 24      -0.318984442756
 25      -0.235244059726
 26      -0.051490555029
 27       0.148078035193
 28       0.017585290088
 29       0.128203136596
 30      -0.028550001073
 31       0.078701040361
 32      -0.068691904252
 33      -0.233554270947
 34      -0.117551198787
 35       0.205328513033
 36       0.271360681485
 37       0.082198205977
 38       0.226652367944
 39      -0.117553217464
 40       0.205328030677
 41      -0.271363496481
 42      -0.082191574164
 43       0.226676304157
 44       0.128194916730
 45      -0.028569760452
 46      -0.078707123960
 47       0.068698872359
 48      -0.233553931619
 49       0.025807455846
 50      -0.239134565076
 51       0.245146963391
 52       0.000000836353
 53      -0.000002004870
 54       0.054709849680
 55       0.000003023557
 56      -0.000013775687
 57      -0.060193966805
 58      -0.108675524924
 59      -0.000002399105
 60       0.000006000881
 61      -0.296604527818
 62      -0.272902881610
 63      -0.049464959721
 64      -0.372333388040
 65       0.782439564061
 66       0.048802843106
 67       0.095845676420
 68      -0.065089871576
 69       0.028627186235
 70      -0.196417910476
 71      -0.322177297957
 72       0.042529922486
 73       0.145100681199
 74      -0.061825009090
 75       0.008933744974
 76       0.112974103479
 77      -0.049467539307
 78      -0.372345749427
 79       0.782438042784
 80      -0.048799203780
 81      -0.095853988987
 82      -0.065082882903
 83      -0.028629390963
 84       0.196422968085
 85      -0.322199672657
 86       0.042526148495
 87      -0.145096822793
 88       0.061823985682
 89       0.008931928695
 90       0.112972533084
 91       0.023975253477
 92       0.139753583257
 93      -0.124900628828
 94       0.000000518560
 95      -0.000001569896
 96      -0.097840075764
 97      -0.000000503216
 98       0.000003401967
 99       0.077591391978
100       0.012644428298
101       0.000000869872
102      -0.000001344168
103      -0.059635348710
104      -0.058058218855
 Sym=     1a
 Ene= 1.90317712316822E+00
 Spin= Alpha
 Occup= 0.000000
  1      -0.014521491490
  2       0.098970272971
  3       0.031524497698
  4       0.118487486247
  5       0.022051100254
  6      -0.133617225794
  7      -0.108094544752
  8       0.192026006413
  9      -0.204102881252
 10      -0.069117863395
 11       0.375228737523
 12      -0.119079043401
 13       0.008231826851
 14      -0.306651198715
 15       0.014521064485
 16      -0.098961383076
 17      -0.031567802067
 18       0.118482938906
 19       0.022047876666
 20       0.133607811758
 21      -0.108083993772
 22       0.192032635632
 23       0.204093448248
 24       0.069112121488
 25       0.375224829431
 26      -0.119070826258
 27      -0.008228510178
 28       0.306650784812
 29       0.048370130651
 30      -0.053200356108
 31       0.135182221722
 32       0.073792879932
 33      -0.241250382848
 34       0.005280214923
 35      -0.039223383765
 36       0.080923154688
 37      -0.370261347621
 38       0.346541625257
 39      -0.005279938226
 40       0.039229071866
 41       0.080923690846
 42      -0.370269796280
 43      -0.346549013199
 44      -0.048364065302
 45       0.053204157099
 46       0.135178120808
 47       0.073786272351
 48       0.241232350205
 49       0.000001106418
 50      -0.000010827614
 51       0.000012713602
 52      -0.018713972254
 53       0.110553430656
 54       0.000004267154
 55      -0.074847954161
 56       0.445804224318
 57       0.000001426316
 58      -0.000002061605
 59       0.052822772746
 60      -0.181721974023
 61      -0.000014147587
 62      -0.000008300636
 63       0.027642279184
 64       0.242220679535
 65      -0.715535780354
 66      -0.039465715219
 67       0.061143485632
 68      -0.069612641798
 69      -0.069910976208
 70       0.072959906072
 71      -0.023893266478
 72      -0.108167365082
 73      -0.149238887620
 74      -0.012909395600
 75      -0.007441251632
 76      -0.066367344999
 77      -0.027648574248
 78      -0.242259271861
 79       0.715591500730
 80      -0.039462437926
 81       0.061133799151
 82       0.069620372598
 83      -0.069917338233
 84       0.072978847834
 85       0.023862511696
 86       0.108173715203
 87      -0.149241273932
 88      -0.012903644449
 89       0.007442725281
 90       0.066370917917
 91       0.000000869143
 92       0.000004994599
 93      -0.000008865304
 94      -0.017818028106
 95       0.058614960982
 96      -0.000001520388
 97       0.022603632134
 98      -0.142255127119
 99       0.000002519757
100       0.000000479782
101      -0.018599107203
102       0.015419485089
103      -0.000002688376
104      -0.000001516968
 Sym=     1a
 Ene= 1.94011367955740E+00
 Spin= Alpha
 Occup= 0.000000
  1       0.008598899515
  2       0.076303169339
  3      -0.621666570692
  4      -0.246000137945
  5       0.089695453934
  6       0.048362632786
  7       0.562455120201
  8      -0.050971700553
  9      -0.466582281952
 10      -0.016515811545
 11      -0.200321511964
 12       0.124296983958
 13      -0.001387235403
 14      -0.058978983675
 15       0.008598960451
 16       0.076306365233
 17      -0.621726399096
 18       0.245997590418
 19      -0.089697944909
 20       0.048365076397
 21      -0.562455912774
 22       0.050988364574
 23      -0.466590452925
 24      -0.016515615659
 25       0.200312492080
 26      -0.124302174443
 27      -0.001388636768
 28      -0.058988838700
 29      -0.143459898630
 30       0.002513997694
 31      -0.161552610964
 32       0.114874933179
 33       0.282192871712
 34       0.221457448522
 35       0.080690786493
 36      -0.151661753880
 37      -0.067611989285
 38       0.019400554141
 39       0.221464631386
 40       0.080694223304
 41       0.151657276306
 42       0.067618262910
 43       0.019400414253
 44      -0.143457243172
 45       0.002518287682
 46       0.161552865496
 47      -0.114882169994
 48       0.282186938482
 49       0.017014908067
 50      -0.345693753380
 51       1.349845897405
 52      -0.000000000818
 53       0.000000014830
 54       0.000235579724
 55      -0.000002631289
 56       0.000003688472
 57      -1.361907775694
 58      -0.064378010666
 59       0.000001617076
 60      -0.000005170175
 61      -0.620765824751
 62      -0.475170254342
 63      -0.018875515848
 64      -0.039890855313
 65      -0.429017950553
 66      -0.091560480326
 67       0.103086614533
 68      -0.144063807975
 69       0.153430984640
 70       0.207086730220
 71      -0.260038587510
 72       0.044126072509
 73      -0.013726083415
 74      -0.105403555654
 75       0.003778059000
 76      -0.010882281592
 77      -0.018872608788
 78      -0.039874297174
 79      -0.429042420002
 80       0.091558888938
 81      -0.103080103269
 82      -0.144066287171
 83      -0.153428919927
 84      -0.207092952005
 85      -0.260027625087
 86       0.044126549257
 87       0.013729423360
 88       0.105404880531
 89       0.003780564858
 90      -0.010882151244
 91      -0.002173929357
 92      -0.056330999577
 93       0.570115571128
 94      -0.000000499864
 95       0.000001561546
 96      -0.071286362362
 97       0.000000535990
 98      -0.000000791927
 99      -0.035254788639
100       0.004785247899
101      -0.000000345167
102       0.000002382790
103      -0.120017196073
104      -0.086485486759
 Sym=     1a
 Ene= 1.98148039502814E+00
 Spin= Alpha
 Occup= 0.000000
  1       0.000685012117
  2      -0.067806099279
  3       0.827862378558
  4       0.080471575571
  5      -0.040302122370
  6       0.159507073004
  7       0.080646057541
  8      -0.151261596452
  9       0.468278763125
 10      -0.025234385111
 11       0.158560738967
 12       0.085704215511
 13       0.033625769628
 14      -0.110776354167
 15      -0.000685189324
 16       0.067810319132
 17      -0.827876938845
 18       0.080479210543
 19      -0.040304222811
 20      -0.159506315526
 21       0.080608844516
 22      -0.151259074679
 23      -0.468290046033
 24       0.025239142260
 25       0.158564786802
 26       0.085702429371
 27      -0.033627556496
 28       0.110773481376
 29      -0.037576192536
 30      -0.100981592912
 31      -0.063225280131
 32       0.158771383215
 33      -0.158375316760
 34      -0.050376652057
 35      -0.035907486871
 36       0.085167565119
 37       0.071270239668
 38       0.007890161093
 39       0.050387802829
 40       0.035916236137
 41       0.085175264176
 42       0.071269314872
 43      -0.007891223527
 44       0.037568172135
 45       0.100974474905
 46      -0.063222266190
 47       0.158769243460
 48       0.158381035275
 49       0.000000268858
 50      -0.000004930300
 51       0.000013541544
 52      -0.005748593147
 53      -0.022010525721
 54       0.000000559022
 55       0.044119757020
 56       0.060025787888
 57      -0.000015840308
 58       0.000000511454
 59      -0.208663706796
 60       0.717066109744
 61      -0.000004933342
 62      -0.000003339721
 63       0.039188075584
 64       0.061945142392
 65       0.565662508641
 66       0.048503383715
 67      -0.284857145906
 68       0.292265248060
 69       0.002932432371
 70       0.155652443423
 71      -0.617314258365
 72       0.011170827069
 73      -0.065620120121
 74       0.017839524987
 75       0.082396362618
 76       0.020236350864
 77      -0.039189052085
 78      -0.061948909276
 79      -0.565670424935
 80       0.048505709810
 81      -0.284859475757
 82      -0.292264420434
 83       0.002927934199
 84       0.155649455306
 85       0.617308394422
 86      -0.011168761404
 87      -0.065618323116
 88       0.017840620905
 89      -0.082397137735
 90      -0.020237461711
 91      -0.000000135957
 92      -0.000001665263
 93       0.000008318459
 94       0.068112498426
 95      -0.199667221551
 96      -0.000000180210
 97      -0.041807131466
 98       0.038495676179
 99      -0.000001296724
100      -0.000000164483
101       0.077988009109
102      -0.289528255078
103      -0.000000936346
104      -0.000000825808
 Sym=     1a
 Ene= 2.01430401322814E+00
 Spin= Alpha
 Occup= 0.000000
  1       0.018497950311
  2      -0.106775553391
  3       0.344575519801
  4      -0.066570041831
  5      -0.104537229196
  6       0.054978388947
  7       0.164902337308
  8      -0.235020142802
  9       0.130824315586
 10      -0.435049250531
 11      -0.168422109767
 12      -0.011690503603
 13      -0.190956335394
 14      -0.001578497795
 15       0.018499953866
 16      -0.106785698787
 17       0.344537558079
 18       0.066567448105
 19       0.104536198484
 20       0.054981990693
 21      -0.164901250416
 22       0.235027341385
 23       0.130826028510
 24      -0.435052829749
 25       0.168419703750
 26       0.011678824149
 27      -0.190950933499
 28      -0.001585122697
 29      -0.071853896662
 30      -0.041426632787
 31      -0.127380936678
 32       0.334078491417
 33      -0.215529045470
 34      -0.008383374807
 35      -0.059598956053
 36      -0.114660698352
 37       0.267967839013
 38      -0.288503020843
 39      -0.008380176550
 40      -0.059590872762
 41       0.114652179892
 42      -0.267965768026
 43      -0.288498592014
 44      -0.071851027452
 45      -0.041418757995
 46       0.127389203180
 47      -0.334090716726
 48      -0.215534319336
 49       0.049136483913
 50      -0.271272023141
 51      -0.787121659247
 52      -0.000000290369
 53      -0.000000055093
 54       0.071909493763
 55      -0.000002604023
 56       0.000001342074
 57       0.576182386905
 58      -0.182094760634
 59      -0.000000179578
 60       0.000005254529
 61       0.177206044199
 62       0.162321378783
 63       0.006154603215
 64      -0.106431343855
 65       0.559814399384
 66       0.003843299734
 67       0.004416260706
 68      -0.139095583061
 69       0.094700620432
 70      -0.442344785719
 71       0.272871118204
 72      -0.059422298123
 73       0.000180886579
 74      -0.109805501763
 75       0.127761562747
 76       0.073251022599
 77       0.006153996303
 78      -0.106431795293
 79       0.559807378400
 80      -0.003844795442
 81      -0.004418972350
 82      -0.139099827241
 83      -0.094693441444
 84       0.442346207672
 85       0.272883360980
 86      -0.059420864736
 87      -0.000177205667
 88       0.109808683665
 89       0.127762612326
 90       0.073250635066
 91       0.036061776091
 92       0.213164483674
 93      -0.251028630171
 94      -0.000000317503
 95      -0.000001594224
 96      -0.150084760884
 97       0.000001069549
 98       0.000000239203
 99       0.095052840139
100       0.005678491178
101       0.000000225985
102      -0.000002518378
103       0.004738342436
104       0.018612547522
 Sym=     1a
 Ene= 2.03576538092259E+00
 Spin= Alpha
 Occup= 0.000000
  1       0.070273609732
  2      -0.435941465167
  3      -0.164653831755
  4       0.065919311370
  5       0.000273455146
  6       0.182991853506
  7      -0.095997548252
  8      -0.049110954202
  9       0.307130122603
 10      -0.093023615014
 11       0.068852287717
 12       0.419062122097
 13       0.197053446824
 14      -0.096060856980
 15      -0.070273324988
 16       0.435941774966
 17       0.164650892419
 18       0.065929441709
 19       0.000273827887
 20      -0.182990179083
 21      -0.096021925814
 22      -0.049102413609
 23      -0.307131745310
 24       0.093013244260
 25       0.068859867565
 26       0.419064087585
 27      -0.197057385161
 28       0.096059224461
 29       0.067303060867
 30       0.221634255092
 31      -0.232623542303
 32       0.321091067031
 33      -0.035359382078
 34       0.006978553694
 35       0.120662637369
 36       0.310824489610
 37       0.069683769649
 38       0.001786713652
 39      -0.006972269979
 40      -0.120658448354
 41       0.310833369800
 42       0.069674799052
 43      -0.001795688799
 44      -0.067308333166
 45      -0.221638091197
 46      -0.232613328650
 47       0.321081825249
 48       0.035352310542
 49       0.000001119352
 50      -0.000006960423
 51      -0.000010534596
 52       0.019381033869
 53      -0.098658676075
 54       0.000001477974
 55       0.229498815422
 56      -0.281443146189
 57       0.000007690524
 58      -0.000004574724
 59      -0.017054568611
 60      -0.227238437075
 61       0.000003540301
 62       0.000000270163
 63      -0.056277378111
 64      -0.324133099771
 65       0.570841458793
 66      -0.041133183372
 67       0.069869518552
 68      -0.061732475859
 69       0.004429737606
 70      -0.159455291606
 71       0.230466531405
 72       0.086144870907
 73      -0.114815030489
 74      -0.119778397042
 75       0.068418898929
 76       0.003021788846
 77       0.056276173087
 78       0.324120744154
 79      -0.570809307361
 80      -0.041131333240
 81       0.069868223676
 82       0.061731775307
 83       0.004419380716
 84      -0.159437849884
 85      -0.230464236795
 86      -0.086144048586
 87      -0.114815415222
 88      -0.119774731372
 89      -0.068414596953
 90      -0.003019322334
 91       0.000000914675
 92       0.000005069403
 93      -0.000004476988
 94       0.020378514495
 95       0.073519427777
 96      -0.000003619954
 97      -0.085624438994
 98       0.045531543244
 99       0.000002106195
100       0.000000236522
101      -0.022638933403
102       0.147476722081
103       0.000000370582
104      -0.000000073909
 Sym=     1a
 Ene= 2.17825158682125E+00
 Spin= Alpha
 Occup= 0.000000
  1       0.028582286616
  2      -0.314104367108
  3       0.048261451971
  4      -0.100416346457
  5       0.019353691011
  6      -0.119296018122
  7      -0.591991648062
  8       0.431091229801
  9       0.290115085248
 10       0.102889824361
 11       0.032745911348
 12       0.106053390846
 13       0.087634510871
 14      -0.049247291379
 15       0.028583058627
 16      -0.314110908084
 17       0.048273108053
 18       0.100415433840
 19      -0.019354643566
 20      -0.119293958377
 21       0.592000160843
 22      -0.431097505472
 23       0.290125151853
 24       0.102892369299
 25      -0.032746215894
 26      -0.106057191038
 27       0.087634670372
 28      -0.049248135983
 29       0.171979251119
 30       0.348880462693
 31      -0.077848285192
 32      -0.105289010394
 33       0.135105303745
 34      -0.112888833427
 35      -0.170130375377
 36       0.038277560857
 37      -0.282679209758
 38      -0.042482883168
 39      -0.112891270561
 40      -0.170135815090
 41      -0.038277701340
 42       0.282678972732
 43      -0.042483749873
 44       0.171982802148
 45       0.348887952878
 46       0.077846657653
 47       0.105283733534
 48       0.135112159559
 49       0.010453921666
 50       0.460390382032
 51      -0.661422267296
 52      -0.000000470739
 53       0.000000975252
 54      -0.243337199417
 55       0.000001521283
 56       0.000003539010
 57       1.489449802190
 58      -0.788536444279
 59      -0.000001010641
 60       0.000000128475
 61       0.193123198837
 62       0.074367331420
 63      -0.029482982309
 64      -0.244672549958
 65       0.817933436898
 66       0.012116091734
 67      -0.049602455491
 68       0.041081055151
 69      -0.003138199194
 70      -0.105244721862
 71      -0.234986909981
 72       0.104916254204
 73       0.043480826542
 74      -0.093267530897
 75       0.189307763253
 76       0.097309459802
 77      -0.029482984143
 78      -0.244673532731
 79       0.817943156007
 80      -0.012115468124
 81       0.049603720438
 82       0.041079139787
 83       0.003134116523
 84       0.105244873714
 85      -0.234982715389
 86       0.104918982224
 87      -0.043483359407
 88       0.093268429683
 89       0.189308433464
 90       0.097310849562
 91       0.145503378529
 92       0.921237318045
 93      -1.437521822743
 94      -0.000000187944
 95       0.000000060977
 96      -0.533542447374
 97      -0.000000061573
 98      -0.000001010057
 99       0.502225983011
100      -0.014173526063
101      -0.000000170907
102      -0.000000704012
103       0.072016697912
104       0.025359353128
 Sym=     1a
 Ene= 2.23329293352909E+00
 Spin= Alpha
 Occup= 0.000000
  1      -0.031324400366
  2       0.268052653099
  3       0.217069529797
  4      -0.110082439660
  5      -0.120776561410
  6      -0.143625480322
  7      -0.324522452470
  8      -0.369487457155
  9      -0.262313982608
 10       0.085800054519
 11       0.301425423475
 12       0.303764232660
 13      -0.270892774854
 14      -0.180566299395
 15      -0.031323804626
 16       0.268054242108
 17       0.217019473847
 18       0.110092464749
 19       0.120781367946
 20      -0.143626601239
 21       0.324522621150
 22       0.369519782456
 23      -0.262331277586
 24       0.085813399800
 25      -0.301435091504
 26      -0.303770041731
 27      -0.270890355524
 28      -0.180554954678
 29      -0.063807801704
 30      -0.075213614204
 31       0.415295501409
 32       0.376078775157
 33       0.050960301333
 34      -0.177677856353
 35      -0.309535095604
 36      -0.380851708675
 37       0.103708861040
 38       0.295920380473
 39      -0.177677984698
 40      -0.309538703124
 41       0.380861248847
 42      -0.103715342661
 43       0.295935290091
 44      -0.063808271673
 45      -0.075218584761
 46      -0.415305450859
 47      -0.376081142571
 48       0.050969814311
 49       0.022166786656
 50      -0.173872514764
 51       0.135615270318
 52      -0.000000302668
 53       0.000001211611
 54       0.004212009367
 55      -0.000000725810
 56       0.000007894165
 57      -0.393548574898
 58      -0.105524631322
 59      -0.000000535640
 60      -0.000002764322
 61       0.029676425702
 62       0.020124459940
 63      -0.002294490325
 64      -0.022248604081
 65       0.030038207245
 66       0.041135281985
 67       0.018654887932
 68      -0.006754562239
 69      -0.070009063318
 70      -0.078189335808
 71       0.021961698495
 72       0.072683775583
 73       0.090795093443
 74       0.043881103917
 75      -0.070061043564
 76       0.022077366207
 77      -0.002293830607
 78      -0.022246269796
 79       0.030036210816
 80      -0.041135681059
 81      -0.018651626457
 82      -0.006756474647
 83       0.070008922986
 84       0.078188505829
 85       0.021969783049
 86       0.072684243365
 87      -0.090790972458
 88      -0.043874927995
 89      -0.070055180029
 90       0.022077968967
 91       0.008916017541
 92       0.024548143097
 93       0.254121900748
 94       0.000000284422
 95       0.000001146669
 96      -0.086268427304
 97      -0.000000149109
 98      -0.000002702712
 99      -0.005266749064
100      -0.007955702642
101       0.000000712175
102       0.000000679137
103       0.014072582283
104      -0.001218579284
 Sym=     1a
 Ene= 2.32833284470363E+00
 Spin= Alpha
 Occup= 0.000000
  1      -0.016010894094
  2      -0.096206510680
  3       2.346157360764
  4       0.127321273783
  5       0.196856784851
  6       0.159579132520
  7       0.170167686376
  8       1.138469802235
  9       0.724396342195
 10      -0.459373414296
 11      -0.138434983891
 12      -0.253222389827
 13      -0.046951698005
 14      -0.083747755755
 15       0.016011285472
 16       0.096197772044
 17      -2.346148293302
 18       0.127355702844
 19       0.196853661368
 20      -0.159561704121
 21       0.170192086107
 22       1.138449673223
 23      -0.724359523152
 24       0.459344112224
 25      -0.138456889226
 26      -0.253189537269
 27       0.046986433209
 28       0.083711601248
 29      -0.019641187275
 30      -0.018439413390
 31      -0.331792613568
 32      -0.176277624280
 33      -0.265679677250
 34       0.038501137263
 35       0.132012128077
 36       0.314245163597
 37      -0.047218772029
 38      -0.293468527498
 39      -0.038513248834
 40      -0.132027068501
 41       0.314242204724
 42      -0.047168238438
 43       0.293443507483
 44       0.019658479920
 45       0.018473697705
 46      -0.331749166398
 47      -0.176288579158
 48       0.265670550225
 49      -0.000000384786
 50      -0.000000128615
 51      -0.000022654643
 52      -0.024828161821
 53       0.045446653399
 54       0.000004027071
 55      -0.023553908297
 56       0.569163048810
 57       0.000011963232
 58       0.000016665923
 59      -0.014373914285
 60      -0.086773766680
 61       0.000007331834
 62       0.000000385808
 63      -0.051387427585
 64      -0.305996483618
 65       0.590485939401
 66      -0.041771157226
 67       0.118942459725
 68       0.175354305595
 69       0.038704664473
 70      -0.138830657455
 71      -0.569732090750
 72      -0.055140028889
 73      -0.025659533342
 74       0.209113067748
 75      -0.175994128005
 76      -0.094942970605
 77       0.051388520702
 78       0.306003325985
 79      -0.590496143662
 80      -0.041774468490
 81       0.118944355681
 82      -0.175352998888
 83       0.038708068974
 84      -0.138829613181
 85       0.569753897960
 86       0.055141625099
 87      -0.025677042922
 88       0.209106798207
 89       0.175984703685
 90       0.094950845396
 91      -0.000002367190
 92      -0.000013731404
 93       0.000007232959
 94       0.017661958540
 95       0.039177501484
 96       0.000010634953
 97      -0.018628813332
 98      -0.164258804213
 99      -0.000006695848
100       0.000000948035
101       0.020430121511
102      -0.027519609420
103       0.000002462182
104      -0.000000871791
 Sym=     1a
 Ene= 2.35069896951905E+00
 Spin= Alpha
 Occup= 0.000000
  1       0.009727290823
  2      -0.018099455269
  3      -0.158326761255
  4       0.368182714028
  5       0.022324084667
  6      -0.092042368207
  7       0.548753165087
  8      -0.085958430410
  9      -0.291095349017
 10       0.230922600812
 11      -0.274567723922
 12       0.182239051513
 13      -0.254184399966
 14       0.408893012792
 15       0.009728254200
 16      -0.018086291731
 17      -0.158556916166
 18      -0.368164752553
 19      -0.022297464253
 20      -0.092065012737
 21      -0.548734256220
 22       0.086076770638
 23      -0.291173644859
 24       0.230972656979
 25       0.274546724878
 26      -0.182268214494
 27      -0.254179186963
 28       0.408908330114
 29      -0.204190107343
 30      -0.382587631627
 31       0.304077385116
 32      -0.221447088379
 33       0.043543205159
 34       0.268644256945
 35       0.330033074478
 36       0.151134940601
 37       0.490442189886
 38       0.165508763779
 39       0.268635302295
 40       0.330015667592
 41      -0.151097903297
 42      -0.490444933018
 43       0.165532453976
 44      -0.204190729121
 45      -0.382588034951
 46      -0.304113723092
 47       0.221431226320
 48       0.043566459618
 49       0.000368848527
 50       0.021661789090
 51       0.338760046183
 52      -0.000000730103
 53       0.000002931257
 54      -0.055720526627
 55      -0.000002756320
 56       0.000030424044
 57      -0.105643818360
 58      -0.220314007011
 59      -0.000001292760
 60      -0.000004855911
 61      -0.130335069755
 62      -0.004758590061
 63      -0.010178909231
 64      -0.066472113937
 65       0.108702146447
 66      -0.023094875369
 67       0.020238877979
 68      -0.004033688557
 69       0.044199639048
 70      -0.002665621099
 71      -0.182807930379
 72      -0.044399308693
 73      -0.158875283132
 74      -0.053482371362
 75       0.087607635574
 76      -0.047120819576
 77      -0.010173297584
 78      -0.066440034775
 79       0.108643536299
 80       0.023090957400
 81      -0.020226202747
 82      -0.004053896902
 83      -0.044197196135
 84       0.002651448278
 85      -0.182746677347
 86      -0.044397629206
 87       0.158872606861
 88       0.053506093354
 89       0.087630146738
 90      -0.047111698226
 91       0.031643680044
 92       0.193908777116
 93      -0.161926554711
 94       0.000000588532
 95       0.000002222775
 96      -0.137255561089
 97      -0.000000167911
 98      -0.000008776142
 99       0.101751210254
100      -0.012173810085
101       0.000001747647
102      -0.000000811025
103      -0.055404176931
104       0.020667377208
 Sym=     1a
 Ene= 2.46873228030655E+00
 Spin= Alpha
 Occup= 0.000000
  1       0.125810867844
  2      -0.571073005377
  3      -1.183042593439
  4       0.035112586450
  5      -0.002262394060
  6       0.082069789707
  7       0.042361616532
  8      -0.094879354709
  9       0.001181919888
 10       0.428083168287
 11       0.005766636086
 12      -0.278223739356
 13       0.480095997406
 14      -0.025022131928
 15      -0.125810866331
 16       0.571072277886
 17       1.183045454836
 18       0.035119543182
 19      -0.002262041446
 20      -0.082068077471
 21       0.042373150415
 22      -0.094880073360
 23      -0.001178364993
 24      -0.428084898201
 25       0.005763003614
 26      -0.278222899142
 27      -0.480094470081
 28       0.025027242918
 29       0.247500232551
 30       0.232537259411
 31      -0.327372566448
 32      -0.103156943689
 33       0.237577710186
 34       0.280415178723
 35       0.273770014573
 36       0.407080987617
 37      -0.046330274519
 38       0.067909551564
 39      -0.280420169969
 40      -0.273774751917
 41       0.407084568629
 42      -0.046328751655
 43      -0.067905004475
 44      -0.247496021584
 45      -0.232533202749
 46      -0.327368573668
 47      -0.103158144561
 48      -0.237579881936
 49      -0.000000016277
 50       0.000000436750
 51      -0.000000876646
 52       0.027445075911
 53      -0.066922121651
 54       0.000000170859
 55       0.080318785548
 56      -0.181829228287
 57       0.000002233537
 58       0.000000295447
 59      -0.031909080965
 60       0.053204258086
 61       0.000000169550
 62       0.000000247794
 63       0.029062243014
 64       0.137665445182
 65      -0.160811643298
 66       0.034406531823
 67       0.006917240620
 68      -0.122052190546
 69      -0.048806683458
 70      -0.090741018558
 71       0.267315106925
 72      -0.199234360349
 73       0.060233183696
 74       0.037352374424
 75      -0.086846428960
 76       0.035996584913
 77      -0.029062245661
 78      -0.137665403221
 79       0.160812006271
 80       0.034407366786
 81       0.006917399957
 82       0.122051874865
 83      -0.048807354154
 84      -0.090740793466
 85      -0.267314110507
 86       0.199233792959
 87       0.060232791256
 88       0.037352641634
 89       0.086846639007
 90      -0.035995317046
 91       0.000000082734
 92       0.000000504694
 93      -0.000002018917
 94       0.016478159881
 95      -0.029100471528
 96       0.000000029504
 97      -0.031109266586
 98       0.057390565047
 99       0.000000544357
100      -0.000000148701
101       0.055125443883
102      -0.118147245518
103      -0.000000136884
104      -0.000000080126
 Sym=     1a
 Ene= 2.61436254679636E+00
 Spin= Alpha
 Occup= 0.000000
  1       0.020197976434
  2      -0.121355223280
  3      -0.120546499873
  4      -0.080798002365
  5       0.061211143619
  6       0.059512278046
  7      -0.187317884955
  8       0.044458289976
  9       0.044270224916
 10       0.021088390499
 11       0.066080527921
 12      -0.043241279042
 13      -0.030994108682
 14       0.065253166199
 15       0.020198554159
 16      -0.121359190041
 17      -0.120545836044
 18       0.080800581547
 19      -0.061214833828
 20       0.059515667369
 21       0.187319972238
 22      -0.044463270430
 23       0.044273038236
 24       0.021087039092
 25      -0.066083280042
 26       0.043242784415
 27      -0.030996905815
 28       0.065256305728
 29       0.176687935409
 30       0.135775644019
 31      -0.120858851826
 32       0.066253740178
 33       0.127421508268
 34      -0.013333234767
 35      -0.035898657524
 36       0.016979931284
 37       0.003693694044
 38      -0.000054705993
 39      -0.013333055665
 40      -0.035898778304
 41      -0.016980024412
 42      -0.003694349811
 43      -0.000054360491
 44       0.176694208825
 45       0.135779421299
 46       0.120861823999
 47      -0.066257881328
 48       0.127427755013
 49      -0.002866034383
 50       0.033921766262
 51      -0.015307154293
 52       0.000000252791
 53       0.000000115981
 54      -0.006443803494
 55       0.000000596814
 56      -0.000000550427
 57       0.062504117543
 58      -0.011449459562
 59      -0.000000260343
 60       0.000000130448
 61      -0.051464985917
 62       0.073501553515
 63      -0.004391050987
 64      -0.026875169718
 65       0.066324759544
 66       0.033129865689
 67       0.010122516601
 68       0.015050243465
 69      -0.082896174327
 70      -0.012661306461
 71      -0.047914328180
 72       0.018786135086
 73      -0.079665148781
 74      -0.008268847303
 75      -0.166257515692
 76       0.283532015364
 77      -0.004391046099
 78      -0.026874874643
 79       0.066323924713
 80      -0.033129170594
 81      -0.010123283788
 82       0.015050386113
 83       0.082894448847
 84       0.012662485243
 85      -0.047914453497
 86       0.018783362024
 87       0.079667501703
 88       0.008265779858
 89      -0.166259402587
 90       0.283528061680
 91       0.002110728633
 92       0.015724399197
 93      -0.049614066679
 94       0.000000111304
 95       0.000000118718
 96      -0.004402264184
 97      -0.000000246250
 98      -0.000000050082
 99       0.009986578627
100      -0.001507664606
101       0.000000730803
102       0.000000880101
103      -0.408400040851
104       0.756492573793
 Sym=     1a
 Ene= 2.66050574778907E+00
 Spin= Alpha
 Occup= 0.000000
  1       0.150876492345
  2      -0.903255237198
  3      -0.564270770482
  4       0.131561216672
  5       0.328002313330
  6       0.250266755690
  7      -0.001232356098
  8       0.197172191150
  9       0.148721606525
 10       0.162717825918
 11       0.131250922213
 12      -0.221495849078
 13      -0.442307829571
 14      -0.169387536216
 15       0.150876959537
 16      -0.903261116343
 17      -0.564243569851
 18      -0.131552552533
 19      -0.328006752180
 20       0.250270651463
 21       0.001245734627
 22      -0.197185661446
 23       0.148732714427
 24       0.162714752989
 25      -0.131259125484
 26       0.221497534965
 27      -0.442314457761
 28      -0.169371031454
 29       0.502259771258
 30       0.264448858787
 31      -0.403302630919
 32       0.303766653524
 33       0.325111521927
 34       0.600517079946
 35       0.238317617263
 36       0.648169471398
 37       0.275557461168
 38       0.189323274677
 39       0.600507426479
 40       0.238307815550
 41      -0.648166421988
 42      -0.275550881959
 43       0.189309957368
 44       0.502275090965
 45       0.264459736224
 46       0.403308473166
 47      -0.303775545096
 48       0.325127873816
 49       0.016781748306
 50      -0.140297516675
 51      -0.283549390086
 52       0.000001491942
 53       0.000001893959
 54       0.072106012781
 55       0.000000209474
 56       0.000000564933
 57       0.095882040689
 58       0.042918535673
 59      -0.000000354899
 60      -0.000000188813
 61      -0.012414549276
 62       0.005891546845
 63      -0.029564513669
 64      -0.213283196794
 65       0.444144208538
 66      -0.011509870565
 67       0.039256457301
 68       0.045664458789
 69       0.044667477491
 70      -0.132735047041
 71      -0.062028191449
 72       0.159622194641
 73      -0.006459941508
 74      -0.002054312448
 75      -0.022271746196
 76      -0.044992155653
 77      -0.029565189619
 78      -0.213288509159
 79       0.444157505042
 80       0.011513618166
 81      -0.039257404341
 82       0.045665310214
 83      -0.044677702162
 84       0.132738612628
 85      -0.062029599365
 86       0.159614112893
 87       0.006474669566
 88       0.002055437743
 89      -0.022269185992
 90      -0.045005305757
 91      -0.007490878525
 92      -0.056032960455
 93       0.091659688377
 94       0.000000179562
 95       0.000000414454
 96       0.020110753436
 97      -0.000000271680
 98      -0.000000810367
 99      -0.040720922596
100      -0.004754404622
101       0.000002573193
102       0.000003819458
103       0.380928659008
104       0.091446376241
 Sym=     1a
 Ene= 2.69575503919620E+00
 Spin= Alpha
 Occup= 0.000000
  1      -0.061892129426
  2       0.414707450750
  3       0.183363514610
  4      -0.022751189356
  5      -0.135048607355
  6      -0.142050143090
  7       0.164276006517
  8      -0.146396255975
  9      -0.167017913452
 10      -0.099406795564
 11      -0.123898266038
 12       0.112913688771
 13       0.192606578129
 14       0.072487982830
 15      -0.061894693627
 16       0.414725582663
 17       0.183363537587
 18       0.022723678616
 19       0.135063332362
 20      -0.142065354238
 21      -0.164305826759
 22       0.146415100892
 23      -0.167030600527
 24      -0.099403015227
 25       0.123919404099
 26      -0.112918360591
 27       0.192623315756
 28       0.072460620396
 29      -0.293417768244
 30      -0.194331939760
 31       0.208579322771
 32      -0.152206549405
 33      -0.156792477129
 34      -0.208173312765
 35      -0.042223178553
 36      -0.259830512612
 37      -0.080112106430
 38      -0.067974873207
 39      -0.208159581949
 40      -0.042210859275
 41       0.259821097840
 42       0.080105653371
 43      -0.067968358080
 44      -0.293460784998
 45      -0.194359803909
 46      -0.208604631828
 47       0.152229432683
 48      -0.156827067799
 49       0.016913584168
 50      -0.201086181053
 51       0.109804627507
 52      -0.000003301662
 53      -0.000002839087
 54       0.044937087939
 55      -0.000002824692
 56      -0.000002267085
 57      -0.326879024860
 58       0.061991133981
 59       0.000001995058
 60       0.000000139103
 61      -0.169584712032
 62      -0.114436909473
 63      -0.007008863109
 64      -0.040308984147
 65      -0.032507729050
 66      -0.012932105089
 67       0.032726562521
 68      -0.096448781997
 69       0.034401632922
 70      -0.030045881683
 71       0.113971153662
 72       0.027819691373
 73       0.009179050545
 74      -0.077697210458
 75      -0.032800110281
 76      -0.025652714866
 77      -0.007008670617
 78      -0.040307822390
 79      -0.032509805639
 80       0.012927705395
 81      -0.032725185255
 82      -0.096448344159
 83      -0.034387310579
 84       0.030041936734
 85       0.113965688609
 86       0.027829295547
 87      -0.009186213127
 88       0.077700913815
 89      -0.032803997197
 90      -0.025625661301
 91      -0.009213443428
 92      -0.071399401980
 93       0.241075814589
 94      -0.000000939427
 95      -0.000000711112
 96       0.016659736135
 97       0.000001946490
 98       0.000001649243
 99      -0.042338614816
100       0.013343932468
101      -0.000007036937
102      -0.000006875344
103       0.755909480610
104       0.477393553421
 Sym=     1a
 Ene= 2.70920175907533E+00
 Spin= Alpha
 Occup= 0.000000
  1      -0.050148251990
  2       0.325556385417
  3       0.363615835458
  4       0.404788860461
  5      -0.264055543032
  6      -0.251468681583
  7       0.387680609014
  8      -0.224280190337
  9      -0.084940252488
 10       0.038107163651
 11      -0.340494151887
 12       0.078741215984
 13       0.320232823033
 14      -0.332328846272
 15       0.050140236183
 16      -0.325509271610
 17      -0.363581294028
 18       0.404797473029
 19      -0.264040138009
 20       0.251461163486
 21       0.387688843809
 22      -0.224270536271
 23       0.084937833157
 24      -0.038121766621
 25      -0.340483738920
 26       0.078737709571
 27      -0.320201333183
 28       0.332353351328
 29      -0.672790398593
 30      -0.414721798462
 31       0.441499362786
 32      -0.354235063837
 33      -0.494958574457
 34       0.095932791971
 35       0.090371948425
 36       0.082747955682
 37       0.043200951798
 38      -0.004761799707
 39      -0.095972407475
 40      -0.090389201981
 41       0.082786782780
 42       0.043213929346
 43       0.004746305647
 44       0.672768866077
 45       0.414711902733
 46       0.441475916479
 47      -0.354219618116
 48       0.494951852400
 49      -0.000000171841
 50      -0.000000841230
 51       0.000004725502
 52       0.124580558490
 53       0.065380353277
 54      -0.000000685230
 55       0.123580670788
 56       0.071912957532
 57      -0.000007294526
 58       0.000003552122
 59      -0.075733181464
 60       0.000788098067
 61      -0.000007565182
 62      -0.000001131614
 63      -0.006027823702
 64      -0.054420460241
 65       0.164971195364
 66       0.048851569753
 67      -0.008865500570
 68       0.023183242621
 69      -0.176862211383
 70       0.014446104614
 71      -0.135772382238
 72       0.101872783977
 73      -0.024529249625
 74      -0.069934793778
 75      -0.106111359786
 76       0.420557519500
 77       0.006028270640
 78       0.054426026009
 79      -0.164994717061
 80       0.048850041000
 81      -0.008866643071
 82      -0.023189920827
 83      -0.176853897422
 84       0.014441662848
 85       0.135783338207
 86      -0.101877755568
 87      -0.024540443348
 88      -0.069930669185
 89       0.106109229629
 90      -0.420548724408
 91      -0.000000513078
 92      -0.000002883426
 93       0.000004782097
 94       0.041188323374
 95       0.018519530528
 96       0.000001522631
 97      -0.089523525254
 98      -0.044866210543
 99      -0.000001161825
100       0.000000598188
101       0.248647335295
102       0.165276908166
103       0.000023751327
104       0.000006473500
 Sym=     1a
 Ene= 2.77114608623868E+00
 Spin= Alpha
 Occup= 0.000000
  1       0.024486614399
  2      -0.186982244983
  3       0.290552908261
  4       0.368500346754
  5       0.037117836721
  6      -0.033783511319
  7       0.369405801493
  8       0.165107060676
  9       0.048582338028
 10       0.035458777354
 11      -0.111827694979
 12      -0.114731989870
 13      -0.058663518448
 14      -0.366008078872
 15      -0.024489905134
 16       0.186999232632
 17      -0.290538498337
 18       0.368519327906
 19       0.037122310616
 20       0.033788136744
 21       0.369435425868
 22       0.165105884354
 23      -0.048574098194
 24      -0.035464955517
 25      -0.111827279750
 26      -0.114727618776
 27       0.058680592624
 28       0.366035585767
 29      -0.241309437404
 30      -0.171536705329
 31       0.065669113242
 32      -0.129620461304
 33      -0.216264402939
 34       0.402550377762
 35       0.243739072492
 36       0.400197001566
 37       0.135093497723
 38       0.115669041757
 39      -0.402581413169
 40      -0.243755612554
 41       0.400224860002
 42       0.135100094501
 43      -0.115677694464
 44       0.241317360770
 45       0.171546135042
 46       0.065670107774
 47      -0.129616304993
 48       0.216273601467
 49      -0.000000655600
 50       0.000005037424
 51       0.000003788317
 52      -0.142258258061
 53       0.067829859794
 54      -0.000001812461
 55      -0.248283173976
 56       0.122274597657
 57       0.000001046030
 58       0.000000303301
 59       0.074571879846
 60       0.032446475382
 61      -0.000006039241
 62       0.000003601148
 63       0.011494141983
 64       0.081404379694
 65      -0.120554218071
 66      -0.006339023953
 67      -0.058090665788
 68      -0.002238379952
 69      -0.007185151028
 70       0.165406914608
 71      -0.122973548072
 72       0.162585377488
 73       0.443993122620
 74       0.000695593821
 75       0.330063096114
 76      -0.108233926193
 77      -0.011493836236
 78      -0.081399174490
 79       0.120535033759
 80      -0.006340441628
 81      -0.058090632214
 82       0.002237358194
 83      -0.007172926116
 84       0.165400012659
 85       0.122974594803
 86      -0.162593075116
 87       0.443984145480
 88       0.000695034737
 89      -0.330065495629
 90       0.108250752943
 91      -0.000000036788
 92       0.000000223221
 93      -0.000002661653
 94      -0.060810237188
 95       0.013138217541
 96       0.000000445224
 97       0.155892983395
 98      -0.052208652721
 99       0.000000392968
100       0.000000596849
101      -0.301958906248
102       0.132658963167
103       0.000007880879
104      -0.000005411281
 Sym=     1a
 Ene= 2.79746824779402E+00
 Spin= Alpha
 Occup= 0.000000
  1      -0.000568669614
  2       0.018969403985
  3       0.007496598800
  4       0.272422545652
  5      -0.019282638117
  6      -0.108936054846
  7       0.855444371216
  8       0.001368403694
  9      -0.139107224819
 10      -0.025703381712
 11      -0.024019898437
 12       0.115520757437
 13       0.021924346712
 14      -0.478821932410
 15      -0.000576001759
 16       0.019017999880
 17       0.007560624825
 18      -0.272375875865
 19       0.019320565859
 20      -0.108948910986
 21      -0.855387529561
 22      -0.001340389606
 23      -0.139097847520
 24      -0.025709555788
 25       0.024022507955
 26      -0.115523275905
 27       0.021985276270
 28      -0.478778723781
 29      -0.417150237513
 30      -0.351828235344
 31       0.161044174317
 32      -0.067170330500
 33      -0.311845859576
 34       0.363449307442
 35       0.326172213151
 36       0.234001317802
 37      -0.022473324317
 38       0.176581000034
 39       0.363365147800
 40       0.326113321779
 41      -0.233933539352
 42       0.022518780097
 43       0.176539358419
 44      -0.417151809783
 45      -0.351821975491
 46      -0.161044129885
 47       0.067182160158
 48      -0.311850162693
 49       0.025792790117
 50      -0.220225925899
 51      -0.054026588010
 52       0.000003650228
 53       0.000008061336
 54       0.071409287445
 55      -0.000000597716
 56       0.000010721495
 57      -0.162652642612
 58       0.034253757830
 59       0.000001613169
 60      -0.000002069969
 61       0.225163736442
 62      -0.243194395407
 63      -0.000126991582
 64      -0.034839972704
 65       0.082919127175
 66      -0.055830963257
 67      -0.013434154655
 68      -0.014302861454
 69       0.310123904986
 70      -0.028726302744
 71       0.098656373897
 72      -0.010601560838
 73      -0.224263940409
 74      -0.136435701227
 75       0.217642014881
 76      -0.397397124351
 77      -0.000129749862
 78      -0.034863546013
 79       0.082976715819
 80       0.055838260361
 81       0.013433299641
 82      -0.014299027183
 83      -0.310153840981
 84       0.028734637961
 85       0.098652755359
 86      -0.010610970290
 87       0.224299441985
 88       0.136452142408
 89       0.217658580233
 90      -0.397430778865
 91      -0.007129396477
 92      -0.059415607627
 93       0.191801689847
 94       0.000000329221
 95       0.000001589405
 96       0.012160130312
 97      -0.000001303962
 98      -0.000005090854
 99      -0.047779250447
100       0.003629169252
101       0.000010814766
102       0.000008961647
103      -0.217709688205
104       0.311005699499
 Sym=     1a
 Ene= 2.82818050300800E+00
 Spin= Alpha
 Occup= 0.000000
  1      -0.064706396875
  2       0.389311845280
  3       1.170503452742
  4      -0.058346505426
  5      -0.378268824723
  6      -0.191649011641
  7      -0.174761651953
  8      -0.053766855607
  9       0.160583744917
 10      -0.001410629229
 11      -0.278888922030
 12       0.035081741683
 13       0.617004725403
 14       0.086418917216
 15       0.064708329296
 16      -0.389319363387
 17      -1.170517082103
 18      -0.058387685203
 19      -0.378272234637
 20       0.191640228028
 21      -0.174873975366
 22      -0.053765551514
 23      -0.160605427371
 24       0.001413407611
 25      -0.278886745880
 26       0.035070614723
 27      -0.617013517451
 28      -0.086468547552
 29      -0.403745831820
 30      -0.172261586583
 31       0.243389896544
 32      -0.281965487260
 33      -0.275008243588
 34      -0.481081471899
 35      -0.367877092405
 36      -0.348526864286
 37      -0.265707951077
 38      -0.266526704953
 39       0.481140265568
 40       0.367924048966
 41      -0.348569167707
 42      -0.265714808540
 43       0.266546239654
 44       0.403700725301
 45       0.172218609706
 46       0.243368793293
 47      -0.281962506068
 48       0.274980619714
 49       0.000001314184
 50      -0.000012634157
 51      -0.000004648611
 52      -0.087685246123
 53      -0.117757678234
 54       0.000003822412
 55      -0.074534058759
 56      -0.137085701200
 57      -0.000009262877
 58       0.000003538878
 59      -0.027602932984
 60       0.040897493649
 61       0.000014785511
 62      -0.000015064503
 63      -0.022895400369
 64      -0.210018589202
 65       0.624869210857
 66      -0.059829195022
 67       0.000017297416
 68       0.028996145372
 69       0.233252928593
 70      -0.057591355358
 71      -0.126076287972
 72      -0.019970110839
 73      -0.198644067728
 74      -0.109448772376
 75       0.196646288792
 76      -0.304831073719
 77       0.022895079919
 78       0.210011707938
 79      -0.624849310801
 80      -0.059824534766
 81       0.000018091845
 82      -0.028996360054
 83       0.233218484200
 84      -0.057584453750
 85       0.126083935057
 86       0.019973858828
 87      -0.198626275450
 88      -0.109438930912
 89      -0.196621964379
 90       0.304783928762
 91      -0.000000666962
 92      -0.000004843870
 93       0.000012643994
 94      -0.023306815296
 95      -0.022238150738
 96       0.000001322970
 97       0.076617035599
 98       0.070163613807
 99      -0.000003454379
100       0.000000717794
101      -0.266906540954
102      -0.115467147245
103      -0.000013057378
104       0.000016901743
 Sym=     1a
 Ene= 2.90341470353203E+00
 Spin= Alpha
 Occup= 0.000000
  1      -0.034374037314
  2       0.197917801256
  3       0.667267550229
  4      -0.507011687530
  5      -0.188084329114
  6       0.045387726832
  7      -0.267567041111
  8      -0.014446047708
  9       0.148389462686
 10      -0.242462445970
 11       0.524740981268
 12      -0.067798128960
 13       0.497013974733
 14       0.317859683857
 15       0.034372831474
 16      -0.197908591658
 17      -0.667264192361
 18      -0.507026894975
 19      -0.188076953341
 20      -0.045406345347
 21      -0.267593179604
 22      -0.014440388531
 23      -0.148403498534
 24       0.242460728850
 25       0.524755988562
 26      -0.067809241212
 27      -0.497014761557
 28      -0.317869248422
 29       0.260679476624
 30       0.035747746432
 31      -0.276435447972
 32       0.105740604436
 33       0.056299617627
 34      -0.705001326387
 35      -0.308444063366
 36      -0.592750143144
 37      -0.384420026646
 38      -0.153480455421
 39       0.705010109435
 40       0.308453492637
 41      -0.592759900308
 42      -0.384417520796
 43       0.153472074259
 44      -0.260708187625
 45      -0.035763909828
 46      -0.276450987933
 47       0.105753731090
 48      -0.056319109254
 49       0.000000680614
 50      -0.000002620640
 51      -0.000001308262
 52       0.007433604673
 53       0.037399881122
 54       0.000002442797
 55       0.057303132834
 56       0.158165241337
 57       0.000008323556
 58      -0.000004255610
 59       0.018389381639
 60       0.068334761571
 61       0.000005222487
 62      -0.000004170611
 63      -0.007091862275
 64      -0.069006908201
 65       0.198954665042
 66       0.015355494372
 67      -0.004508082766
 68       0.044629465758
 69      -0.026368982394
 70      -0.000100335371
 71      -0.209898702199
 72       0.191681465329
 73       0.299010985275
 74       0.077983179162
 75      -0.028575893982
 76       0.110425216400
 77       0.007091594376
 78       0.069000788903
 79      -0.198929655202
 80       0.015355114648
 81      -0.004508051003
 82      -0.044629507668
 83      -0.026376033944
 84      -0.000090057241
 85       0.209893407509
 86      -0.191677128080
 87       0.299004333240
 88       0.077978796631
 89       0.028571332449
 90      -0.110438990721
 91       0.000000924585
 92       0.000005689754
 93      -0.000010033594
 94       0.019534903529
 95       0.019124937038
 96      -0.000002347400
 97      -0.057483845439
 98      -0.086364507670
 99       0.000003496349
100      -0.000000866676
101       0.097091833919
102       0.188821855917
103      -0.000004207564
104       0.000003743819
 Sym=     1a
 Ene= 2.95659193859794E+00
 Spin= Alpha
 Occup= 0.000000
  1      -0.041362145406
  2       0.349617351945
  3      -0.524234707310
  4       0.177940575530
  5      -0.118591041609
  6      -0.083823256208
  7       0.216182345256
  8      -0.238022685870
  9      -0.408775277280
 10       0.137464997840
 11      -0.048826854307
 12       0.499850206771
 13       0.138314202909
 14      -0.157796196631
 15       0.041359980541
 16      -0.349607174192
 17       0.524252369863
 18       0.177905358129
 19      -0.118587056615
 20       0.083816121068
 21       0.216172499291
 22      -0.238021149507
 23       0.408778794076
 24      -0.137456001512
 25      -0.048782329170
 26       0.499846803618
 27      -0.138311622477
 28       0.157762688660
 29      -0.387058186273
 30      -0.200073971612
 31       0.348720807613
 32      -0.089367129546
 33      -0.168653529551
 34       0.051207508503
 35       0.091467965709
 36      -0.062288919191
 37       0.031680086625
 38       0.191449151456
 39      -0.051187794057
 40      -0.091463888265
 41      -0.062312452688
 42       0.031674794629
 43      -0.191449406652
 44       0.387019893210
 45       0.200063582414
 46       0.348689644190
 47      -0.089352133644
 48       0.168633618840
 49       0.000000232381
 50       0.000001273043
 51      -0.000002800935
 52       0.042001870296
 53      -0.281317605463
 54       0.000000029214
 55       0.038361814431
 56      -0.520383637331
 57       0.000009954162
 58      -0.000001602814
 59       0.022164925731
 60      -0.015592067308
 61      -0.000000572150
 62       0.000005735400
 63      -0.027668704942
 64      -0.231694703840
 65       0.424496725971
 66      -0.018185362835
 67       0.096299072922
 68      -0.024828732413
 69       0.022379897054
 70      -0.380629784582
 71       0.275096650688
 72       0.005632699927
 73       0.260667279707
 74       0.208705194978
 75      -0.368309837507
 76      -0.243233258547
 77       0.027669218843
 78       0.231697821652
 79      -0.424500485076
 80      -0.018187783201
 81       0.096299991213
 82       0.024828150729
 83       0.022386819750
 84      -0.380626747032
 85      -0.275090736911
 86      -0.005636154859
 87       0.260649563650
 88       0.208703935763
 89       0.368295274562
 90       0.243254444278
 91       0.000000466693
 92       0.000003575465
 93      -0.000009470665
 94      -0.010225026680
 95      -0.040808949591
 96      -0.000000860860
 97       0.007811890653
 98       0.210712972706
 99       0.000002343573
100       0.000000236755
101       0.006621759271
102      -0.330978498424
103       0.000000635177
104      -0.000003469085
 Sym=     1a
 Ene= 3.00008514304018E+00
 Spin= Alpha
 Occup= 0.000000
  1      -0.003468426774
  2       0.035174605461
  3       0.048101599837
  4       0.476979458523
  5      -0.034992082329
  6      -0.204145289134
  7       0.361684782632
  8      -0.060599935287
  9      -0.101775671929
 10       0.055104499401
 11      -0.668988187222
 12       0.052586446930
 13      -0.041739700468
 14      -0.477662045657
 15      -0.003472859246
 16       0.035202539823
 17       0.048126233845
 18      -0.476967436540
 19       0.035006688198
 20      -0.204154836033
 21      -0.361684235460
 22       0.060601831590
 23      -0.101797333196
 24       0.055101731315
 25       0.668972635263
 26      -0.052618545021
 27      -0.041724043483
 28      -0.477655495622
 29      -0.587937730318
 30      -0.217876766321
 31       0.399049317568
 32      -0.224331865386
 33      -0.332676258903
 34       0.422534988468
 35       0.179833201201
 36       0.409609480474
 37       0.139941879879
 38       0.004326349696
 39       0.422505723994
 40       0.179824881200
 41      -0.409582145995
 42      -0.139924802187
 43       0.004323267244
 44      -0.587951794129
 45      -0.217888648886
 46      -0.399054008752
 47       0.224337330899
 48      -0.332689244776
 49       0.040697058969
 50      -0.140274418121
 51      -0.175293267157
 52      -0.000002736479
 53       0.000013298387
 54       0.164169869964
 55      -0.000005317549
 56       0.000020632432
 57       0.513280334539
 58      -0.203136523865
 59      -0.000001099349
 60      -0.000000070057
 61       0.133511356700
 62       0.062621973694
 63      -0.003717839194
 64      -0.125011654486
 65       0.520591357659
 66       0.024559109522
 67       0.000627328071
 68      -0.009506723574
 69       0.033256780376
 70      -0.280173498147
 71      -0.031186425686
 72       0.113482421307
 73       0.239051936983
 74       0.089808444776
 75      -0.353948880119
 76      -0.005345209975
 77      -0.003720617454
 78      -0.125035730331
 79       0.520644839432
 80      -0.024558391553
 81      -0.000633529746
 82      -0.009507640360
 83      -0.033259806056
 84       0.280203063625
 85      -0.031168577441
 86       0.113488812747
 87      -0.239070027345
 88      -0.089813312245
 89      -0.353974803987
 90      -0.005360015001
 91       0.036532269148
 92       0.264341390082
 93      -0.536886417786
 94      -0.000000496277
 95       0.000001380398
 96      -0.110297698435
 97       0.000002469460
 98      -0.000008213685
 99       0.188174722229
100      -0.058074464404
101      -0.000003446155
102       0.000012742344
103      -0.061270835359
104      -0.017150956396
 Sym=     1a
 Ene= 3.03075899054767E+00
 Spin= Alpha
 Occup= 0.000000
  1      -0.024431106427
  2       0.140037068038
  3       0.086434716866
  4       0.276480056939
  5      -0.007420418523
  6       0.026562449895
  7       0.525839141165
  8      -0.008450064198
  9      -0.034718259501
 10       0.171959398447
 11      -0.078384727189
 12       0.102700841358
 13       0.012385972610
 14      -0.427034329768
 15      -0.024431210697
 16       0.140042394161
 17       0.086366241960
 18      -0.276491379261
 19       0.007416725487
 20       0.026556297469
 21      -0.525846378480
 22       0.008466329998
 23      -0.034744386124
 24       0.171963827851
 25       0.078391229633
 26      -0.102716124851
 27       0.012369284683
 28      -0.427043845962
 29      -0.347220097022
 30      -0.219240719677
 31       0.182499070577
 32      -0.077982798526
 33      -0.207049854803
 34       0.317441176938
 35       0.186305565593
 36       0.237247562784
 37      -0.017111321756
 38       0.155078399243
 39       0.317458922411
 40       0.186315610899
 41      -0.237259190377
 42       0.017104715079
 43       0.155084208372
 44      -0.347229122854
 45      -0.219241807815
 46      -0.182507850677
 47       0.077984862400
 48      -0.207055268414
 49      -0.009609986896
 50      -0.019480856973
 51       0.063631252605
 52      -0.000001532093
 53       0.000005882607
 54      -0.094898102811
 55      -0.000001959330
 56       0.000013803126
 57      -0.338033592012
 58       0.151263831706
 59      -0.000000556382
 60       0.000002054909
 61      -0.223293471502
 62       0.372061351192
 63       0.010174682336
 64       0.130188899293
 65      -0.419697535852
 66       0.000088835835
 67      -0.011578809149
 68      -0.015002464597
 69      -0.042811602254
 70       0.130550222051
 71       0.191202985745
 72      -0.152528673700
 73      -0.344680028390
 74      -0.226202316860
 75       0.006809511893
 76       0.405962029466
 77       0.010173919199
 78       0.130184904600
 79      -0.419700194911
 80      -0.000088158177
 81       0.011576047396
 82      -0.015004688562
 83       0.042813638619
 84      -0.130540890674
 85       0.191226147281
 86      -0.152535451255
 87       0.344670277854
 88       0.226202398809
 89       0.006800607562
 90       0.405958638602
 91      -0.023214017756
 92      -0.171995814894
 93       0.371927044399
 94       0.000000198553
 95       0.000000924340
 96       0.072453842805
 97       0.000000361524
 98      -0.000005865050
 99      -0.133959346524
100       0.066924172918
101      -0.000001885528
102       0.000009617846
103       0.152253334074
104      -0.228923034941
 Sym=     1a
 Ene= 3.05119255247111E+00
 Spin= Alpha
 Occup= 0.000000
  1       0.029589426166
  2      -0.130947560044
  3      -0.183049164645
  4      -0.212862588673
  5       0.015790170272
  6      -0.201728972395
  7      -0.008624923294
  8      -0.000648356802
  9      -0.133693379711
 10      -0.329726194411
 11       0.152934020208
 12       0.016865427080
 13       0.127200052633
 14       0.158691584143
 15       0.029591014686
 16      -0.130953899062
 17      -0.183098959805
 18       0.212870347974
 19      -0.015796536618
 20      -0.201723014612
 21       0.008627341772
 22       0.000659251725
 23      -0.133695352519
 24      -0.329728440042
 25      -0.152943106664
 26      -0.016856989431
 27       0.127195406530
 28       0.158696525473
 29       0.103397355025
 30       0.002911183981
 31      -0.129910532116
 32       0.038916665931
 33       0.008382577574
 34      -0.206325707758
 35       0.049058697915
 36      -0.194912943074
 37      -0.066749128067
 38      -0.023252979475
 39      -0.206323798949
 40       0.049064273327
 41       0.194914938774
 42       0.066746423932
 43      -0.023248975631
 44       0.103415455458
 45       0.002919201586
 46       0.129920722258
 47      -0.038925802442
 48       0.008394540671
 49       0.068968940775
 50      -0.297732441106
 51      -0.276862079841
 52       0.000001415254
 53      -0.000006493381
 54       0.341463536940
 55       0.000002507576
 56      -0.000009037850
 57       0.666638661789
 58      -0.302991247251
 59      -0.000000818759
 60      -0.000000129196
 61       0.023766274998
 62       0.279099308293
 63      -0.023616033374
 64      -0.341798280300
 65       1.109587181173
 66      -0.007803799193
 67       0.018124143755
 68       0.008118203455
 69       0.148088575877
 70      -0.453952773177
 71      -0.212037667092
 72       0.196074471086
 73      -0.410438222251
 74      -0.053458462664
 75      -0.433251104781
 76      -0.197799611896
 77      -0.023614604156
 78      -0.341785039280
 79       1.109550456063
 80       0.007802692510
 81      -0.018122281770
 82       0.008118667658
 83      -0.148085978419
 84       0.453940606724
 85      -0.212040897282
 86       0.196069389898
 87       0.410445686367
 88       0.053456644880
 89      -0.433242548003
 90      -0.197793613439
 91       0.047152552589
 92       0.344222215004
 93      -0.686001945186
 94       0.000000000223
 95      -0.000000489621
 96      -0.151399633798
 97      -0.000000343895
 98       0.000003595329
 99       0.261923775408
100      -0.142580312307
101      -0.000000162361
102      -0.000005657453
103       0.019573844116
104      -0.154771470951
 Sym=     1a
 Ene= 3.14885456738728E+00
 Spin= Alpha
 Occup= 0.000000
  1       0.001276436139
  2       0.026841646476
  3      -0.169739489003
  4      -0.039077766778
  5      -0.033926524881
  6      -0.179632973455
  7      -0.050420013844
  8      -0.050028136146
  9      -0.184759593166
 10      -0.092375465453
 11      -0.085473634945
 12       0.333092085672
 13       0.077030995288
 14       0.044635532591
 15      -0.001275731306
 16      -0.026844962813
 17       0.169733903371
 18      -0.039068893951
 19      -0.033927533876
 20       0.179632961955
 21      -0.050405083630
 22      -0.050028363276
 23       0.184758974664
 24       0.092370691747
 25      -0.085482260045
 26       0.333093530356
 27      -0.077031229707
 28      -0.044622208313
 29      -0.124907088474
 30       0.003876337105
 31       0.132432019067
 32      -0.023324476277
 33      -0.016567013654
 34      -0.114130581920
 35      -0.031754802398
 36      -0.111759022440
 37      -0.032783780702
 38       0.007134856513
 39       0.114120139856
 40       0.031750010863
 41      -0.111750453728
 42      -0.032783313830
 43      -0.007136796665
 44       0.124920497420
 45      -0.003869981163
 46       0.132438721540
 47      -0.023328672098
 48       0.016574945411
 49      -0.000000030725
 50       0.000000252635
 51       0.000000244967
 52      -0.162521919142
 53       0.573058924589
 54       0.000000806751
 55      -0.196541963506
 56       0.743198290782
 57       0.000001768472
 58      -0.000000782769
 59       0.031916446229
 60      -0.123798911540
 61      -0.000000903863
 62       0.000000174712
 63       0.035588595304
 64       0.432242167334
 65      -1.300142003481
 66      -0.000354949706
 67      -0.014056062024
 68       0.044694312511
 69      -0.125191982394
 70       0.360257583364
 71      -0.169246800270
 72      -0.418840026297
 73      -0.009305462307
 74       0.483731074474
 75       0.234519160500
 76       0.130378946220
 77      -0.035588901218
 78      -0.432245308647
 79       1.300151291065
 80      -0.000355199093
 81      -0.014056466330
 82      -0.044693813352
 83      -0.125191775319
 84       0.360259056451
 85       0.169241741365
 86       0.418841857796
 87      -0.009297533055
 88       0.483730505934
 89      -0.234519041812
 90      -0.130380253340
 91       0.000000057772
 92       0.000000606210
 93      -0.000001697644
 94      -0.010573073187
 95       0.041526177387
 96      -0.000000214733
 97       0.074043271939
 98      -0.271353681140
 99       0.000000460465
100      -0.000000293401
101      -0.101789385592
102       0.331509163779
103       0.000000236927
104      -0.000000036707
 Sym=     1a
 Ene= 3.20589060897844E+00
 Spin= Alpha
 Occup= 0.000000
  1      -0.022554103653
  2       0.106156427524
  3       0.590782301595
  4       0.095374183204
  5      -0.053045479950
  6       0.309465527801
  7       0.134341398248
  8      -0.027145852522
  9       0.359227785015
 10       0.413003097011
 11       0.107315231406
 12      -0.120501334226
 13      -0.001889963731
 14      -0.037542998074
 15       0.022554449823
 16      -0.106158516469
 17      -0.590783720160
 18       0.095386293187
 19      -0.053046020339
 20      -0.309464093673
 21       0.134346408542
 22      -0.027148073327
 23      -0.359226523631
 24      -0.413009470103
 25       0.107303795460
 26      -0.120500326354
 27       0.001893060425
 28       0.037553107022
 29       0.026937457925
 30      -0.078196169166
 31      -0.022695343729
 32      -0.013043242165
 33       0.068766656146
 34       0.107472968570
 35       0.018615118151
 36       0.096578469118
 37       0.058399988904
 38       0.059654060107
 39      -0.107484715743
 40      -0.018617628607
 41       0.096590225724
 42       0.058403807782
 43      -0.059655384652
 44      -0.026925822784
 45       0.078199848499
 46      -0.022686091598
 47      -0.013047715840
 48      -0.068760178157
 49      -0.000000146849
 50       0.000000898873
 51       0.000000849753
 52      -0.101348793130
 53       0.130289813292
 54       0.000000253970
 55      -0.189677431540
 56       0.625752012460
 57      -0.000000474764
 58       0.000000453608
 59      -0.374084075190
 60       0.248283595479
 61       0.000000068502
 62      -0.000001514635
 63       0.008515413760
 64      -0.099872887750
 65       0.393877649529
 66       0.009423358124
 67      -0.042622882043
 68       0.083677556133
 69       0.070736462361
 70      -0.088161099734
 71      -0.731918400343
 72       0.359159996098
 73      -0.247824524976
 74       0.249668794158
 75      -0.213216417640
 76      -0.033693739657
 77      -0.008515471031
 78       0.099872319883
 79      -0.393877463963
 80       0.009423662764
 81      -0.042622891327
 82      -0.083677498762
 83       0.070738850797
 84      -0.088161745366
 85       0.731915343476
 86      -0.359155731329
 87      -0.247829103694
 88       0.249664900289
 89       0.213216478149
 90       0.033691461332
 91       0.000000030014
 92       0.000000055927
 93      -0.000000024828
 94       0.002121333744
 95       0.024883697808
 96      -0.000000002131
 97       0.184979066019
 98      -0.272582933425
 99       0.000000099707
100       0.000000204219
101      -0.528926502981
102       0.426715423545
103      -0.000000631299
104       0.000001072481
 Sym=     1a
 Ene= 3.25302798370851E+00
 Spin= Alpha
 Occup= 0.000000
  1       0.010489588630
  2      -0.053543926201
  3      -0.331732243059
  4      -0.097535355418
  5       0.039852973214
  6      -0.127686761629
  7      -0.066922538776
  8      -0.013267430990
  9      -0.184302866301
 10      -0.229499640902
 11       0.049900438319
 12       0.038894417162
 13      -0.012031330220
 14       0.055586954202
 15      -0.010489814773
 16       0.053545518915
 17       0.331731737018
 18      -0.097540151230
 19       0.039853936485
 20       0.127684791993
 21      -0.066925529177
 22      -0.013266540725
 23       0.184301349598
 24       0.229502080179
 25       0.049905170120
 26       0.038893200879
 27       0.012029845509
 28      -0.055591337190
 29       0.054990918953
 30       0.043541819732
 31      -0.038482691374
 32       0.044804532906
 33      -0.000604153819
 34      -0.088396977802
 35      -0.027491678305
 36      -0.095965269592
 37      -0.041294962963
 38      -0.029785452978
 39       0.088401496255
 40       0.027493592960
 41      -0.095969934916
 42      -0.041295846204
 43       0.029785680807
 44      -0.054996570945
 45      -0.043543816262
 46      -0.038486386861
 47       0.044807247147
 48       0.000600304268
 49       0.000000046021
 50      -0.000000575858
 51       0.000000287655
 52      -0.097429669777
 53      -0.072708969030
 54      -0.000000393953
 55       0.022324798349
 56      -0.272686128618
 57      -0.000001146034
 58       0.000000842093
 59      -0.600571544580
 60      -0.326372957261
 61      -0.000000655895
 62       0.000000365633
 63      -0.001631570040
 64       0.069632538475
 65      -0.252211301938
 66       0.003985819231
 67       0.017928573127
 68      -0.036543468944
 69      -0.129610738638
 70       0.044990539136
 71       0.325269812227
 72      -0.141582466823
 73       0.078708614949
 74      -0.113374069520
 75      -0.074007484372
 76       0.331295061545
 77       0.001631618852
 78      -0.069632068653
 79       0.252210443086
 80       0.003985732786
 81       0.017928676236
 82       0.036543496815
 83      -0.129612152278
 84       0.044989954456
 85      -0.325268948519
 86       0.141581095882
 87       0.078710482383
 88      -0.113372007606
 89       0.074008131342
 90      -0.331294255991
 91      -0.000000043775
 92      -0.000000450183
 93       0.000001354931
 94       0.021235909707
 95      -0.002377381557
 96       0.000000113790
 97       0.198877906436
 98       0.189225960635
 99      -0.000000726384
100       0.000001257366
101      -0.757896088867
102      -0.443002053356
103      -0.000000484321
104      -0.000000393418
 Sym=     1a
 Ene= 3.34813131073043E+00
 Spin= Alpha
 Occup= 0.000000
  1      -0.015680468570
  2      -0.038636580549
  3       0.320130944674
  4       0.025031644013
  5      -0.004745375026
  6       0.230151919576
  7       0.017826602330
  8      -0.039276796983
  9       0.281466756977
 10       0.189959030849
 11       0.191546481795
 12      -0.202861341936
 13      -0.073498614608
 14      -0.090019664326
 15      -0.015680087672
 16      -0.038638321476
 17       0.320119742770
 18      -0.025034396816
 19       0.004743664101
 20       0.230151819164
 21      -0.017825855423
 22       0.039279194220
 23       0.281467330334
 24       0.189959895465
 25      -0.191543035359
 26       0.202862889941
 27      -0.073502559257
 28      -0.090020087610
 29       0.117759206945
 30       0.034348020938
 31      -0.109114200667
 32       0.091022443043
 33       0.023887226433
 34       0.064682975195
 35      -0.026826943034
 36       0.074235120964
 37       0.014378982751
 38       0.018210322342
 39       0.064687483985
 40      -0.026825417631
 41      -0.074239324473
 42      -0.014381380199
 43       0.018210810138
 44       0.117760069352
 45       0.034349627916
 46       0.109112560678
 47      -0.091023235143
 48       0.023888382301
 49      -0.035491016708
 50       0.472458324549
 51       0.024380864021
 52       0.000000162010
 53      -0.000000045473
 54       0.409704230436
 55       0.000000826013
 56       0.000000520637
 57       0.895271390727
 58      -0.274335480743
 59      -0.000000806788
 60       0.000000447421
 61      -0.161399280747
 62      -0.115088888264
 63      -0.011906202515
 64       0.011905296308
 65      -0.153080104508
 66      -0.020565661305
 67       0.073779961299
 68      -0.022356913123
 69       0.021950403414
 70      -0.210471481703
 71       0.262295286108
 72      -0.641120046148
 73       0.051646939521
 74       0.039187146841
 75      -0.149062970261
 76      -0.094625433359
 77      -0.011906225626
 78       0.011905643715
 79      -0.153082073336
 80       0.020565713594
 81      -0.073779939833
 82      -0.022356998927
 83      -0.021948374719
 84       0.210471292149
 85       0.262296798394
 86      -0.641120102269
 87      -0.051651475594
 88      -0.039186740992
 89      -0.149063265706
 90      -0.094624976928
 91       0.057347726161
 92       0.529853980745
 93      -1.435969454249
 94       0.000000028832
 95       0.000000035929
 96      -0.119357288572
 97       0.000000422516
 98      -0.000000435918
 99       0.646498683078
100      -0.469366351051
101      -0.000001160577
102       0.000000499479
103       0.081984351044
104       0.058124242868
 Sym=     1a
 Ene= 3.38539601928320E+00
 Spin= Alpha
 Occup= 0.000000
  1      -0.016439745558
  2       0.032027247858
  3       0.311670320725
  4      -0.034817564429
  5      -0.000015782913
  6       0.174820793676
  7      -0.090391880102
  8      -0.043326341535
  9       0.219064681302
 10       0.214807665592
 11       0.115967472795
 12      -0.061270921740
 13      -0.011274668668
 14       0.134989512192
 15      -0.016439578993
 16       0.032025612568
 17       0.311677065341
 18       0.034812747436
 19       0.000016044221
 20       0.174819957013
 21       0.090390107479
 22       0.043322904411
 23       0.219067559096
 24       0.214808194756
 25      -0.115962096358
 26       0.061272138526
 27      -0.011273669709
 28       0.134985799832
 29       0.127990832933
 30       0.058049644715
 31      -0.069996811084
 32       0.020134882777
 33       0.134648511013
 34      -0.067750724817
 35      -0.062074691599
 36      -0.025656130932
 37       0.004143747556
 38       0.002664923348
 39      -0.067746504349
 40      -0.062072945814
 41       0.025651332365
 42      -0.004145626737
 43       0.002665738392
 44       0.127985832216
 45       0.058048496504
 46       0.069992593558
 47      -0.020133303176
 48       0.134645947920
 49       0.152651017372
 50      -0.937888947496
 51      -1.127421416761
 52      -0.000000044730
 53       0.000000666817
 54       0.228723247257
 55       0.000000140632
 56       0.000001432616
 57       0.130415122557
 58       0.113099851354
 59      -0.000000425977
 60       0.000000016875
 61       0.488944263318
 62       0.252275063404
 63      -0.000800286352
 64      -0.086672853384
 65       0.414960763439
 66       0.007820579066
 67      -0.019397142486
 68      -0.013677454462
 69       0.034322495269
 70      -0.339635869567
 71       0.690310520380
 72      -0.069410514971
 73       0.272588798617
 74      -0.689047011376
 75      -0.209857612388
 76      -0.119833188091
 77      -0.000800357511
 78      -0.086673606936
 79       0.414965091096
 80      -0.007820527685
 81       0.019396980751
 82      -0.013677969595
 83      -0.034320160039
 84       0.339636718030
 85       0.690311985115
 86      -0.069408659564
 87      -0.272590755401
 88       0.689048097416
 89      -0.209858006386
 90      -0.119831361043
 91      -0.021954250428
 92      -0.215883867167
 93       0.628876646894
 94       0.000000108316
 95       0.000000036823
 96       0.042805085290
 97      -0.000000222967
 98      -0.000000560213
 99      -0.291919781002
100       0.168368110439
101      -0.000000062432
102       0.000000779198
103      -0.078448348448
104      -0.031193824645
 Sym=     1a
 Ene= 3.68430552154035E+00
 Spin= Alpha
 Occup= 0.000000
  1       0.007170065585
  2      -0.057292477801
  3      -0.117651578326
  4      -0.005439972968
  5       0.001199329031
  6       0.004030961642
  7       0.028639651210
  8      -0.019800474329
  9      -0.014271175970
 10      -0.013210493084
 11       0.056260612889
 12      -0.088659599695
 13      -0.029193430463
 14      -0.034320101809
 15       0.007170069261
 16      -0.057292101279
 17      -0.117659270999
 18       0.005440889275
 19      -0.001199672341
 20       0.004031876180
 21      -0.028640707072
 22       0.019803153966
 23      -0.014271943349
 24      -0.013210151834
 25      -0.056261733714
 26       0.088660650198
 27      -0.029194144349
 28      -0.034318893748
 29       0.050853583059
 30       0.013099256450
 31      -0.043544986175
 32       0.040008194210
 33       0.000323104175
 34       0.036316340126
 35       0.037880164761
 36       0.023310779283
 37       0.013688501087
 38       0.000215597282
 39       0.036316447916
 40       0.037881272798
 41      -0.023310316641
 42      -0.013688667758
 43       0.000215049756
 44       0.050855472551
 45       0.013099521593
 46       0.043545757173
 47      -0.040009069940
 48       0.000324858191
 49       0.151652603029
 50      -1.262816581617
 51      -0.612139273107
 52      -0.000000288132
 53      -0.000000799013
 54      -0.844539788898
 55      -0.000000301246
 56      -0.000000104735
 57      -0.468819800602
 58      -0.836382795786
 59      -0.000001662957
 60       0.000002806441
 61      -0.107373187746
 62      -0.066424638133
 63      -0.011275951480
 64      -0.081550796898
 65       0.160298147789
 66      -0.008127768037
 67       0.021336417981
 68       0.007844607836
 69       0.041384176129
 70      -0.110072436931
 71      -0.058805389511
 72      -0.237859308045
 73      -0.046466952364
 74       0.141253453048
 75      -0.133800083038
 76      -0.088733070816
 77      -0.011276044285
 78      -0.081550549980
 79       0.160295012008
 80       0.008127895183
 81      -0.021336913382
 82       0.007844220387
 83      -0.041383656255
 84       0.110070534023
 85      -0.058806247103
 86      -0.237858113655
 87       0.046466878408
 88      -0.141255190443
 89      -0.133798401401
 90      -0.088732219616
 91       0.029906972504
 92      -0.101524840522
 93       1.712694129446
 94      -0.000000191105
 95      -0.000000067164
 96      -0.348303048484
 97      -0.000000477612
 98      -0.000000431412
 99      -1.020866376385
100       1.144552305132
101       0.000000748736
102       0.000001414336
103       0.031997770328
104       0.018679651024
 Sym=     1a
 Ene= 3.71974224914069E+00
 Spin= Alpha
 Occup= 0.000000
  1      -0.012996174766
  2       0.030062901615
  3       0.131005333925
  4       0.027613014273
  5      -0.052722164200
  6       0.154333532565
  7       0.022151465725
  8      -0.112972292553
  9       0.205875924352
 10       0.208234993821
 11       0.081115530802
 12      -0.119066397990
 13       0.021311654000
 14      -0.011256780645
 15       0.012996160423
 16      -0.030062597295
 17      -0.131006925534
 18       0.027614596254
 19      -0.052722330222
 20      -0.154333121725
 21       0.022147581846
 22      -0.112972518941
 23      -0.205876824020
 24      -0.208235667458
 25       0.081112069758
 26      -0.119066645206
 27      -0.021311126113
 28       0.011257005295
 29       0.054020140796
 30      -0.001451915979
 31      -0.036619473461
 32       0.005421047753
 33       0.043125494294
 34       0.027492307673
 35      -0.011953134578
 36       0.032054442003
 37       0.011615765472
 38       0.002170736812
 39      -0.027492715636
 40       0.011954591412
 41       0.032056087918
 42       0.011616620657
 43      -0.002169718291
 44      -0.054018909891
 45       0.001451050179
 46      -0.036617479512
 47       0.005420397847
 48      -0.043125110244
 49       0.000000450587
 50      -0.000003846551
 51      -0.000001443092
 52      -0.096316584225
 53       0.352134899409
 54      -0.000001866195
 55      -0.054402121672
 56       0.189168252557
 57      -0.000002167333
 58      -0.000002761200
 59       0.250319155476
 60      -0.915262603934
 61      -0.000000108063
 62      -0.000001024015
 63      -0.024744689605
 64      -0.066128806818
 65      -0.108998124771
 66      -0.026334402826
 67       0.090906749940
 68      -0.066452248871
 69      -0.029008007321
 70       0.306997428604
 71      -0.434009630900
 72       0.347059219117
 73      -0.173128265303
 74       0.434107123950
 75       0.319353534613
 76       0.160481014199
 77       0.024744651143
 78       0.066128514107
 79       0.108998697310
 80      -0.026334031200
 81       0.090906702104
 82       0.066452328043
 83      -0.029007207896
 84       0.306998157886
 85       0.434009900889
 86      -0.347059476278
 87      -0.173129504459
 88       0.434106874946
 89      -0.319354778172
 90      -0.160480589945
 91       0.000000085499
 92      -0.000000393827
 93       0.000005283498
 94      -0.013498253692
 95       0.051031794073
 96      -0.000000904418
 97      -0.053129029910
 98       0.192377349930
 99      -0.000002729964
100       0.000002528771
101       0.174053219651
102      -0.632863275051
103       0.000000058145
104      -0.000000359313
