Generated by Multiwfn
SP        RB3LYP                                              6-31G(d)
Number of atoms                            I               10
Charge                                     I                0
Multiplicity                               I                1
Number of electrons                        I               46
Number of alpha electrons                  I               23
Number of beta electrons                   I               23
Number of basis functions                  I              104
Number of independent functions            I              104
Atomic numbers                             I   N=          10
           6           6           1           1           1           1
           6           8           8           8
Nuclear charges                            R   N=          10
  6.00000000E+00  6.00000000E+00  1.00000000E+00  1.00000000E+00  1.00000000E+00
  1.00000000E+00  6.00000000E+00  8.00000000E+00  8.00000000E+00  8.00000000E+00
Current cartesian coordinates              R   N=          30
  2.86860000E-05 -1.44623500E+00 -2.45840184E+00 -3.99110000E-05  1.44623413E+00
 -2.45840293E+00  1.46175409E+00 -2.28034830E+00 -3.64286402E+00 -1.84174474E+00
 -2.24204259E+00 -2.95005124E+00  1.84174221E+00  2.24203184E+00 -2.95003404E+00
 -1.46175156E+00  2.28035569E+00 -3.64287666E+00  3.15580000E-06  1.00160000E-06
  1.61027294E+00 -5.38074459E-01  2.03948667E+00  1.37011324E-01  5.38077879E-01
 -2.03948406E+00  1.37009774E-01  4.64870000E-06  6.04700000E-07  3.85576837E+00
Translation vectors                        R   N=           0
Number of contracted shells                I               48
Number of primitive shells                 I               92
Highest angular momentum                   I                2
Largest degree of contraction              I                5
Shell types                                I   N=          48
           0           0           0           1           1          -2
           0           0           0           1           1          -2
           0           0           1           0           0           1
           0           0           1           0           0           1
           0           0           0           1           1          -2
           0           0           0           1           1          -2
           0           0           0           1           1          -2
           0           0           0           1           1          -2
Number of primitives per shell             I   N=          48
           5           1           1           3           1           1
           5           1           1           3           1           1
           3           1           1           3           1           1
           3           1           1           3           1           1
           5           1           1           3           1           1
           5           1           1           3           1           1
           5           1           1           3           1           1
           5           1           1           3           1           1
Shell to atom map                          I   N=          48
           1           1           1           1           1           1
           2           2           2           2           2           2
           3           3           3           4           4           4
           5           5           5           6           6           6
           7           7           7           7           7           7
           8           8           8           8           8           8
           9           9           9           9           9           9
          10          10          10          10          10          10
Primitive exponents                        R   N=          92
  1.23840169E+03  1.86290050E+02  4.22511763E+01  1.16765579E+01  3.59305065E+00
  4.02451474E-01  1.30901827E-01  9.46809706E+00  2.01035451E+00  5.47710047E-01
  1.52686138E-01  8.00000000E-01  1.23840169E+03  1.86290050E+02  4.22511763E+01
  1.16765579E+01  3.59305065E+00  4.02451474E-01  1.30901827E-01  9.46809706E+00
  2.01035451E+00  5.47710047E-01  1.52686138E-01  8.00000000E-01  1.30107010E+01
  1.96225720E+00  4.44537960E-01  1.21949620E-01  8.00000000E-01  1.30107010E+01
  1.96225720E+00  4.44537960E-01  1.21949620E-01  8.00000000E-01  1.30107010E+01
  1.96225720E+00  4.44537960E-01  1.21949620E-01  8.00000000E-01  1.30107010E+01
  1.96225720E+00  4.44537960E-01  1.21949620E-01  8.00000000E-01  1.23840169E+03
  1.86290050E+02  4.22511763E+01  1.16765579E+01  3.59305065E+00  4.02451474E-01
  1.30901827E-01  9.46809706E+00  2.01035451E+00  5.47710047E-01  1.52686138E-01
  8.00000000E-01  2.26617678E+03  3.40870102E+02  7.73631352E+01  2.14796449E+01
  6.65894331E+00  8.09759757E-01  2.55307722E-01  1.77215043E+01  3.86355054E+00
  1.04809209E+00  2.76415444E-01  1.20000000E+00  2.26617678E+03  3.40870102E+02
  7.73631352E+01  2.14796449E+01  6.65894331E+00  8.09759757E-01  2.55307722E-01
  1.77215043E+01  3.86355054E+00  1.04809209E+00  2.76415444E-01  1.20000000E+00
  2.26617678E+03  3.40870102E+02  7.73631352E+01  2.14796449E+01  6.65894331E+00
  8.09759757E-01  2.55307722E-01  1.77215043E+01  3.86355054E+00  1.04809209E+00
  2.76415444E-01  1.20000000E+00
Contraction coefficients                   R   N=          92
  5.51736504E-03  4.10888285E-02  1.82253821E-01  4.68284594E-01  4.45758173E-01
  1.00000000E+00  1.00000000E+00  5.68883320E-02  3.12940593E-01  7.60650165E-01
  1.00000000E+00  1.00000000E+00  5.51736504E-03  4.10888285E-02  1.82253821E-01
  4.68284594E-01  4.45758173E-01  1.00000000E+00  1.00000000E+00  5.68883320E-02
  3.12940593E-01  7.60650165E-01  1.00000000E+00  1.00000000E+00  3.34854848E-02
  2.34721871E-01  8.13770285E-01  1.00000000E+00  1.00000000E+00  3.34854848E-02
  2.34721871E-01  8.13770285E-01  1.00000000E+00  1.00000000E+00  3.34854848E-02
  2.34721871E-01  8.13770285E-01  1.00000000E+00  1.00000000E+00  3.34854848E-02
  2.34721871E-01  8.13770285E-01  1.00000000E+00  1.00000000E+00  5.51736504E-03
  4.10888285E-02  1.82253821E-01  4.68284594E-01  4.45758173E-01  1.00000000E+00
  1.00000000E+00  5.68883320E-02  3.12940593E-01  7.60650165E-01  1.00000000E+00
  1.00000000E+00 -5.38935040E-03 -4.02347214E-02 -1.80081842E-01 -4.68288577E-01
 -4.46926172E-01  1.00000000E+00  1.00000000E+00  6.26302488E-02  3.33311385E-01
  7.41486383E-01  1.00000000E+00  1.00000000E+00 -5.38935040E-03 -4.02347214E-02
 -1.80081842E-01 -4.68288577E-01 -4.46926172E-01  1.00000000E+00  1.00000000E+00
  6.26302488E-02  3.33311385E-01  7.41486383E-01  1.00000000E+00  1.00000000E+00
 -5.38935040E-03 -4.02347214E-02 -1.80081842E-01 -4.68288577E-01 -4.46926172E-01
  1.00000000E+00  1.00000000E+00  6.26302488E-02  3.33311385E-01  7.41486383E-01
  1.00000000E+00  1.00000000E+00
Coordinates of each shell                  R   N=         144
  2.86860000E-05 -1.44623500E+00 -2.45840184E+00  2.86860000E-05 -1.44623500E+00
 -2.45840184E+00  2.86860000E-05 -1.44623500E+00 -2.45840184E+00  2.86860000E-05
 -1.44623500E+00 -2.45840184E+00  2.86860000E-05 -1.44623500E+00 -2.45840184E+00
  2.86860000E-05 -1.44623500E+00 -2.45840184E+00 -3.99110000E-05  1.44623413E+00
 -2.45840293E+00 -3.99110000E-05  1.44623413E+00 -2.45840293E+00 -3.99110000E-05
  1.44623413E+00 -2.45840293E+00 -3.99110000E-05  1.44623413E+00 -2.45840293E+00
 -3.99110000E-05  1.44623413E+00 -2.45840293E+00 -3.99110000E-05  1.44623413E+00
 -2.45840293E+00  1.46175409E+00 -2.28034830E+00 -3.64286402E+00  1.46175409E+00
 -2.28034830E+00 -3.64286402E+00  1.46175409E+00 -2.28034830E+00 -3.64286402E+00
 -1.84174474E+00 -2.24204259E+00 -2.95005124E+00 -1.84174474E+00 -2.24204259E+00
 -2.95005124E+00 -1.84174474E+00 -2.24204259E+00 -2.95005124E+00  1.84174221E+00
  2.24203184E+00 -2.95003404E+00  1.84174221E+00  2.24203184E+00 -2.95003404E+00
  1.84174221E+00  2.24203184E+00 -2.95003404E+00 -1.46175156E+00  2.28035569E+00
 -3.64287666E+00 -1.46175156E+00  2.28035569E+00 -3.64287666E+00 -1.46175156E+00
  2.28035569E+00 -3.64287666E+00  3.15580000E-06  1.00160000E-06  1.61027294E+00
  3.15580000E-06  1.00160000E-06  1.61027294E+00  3.15580000E-06  1.00160000E-06
  1.61027294E+00  3.15580000E-06  1.00160000E-06  1.61027294E+00  3.15580000E-06
  1.00160000E-06  1.61027294E+00  3.15580000E-06  1.00160000E-06  1.61027294E+00
 -5.38074459E-01  2.03948667E+00  1.37011324E-01 -5.38074459E-01  2.03948667E+00
  1.37011324E-01 -5.38074459E-01  2.03948667E+00  1.37011324E-01 -5.38074459E-01
  2.03948667E+00  1.37011324E-01 -5.38074459E-01  2.03948667E+00  1.37011324E-01
 -5.38074459E-01  2.03948667E+00  1.37011324E-01  5.38077879E-01 -2.03948406E+00
  1.37009774E-01  5.38077879E-01 -2.03948406E+00  1.37009774E-01  5.38077879E-01
 -2.03948406E+00  1.37009774E-01  5.38077879E-01 -2.03948406E+00  1.37009774E-01
  5.38077879E-01 -2.03948406E+00  1.37009774E-01  5.38077879E-01 -2.03948406E+00
  1.37009774E-01  4.64870000E-06  6.04700000E-07  3.85576837E+00  4.64870000E-06
  6.04700000E-07  3.85576837E+00  4.64870000E-06  6.04700000E-07  3.85576837E+00
  4.64870000E-06  6.04700000E-07  3.85576837E+00  4.64870000E-06  6.04700000E-07
  3.85576837E+00  4.64870000E-06  6.04700000E-07  3.85576837E+00
Virial Ratio                               R      2.000000000000000E+00
Total Energy                               R      0.000000000000000E+00
Alpha Orbital Energies                     R   N=         104
 -1.91894677E+01 -1.91893266E+01 -1.91192430E+01 -1.03569619E+01 -1.02726616E+01
 -1.02725775E+01 -1.14879198E+00 -1.03450577E+00 -1.02921661E+00 -7.84084352E-01
 -6.81136884E-01 -6.06251677E-01 -5.51375277E-01 -5.21612688E-01 -5.10186858E-01
 -4.50399789E-01 -4.44577056E-01 -4.35782276E-01 -3.85856678E-01 -3.79079758E-01
 -3.16805032E-01 -3.11733271E-01 -2.95511954E-01  3.43354302E-02  4.01156136E-02
  6.51280667E-02  7.43948153E-02  9.33705287E-02  1.40343942E-01  1.47601233E-01
  1.80313496E-01  2.20661307E-01  3.19213140E-01  3.66605409E-01  3.85009879E-01
  4.03708818E-01  4.49488106E-01  4.61771418E-01  4.91088397E-01  4.92791602E-01
  5.28411298E-01  5.49732498E-01  5.93287743E-01  6.05769343E-01  6.31303218E-01
  6.40633000E-01  6.42972850E-01  6.61534245E-01  7.86121210E-01  8.35232286E-01
  8.92264023E-01  9.40476797E-01  1.02361822E+00  1.05490534E+00  1.07802805E+00
  1.10308983E+00  1.12449755E+00  1.12956276E+00  1.27772625E+00  1.29091400E+00
  1.41298876E+00  1.42357679E+00  1.52385692E+00  1.53610923E+00  1.56343391E+00
  1.56726203E+00  1.60100714E+00  1.67454631E+00  1.68486545E+00  1.73267831E+00
  1.76098931E+00  1.76506567E+00  1.78888808E+00  1.79934270E+00  1.88710774E+00
  1.90317712E+00  1.94011368E+00  1.98148040E+00  2.01430401E+00  2.03576538E+00
  2.17825159E+00  2.23329293E+00  2.32833284E+00  2.35069897E+00  2.46873228E+00
  2.61436255E+00  2.66050575E+00  2.69575504E+00  2.70920176E+00  2.77114609E+00
  2.79746825E+00  2.82818050E+00  2.90341470E+00  2.95659194E+00  3.00008514E+00
  3.03075899E+00  3.05119255E+00  3.14885457E+00  3.20589061E+00  3.25302798E+00
  3.34813131E+00  3.38539602E+00  3.68430552E+00  3.71974225E+00
Alpha MO coefficients                      R   N=       10816
  2.59258510E-05 -7.44880400E-04  2.09248570E-02  2.97007050E-05  6.67788370E-05
  4.90515935E-04  1.05177912E-03  4.55916121E-03  5.09815149E-03 -4.73712704E-04
 -1.80466223E-04  3.35705258E-04  8.92075110E-05  9.29029460E-05 -2.59195030E-05
  7.45116757E-04 -2.09195001E-02  2.96627530E-05  6.70850570E-05 -4.89932051E-04
  1.05061466E-03  4.56028554E-03 -5.09666161E-03  4.73572089E-04 -1.80254361E-04
  3.35361523E-04 -8.90862530E-05 -9.28277380E-05 -1.10419042E-03 -1.88353590E-03
 -1.04279958E-04 -3.16186478E-04 -4.65844354E-04 -1.10200088E-03 -1.13084448E-03
 -5.71927320E-05 -8.45224190E-05 -3.48950381E-04  1.10157795E-03  1.12971448E-03
 -5.70227240E-05 -8.43818030E-05  3.48764254E-04  1.10336569E-03  1.88251241E-03
 -1.04376276E-04 -3.16130027E-04  4.65719128E-04  4.91320000E-08  4.68501000E-07
  4.31232700E-06  4.62815200E-06 -6.47706710E-04 -2.11872000E-07  3.11895449E-03
 -8.85440912E-03 -3.76927600E-06  3.23800000E-07  3.09980457E-04 -1.35107302E-03
  2.81561000E-07  1.67761000E-07  6.98618802E-01 -3.15404068E-02  2.71605596E-02
 -6.15277880E-04  1.61828655E-03  3.23417110E-04  1.56180056E-03 -3.91402811E-03
 -1.07050983E-03  2.46392617E-04 -6.93224240E-05  1.14102435E-04  2.87790790E-05
 -4.85748490E-05 -6.99205776E-01  3.15657126E-02 -2.71806710E-02 -6.15659713E-04
  1.61943083E-03 -3.23958154E-04  1.56295954E-03 -3.91786048E-03  1.07236737E-03
 -2.46324901E-04 -6.93507990E-05  1.14145871E-04 -2.87324850E-05  4.86087600E-05
  3.94812000E-07 -4.99621000E-07  1.46739000E-06  1.39779656E-04 -1.81065852E-04
  1.65085000E-07 -1.06820604E-03  2.66211483E-03 -2.34086000E-07 -6.56520000E-08
  1.62724702E-04 -5.41745913E-04 -6.59020000E-08 -3.77940000E-08 -4.47636700E-06
 -2.92817655E-04 -6.42523816E-03 -6.96663420E-05  3.71504972E-04 -6.84688099E-04
 -1.15822449E-03  1.38659746E-03 -1.82172340E-03  1.70569598E-04  2.48519450E-04
 -4.17380740E-04 -1.38691562E-04 -5.53236300E-05 -4.49941500E-06 -2.92157569E-04
 -6.44300262E-03  6.96865050E-05 -3.71439447E-04 -6.85104442E-04  1.15903024E-03
 -1.38265676E-03 -1.82601333E-03  1.70961089E-04 -2.48669469E-04  4.17654824E-04
 -1.38770375E-04 -5.54108280E-05  9.58506595E-04  1.15601236E-03 -1.40534824E-04
  1.27154540E-05  2.13577703E-04  5.41618012E-04  1.44351276E-03  1.96809560E-04
  1.59763461E-04  2.01572704E-04  5.42559846E-04  1.44450993E-03 -1.96848955E-04
 -1.59855945E-04  2.01852455E-04  9.59418492E-04  1.15756036E-03  1.40422995E-04
 -1.30160320E-05  2.13940165E-04 -1.52997591E-04 -1.12654909E-03 -1.02659695E-02
  3.92900000E-09 -2.73294000E-07  5.04470300E-04  1.32228200E-06 -3.71655400E-06
  8.91906075E-03 -7.73821505E-04  1.28319000E-07 -5.66541000E-07 -6.69427285E-04
 -4.04627518E-04  6.99375282E-01 -3.01581682E-02  2.39734603E-02 -4.50595877E-04
  1.36455600E-03  6.46577283E-04  1.38880037E-03 -4.56574903E-03 -2.22299649E-03
 -7.93852570E-05 -3.54277360E-05  4.96680890E-05 -5.54698870E-05 -4.04136020E-05
  6.98788452E-01 -3.01316758E-02  2.39506447E-02  4.50087665E-04 -1.36319454E-03
  6.46304876E-04 -1.38750100E-03  4.56244611E-03 -2.22209509E-03 -7.95916760E-05
  3.53680500E-05 -4.95706500E-05 -5.54948550E-05 -4.03716170E-05 -9.02705248E-04
  1.17905438E-03 -3.44975976E-03  5.91620000E-08 -7.58610000E-08 -3.93360264E-04
 -4.50472000E-07  1.11620300E-06  5.49578887E-04  1.55896181E-04  6.82910000E-08
 -2.27354000E-07  1.56807317E-04  8.92526320E-05 -1.00134391E-04  1.61140448E-03
 -2.59003361E-03  1.72787360E-05 -1.38415040E-05  4.48790096E-04  2.04165569E-03
 -9.68307260E-04 -1.96719696E-03  5.32431640E-05  9.86437450E-05 -1.52065966E-04
  2.97754670E-05  2.53854940E-05 -1.00128219E-04  1.61139816E-03 -2.59033473E-03
 -1.72010660E-05  1.38343260E-05  4.48834877E-04 -2.04161774E-03  9.68409211E-04
 -1.96714766E-03  5.32550020E-05 -9.88344080E-05  1.52088492E-04  2.98041150E-05
  2.54110980E-05 -2.85886314E-04 -9.10017647E-04  8.72285530E-05  4.54740620E-05
  7.32546070E-05  4.30815372E-04  8.56177095E-04 -9.96452460E-05  9.65108590E-05
  1.68353669E-04  4.30782408E-04  8.56186957E-04  9.96816910E-05 -9.64739350E-05
  1.68364596E-04 -2.85716078E-04 -9.09975368E-04 -8.71494090E-05 -4.55328530E-05
  7.32979560E-05 -2.43166782E-04 -3.17825338E-03 -7.14521398E-03  2.51500000E-09
 -3.81600000E-09  9.33340996E-04 -3.01270000E-08 -1.24150000E-08 -2.20196706E-02
  2.27212375E-03  4.69500000E-09  2.18100000E-09 -3.78919560E-05 -7.53257890E-05
  8.23679056E-04  9.63410462E-04 -4.71109993E-03  2.82940010E-05 -3.34496846E-04
 -6.50072840E-05 -3.89824573E-04  2.91118308E-03  1.52541072E-03  2.70082960E-04
  4.78891520E-05 -2.33756559E-04  2.30628825E-04  1.22402694E-04  8.23704351E-04
  9.63419048E-04 -4.71112539E-03 -2.82990140E-05  3.34498172E-04 -6.50131230E-05
  3.89846197E-04 -2.91118810E-03  1.52538589E-03  2.70103089E-04 -4.78969650E-05
  2.33745960E-04  2.30624559E-04  1.22407282E-04  9.88473066E-01 -4.41011179E-02
  3.93035997E-02  1.42000000E-10 -1.30600000E-09  3.24695699E-03  1.53200000E-09
  5.47000000E-09 -8.42756882E-03 -5.01998103E-04 -8.90000000E-10  3.05000000E-10
  7.20316900E-06  3.92506800E-06  7.73550740E-05 -7.23186539E-04  2.50652483E-03
  2.40931024E-04 -1.65189677E-04  4.42759745E-04 -4.03314736E-03  2.39285884E-03
  3.35694012E-03  5.50575805E-04 -4.39614590E-05  4.51949677E-04  9.15493530E-05
  1.08410751E-04  7.72952580E-05 -7.23211425E-04  2.50675618E-03 -2.40935754E-04
  1.65190683E-04  4.42759207E-04  4.03318327E-03 -2.39297264E-03  3.35704731E-03
  5.50577974E-04  4.39639790E-05 -4.51948202E-04  9.15484380E-05  1.08407116E-04
  7.58988576E-04  1.95814852E-03 -6.70401170E-05 -2.11463415E-04 -8.38317900E-05
 -9.04774283E-04 -1.03475395E-03  2.11789053E-04 -3.75542844E-04 -2.78201839E-04
 -9.04794757E-04 -1.03476805E-03 -2.11792731E-04  3.75544178E-04 -2.78196373E-04
  7.59003304E-04  1.95818108E-03  6.70397900E-05  2.11461218E-04 -8.38291660E-05
  9.88108878E-01  5.06210843E-02 -4.10288848E-03 -5.64000000E-10 -3.50000000E-11
 -3.18208546E-04  1.04530000E-08 -1.61020000E-08  1.07488304E-02  2.79220669E-03
  5.70300000E-09  3.00000000E-12 -1.83925440E-03 -9.12387965E-04 -5.37875500E-06
  1.35095515E-03 -6.14416480E-03 -4.42056500E-06  4.47747064E-04 -4.52076310E-04
 -2.13017187E-03  4.93117751E-03 -2.75584612E-03 -8.42229620E-05 -2.12242256E-04
  1.24530226E-03  1.01257035E-03  6.36055189E-04 -5.39662900E-06  1.35096055E-03
 -6.14410817E-03  4.41979200E-06 -4.47745693E-04 -4.52075523E-04  2.13016163E-03
 -4.93117234E-03 -2.75588602E-03 -8.42233950E-05  2.12240467E-04 -1.24530482E-03
  1.01257063E-03  6.36052686E-04  3.25719983E-04  1.62864567E-03 -1.74038608E-02
  8.86000000E-10 -6.43000000E-10  1.15621180E-03  4.56600000E-09  2.20600000E-09
  9.09563072E-03 -8.06108977E-04 -4.87000000E-10 -9.70000000E-11  3.91055680E-05
  2.01927250E-05 -6.98830880E-01 -3.53148691E-02  2.17007542E-02  3.12712960E-05
  1.63100238E-03 -6.03788998E-04 -2.56917138E-03  8.61878989E-04  1.46243211E-03
 -5.59664795E-04  2.12015428E-04 -4.04996509E-04 -1.52097749E-03 -6.64795940E-05
 -6.98820061E-01 -3.53143054E-02  2.17003326E-02 -3.12923340E-05 -1.63101018E-03
 -6.03790349E-04  2.56923944E-03 -8.61848048E-04  1.46255315E-03 -5.59682139E-04
 -2.12041264E-04  4.04988015E-04 -1.52097712E-03 -6.64667860E-05  3.11063034E-03
 -4.25834163E-03 -1.48081628E-03  3.27131102E-04  1.00891371E-03  2.01959008E-03
 -6.25320255E-03  1.76407417E-03  1.63640027E-04  1.41743842E-04  2.01951688E-03
 -6.25313513E-03 -1.76404641E-03 -1.63613003E-04  1.41715319E-04  3.11062643E-03
 -4.25821733E-03  1.48078671E-03 -3.27138618E-04  1.00891086E-03  2.29485684E-04
  8.59474835E-04 -8.80064217E-03 -1.49000000E-09  2.56800000E-09  6.71494387E-04
  3.65570000E-08  1.34500000E-09  1.38492325E-02 -6.72765979E-04 -1.36500000E-09
 -3.90800000E-09  3.02277583E-04  9.11179780E-05 -1.61484200E-05 -1.24450996E-03
  6.09960939E-03  2.86773730E-05  2.18824887E-04 -2.76909412E-04  9.79099326E-04
 -3.23166417E-03 -1.67263310E-03  9.02970676E-04 -3.59532947E-04  2.73088319E-04
 -1.29627099E-04 -2.17433466E-04 -1.61486040E-05 -1.24452568E-03  6.09968011E-03
 -2.86744700E-05 -2.18825294E-04 -2.76911962E-04 -9.79138559E-04  3.23168785E-03
 -1.67268801E-03  9.02983272E-04  3.59548318E-04 -2.73091848E-04 -1.29627562E-04
 -2.17438658E-04  1.27085805E-04  1.32582871E-03 -7.40168877E-03  1.63100000E-09
  1.47000000E-09 -4.75278050E-05 -9.30400000E-09 -3.94400000E-09  8.56702413E-04
  1.63293008E-04  1.06100000E-09 -2.12000000E-10 -6.59090800E-06 -2.98590200E-06
  6.98416488E-01  3.64321882E-02 -3.26950763E-02 -4.52630320E-05  5.09749001E-04
  1.41017226E-04  8.70493536E-04 -4.61509495E-03  2.49419861E-03 -5.53484904E-04
 -1.60320828E-04  5.27094578E-04 -3.54491992E-04  1.60044290E-05 -6.98427314E-01
 -3.64327352E-02  3.26954097E-02 -4.52823040E-05  5.09721965E-04 -1.41029401E-04
  8.70531365E-04 -4.61511100E-03 -2.49416545E-03  5.53469002E-04 -1.60351203E-04
  5.27103936E-04  3.54472917E-04 -1.59920550E-05 -2.50534109E-03  5.55782817E-03
  1.35098024E-03 -8.09181770E-04 -1.23904620E-03 -2.24876444E-03  6.03117888E-03
 -1.68150669E-03 -6.83775525E-04 -5.41866635E-04  2.24879058E-03 -6.03126752E-03
 -1.68153373E-03 -6.83773313E-04  5.41850738E-04  2.50539695E-03 -5.55790364E-03
  1.35099623E-03 -8.09192196E-04  1.23907889E-03 -4.04710000E-08  8.67000000E-10
 -4.22650000E-08 -3.51443000E-07 -2.84155829E-04  6.59000000E-09 -6.92056063E-04
  1.01117845E-04  1.00320000E-07 -5.44100000E-09 -4.59590900E-06  3.91294862E-04
  1.05100000E-09  9.23000000E-10  4.13674030E-05 -6.07188047E-04  1.31925711E-03
 -3.41035040E-05  6.37953980E-05 -2.25331628E-04  9.52003525E-04 -1.59273660E-03
 -2.62862740E-03  9.35944388E-04 -3.54799280E-04  4.50258856E-04 -2.44529661E-04
 -2.08980552E-04 -4.13668830E-05  6.07169124E-04 -1.31918525E-03 -3.41030560E-05
  6.37916780E-05  2.25327708E-04  9.51991945E-04 -1.59269047E-03  2.62859804E-03
 -9.35929652E-04 -3.54802268E-04  4.50251956E-04  2.44525304E-04  2.08978802E-04
  1.64400000E-09  1.54180000E-08 -6.64500000E-08 -9.97243300E-06 -1.23831485E-04
 -8.80000000E-10  1.68829739E-04  2.36727989E-04  9.96800000E-09  1.05000000E-09
 -1.87054070E-05  3.19840490E-05 -7.70000000E-11  8.00000000E-11 -5.63007344E-02
  1.03647626E-01  4.27636382E-03  8.36451158E-03  1.12154224E-02  6.14360674E-02
 -3.16733703E-03  6.89839169E-03  8.23047120E-03  1.01111113E-02  2.83251357E-03
  1.99368394E-04 -2.81318863E-03 -5.17835645E-04 -5.63006855E-02  1.03647491E-01
  4.27668943E-03 -8.36405802E-03 -1.12153679E-02  6.14360752E-02  3.16734698E-03
 -6.89848140E-03  8.23069418E-03  1.01111510E-02 -2.83254673E-03 -1.99354828E-04
 -2.81316737E-03 -5.17843682E-04  1.41821057E-02  6.50443523E-03 -2.27156462E-03
  1.23202090E-03  2.21853463E-03  1.47833139E-02  2.54844960E-03  3.32675660E-03
  1.41455173E-03  8.29441819E-04  1.47834529E-02  2.54842142E-03 -3.32678345E-03
 -1.41452016E-03  8.29402263E-04  1.41820262E-02  6.50447629E-03  2.27157653E-03
 -1.23207898E-03  2.21854981E-03 -1.48411820E-01  2.93531523E-01  1.70181879E-02
 -4.96620000E-08 -9.98540000E-08 -4.83705049E-02  7.22000000E-09 -3.94890000E-08
  8.12418217E-03  1.56672251E-02  4.06630000E-08  2.38530000E-08 -1.24500097E-02
 -6.82017057E-03  1.60175124E-01  3.16235068E-01  1.88945893E-01  2.90632430E-02
 -8.63903771E-02 -7.05887345E-03  1.12408738E-02 -3.46498805E-02 -1.03193696E-02
  1.90653584E-03 -4.99857403E-04 -2.03304099E-03 -6.04548280E-03 -4.07461054E-03
  1.60175362E-01  3.16235516E-01  1.88946346E-01 -2.90634879E-02  8.63903946E-02
 -7.05878699E-03 -1.12409882E-02  3.46499034E-02 -1.03194490E-02  1.90655211E-03
  4.99922963E-04  2.03306142E-03 -6.04546285E-03 -4.07463203E-03  7.66737050E-02
  1.50912231E-01  5.76881751E-02 -4.27690000E-08 -3.39500000E-09 -6.38490584E-02
  5.31000000E-10  7.03100000E-09 -6.53709576E-03  6.06639763E-03  6.70700000E-09
  4.55000000E-10  5.30770792E-04  2.46412350E-04  5.41545032E-02 -1.06419559E-01
  2.06202282E-02 -1.62885513E-02  2.77349900E-02 -7.16941970E-02 -1.50866025E-03
  8.02355991E-03 -6.39057551E-03 -1.35834765E-02 -4.32294502E-03  4.10484474E-03
 -1.11481010E-03  4.83690887E-04 -5.41539892E-02  1.06418560E-01 -2.06202578E-02
 -1.62879643E-02  2.77352055E-02  7.16938043E-02 -1.50891761E-03  8.02361630E-03
  6.39047326E-03  1.35834461E-02 -4.32280290E-03  4.10489484E-03  1.11481520E-03
 -4.83632551E-04 -1.96753995E-02 -7.55657207E-03  2.39018215E-03 -1.29282028E-03
 -2.58323226E-03 -1.85951411E-02 -6.64499744E-03 -3.24973811E-03 -9.83868415E-04
 -1.03307723E-03  1.85952455E-02  6.64504792E-03 -3.24972404E-03 -9.83843358E-04
  1.03301815E-03  1.96750033E-02  7.55641052E-03  2.39010544E-03 -1.29275696E-03
  2.58325951E-03 -7.66276000E-07  1.58191200E-06  2.17355000E-07 -4.10365724E-02
  1.63276655E-01  1.75751600E-06 -4.25187699E-03  1.69216282E-02  2.07688000E-07
  1.43158000E-07  6.26133415E-03 -2.61391939E-02  1.80670000E-08 -2.31500000E-08
  1.99729703E-01  4.03009881E-01  2.52860832E-01  2.66815498E-02 -6.36701313E-02
 -2.18695834E-02  1.12722974E-02 -2.54455484E-02 -1.97040991E-02  4.76123749E-03
 -1.23652039E-03 -1.14556388E-03 -2.91301534E-03 -2.52136088E-03 -1.99730388E-01
 -4.03011280E-01 -2.52861687E-01  2.66819407E-02 -6.36702690E-02  2.18701014E-02
  1.12724415E-02 -2.54455690E-02  1.97042831E-02 -4.76123202E-03 -1.23658782E-03
 -1.14553923E-03  2.91301558E-03  2.52138020E-03  1.65275500E-06  3.29247900E-06
  1.50958000E-06 -4.80357336E-03  1.91026448E-02 -1.14012800E-06 -1.14322004E-03
  4.18895041E-03 -1.43010000E-07  1.13017000E-07  8.65577047E-04 -3.61000750E-03
  1.10550000E-08 -3.80500000E-09  4.22166397E-02 -8.24156886E-02 -4.61281279E-03
 -5.79368511E-03 -8.94035628E-03 -3.84046432E-02 -1.45762650E-03 -3.80567021E-03
 -2.93459939E-03 -5.67023964E-03 -1.97805607E-03  3.80827975E-04  2.03408871E-03
  4.29850307E-04  4.22173789E-02 -8.24171588E-02 -4.61249440E-03  5.79368358E-03
  8.93995682E-03 -3.84055688E-02  1.45769838E-03  3.80555654E-03 -2.93439493E-03
 -5.67032401E-03  1.97764283E-03 -3.80874482E-04  2.03419419E-03  4.29829429E-04
 -1.28082031E-02 -2.72059994E-03  1.69081740E-03 -1.03055775E-03 -1.61933722E-03
 -1.41732893E-02 -2.79740244E-03 -2.37181579E-03 -1.15654124E-03 -7.71738180E-04
 -1.41737761E-02 -2.79747382E-03  2.37193226E-03  1.15663463E-03 -7.71691504E-04
 -1.28081348E-02 -2.72062343E-03 -1.69070932E-03  1.03050827E-03 -1.61931284E-03
 -1.02232713E-01  2.13689066E-01  2.96543970E-02  4.95605000E-07 -1.13959300E-06
  2.61694502E-01  4.52340000E-08 -1.93605000E-07  3.93996331E-02  2.29358532E-02
 -1.56570000E-08  1.63359000E-07  3.15882106E-03  1.54852811E-03 -6.39386219E-02
 -1.29130882E-01 -7.87937921E-02 -1.10183101E-02  2.61953792E-02  4.57329290E-02
 -4.29704471E-03  8.98631627E-03  1.69804557E-02 -5.49117930E-04  1.49330791E-03
 -3.16132912E-03  1.55180990E-03  1.18480312E-03 -6.39359581E-02 -1.29125552E-01
 -7.87902086E-02  1.10181301E-02 -2.61945063E-02  4.57326372E-02  4.29699392E-03
 -8.98593798E-03  1.69800034E-02 -5.49013237E-04 -1.49331727E-03  3.16131942E-03
  1.55175066E-03  1.18478440E-03  2.41681404E-01  4.82816358E-01  2.12191731E-01
 -6.64060000E-08 -9.84360000E-08 -1.66970712E-01  1.02060000E-08 -8.33700000E-09
 -1.74709551E-02  1.42638493E-02  5.71200000E-09  1.69510000E-08  1.23095429E-03
  5.55576920E-04  1.72548942E-01 -3.52255996E-01 -7.97091948E-02 -2.33713114E-03
 -6.55803385E-02  2.04568405E-02  3.71290960E-05 -2.80558309E-02  8.29924078E-03
  4.31683660E-03 -1.06266875E-03  2.45000092E-03  7.41067446E-03  5.54850188E-04
  1.72548879E-01 -3.52255865E-01 -7.97093473E-02  2.33643481E-03  6.55803804E-02
  2.04566728E-02 -3.70586510E-05  2.80558502E-02  8.29928036E-03  4.31678268E-03
  1.06270797E-03 -2.45001029E-03  7.41067526E-03  5.54864241E-04 -1.09030160E-01
 -1.80921194E-02  9.95131882E-03 -6.19260832E-03 -6.79068478E-03 -1.03832526E-01
 -1.76564009E-02 -1.16553823E-02 -5.80330213E-03 -2.18514009E-03 -1.03832722E-01
 -1.76563385E-02  1.16554092E-02  5.80328598E-03 -2.18503571E-03 -1.09029883E-01
 -1.80920627E-02 -9.95122590E-03  6.19262662E-03 -6.79078377E-03 -7.30410535E-02
  1.63132666E-01  3.26350468E-02 -2.97690000E-08 -1.24454000E-07 -1.37849913E-01
 -2.44990000E-08 -3.22850000E-08 -2.93093406E-02 -1.04254554E-02 -1.34440000E-08
  2.44150000E-08 -1.22923453E-02 -7.29544976E-03  4.64914107E-02  1.02141705E-01
  5.19654078E-02  5.94162117E-03 -5.45366028E-02  1.35318991E-01 -4.46792153E-04
 -1.78809863E-02  6.30189402E-02 -6.28174422E-03  3.12492673E-03 -8.00895996E-03
 -2.88432014E-03 -1.41705944E-03  4.64914428E-02  1.02141816E-01  5.19653267E-02
 -5.94130573E-03  5.45368012E-02  1.35319310E-01  4.46967228E-04  1.78809948E-02
  6.30191105E-02 -6.28179939E-03 -3.12498072E-03  8.00895928E-03 -2.88435332E-03
 -1.41702797E-03 -6.00017946E-02 -1.22366780E-01 -7.39767779E-02  2.11750000E-08
 -3.08340000E-08  8.58755483E-03 -7.95700000E-09  7.29400000E-09 -2.22999396E-03
  1.95201347E-04 -1.04300000E-09  3.49400000E-09 -2.85559388E-04 -1.40161718E-04
  1.37543616E-01 -2.96383067E-01  5.07582409E-03 -8.10032247E-03  1.08979520E-01
 -1.77323423E-02  2.76003567E-03  4.69384789E-02  5.20854716E-03 -7.60494452E-03
 -1.69914400E-03  3.91343374E-03 -5.49720189E-03  1.41253417E-03 -1.37543795E-01
  2.96383441E-01 -5.07578041E-03 -8.09936900E-03  1.08979409E-01  1.77323430E-02
  2.75929217E-03  4.69384176E-02 -5.20876421E-03  7.60493231E-03 -1.69901388E-03
  3.91340939E-03  5.49716693E-03 -1.41245134E-03 -1.30008352E-01 -3.49600227E-02
  9.56626144E-03 -3.69194457E-03 -7.20697904E-03 -1.23139250E-01 -2.96397040E-02
 -1.15846372E-02 -2.88900204E-03 -2.59434742E-03  1.23139514E-01  2.96400766E-02
 -1.15846732E-02 -2.88892793E-03  2.59423619E-03  1.30008379E-01  3.49597370E-02
  9.56624190E-03 -3.69201886E-03  7.20708273E-03 -5.95300000E-09 -2.76910000E-08
 -3.03110000E-08  7.69505207E-02 -2.31203766E-01 -1.34410000E-07  1.52473596E-02
 -2.61002315E-02 -8.37590000E-08  3.77080000E-08 -6.02337693E-03  1.54416054E-02
  8.62600000E-09  6.78500000E-09 -3.06157306E-02 -6.99793733E-02 -2.68741098E-02
  1.20179240E-02  7.81000351E-02 -2.25072497E-01  9.94085042E-03  2.96114120E-02
 -1.14978658E-01  6.31746629E-03 -4.23748894E-03  7.44255497E-03  3.42809839E-03
  2.16950453E-04  3.06155463E-02  6.99789587E-02  2.68738841E-02  1.20185731E-02
  7.81002450E-02  2.25072494E-01  9.94108331E-03  2.96115944E-02  1.14978626E-01
 -6.31740131E-03 -4.23749978E-03  7.44254038E-03 -3.42808143E-03 -2.16960802E-04
  7.27300000E-09  1.05830000E-08  9.71580000E-08  2.19419308E-02 -6.39097859E-02
 -1.13540000E-08  8.42910958E-03 -3.01766881E-02 -3.28910000E-08  5.59200000E-09
 -2.30752415E-03  6.46539685E-03  2.87600000E-09  2.38200000E-09  3.85365026E-02
 -7.95434223E-02 -2.09429518E-02  4.12565262E-02 -1.62794366E-01  1.32814809E-01
  1.87226813E-02 -5.74744662E-02  4.23749560E-02  1.15783113E-02  6.50268914E-03
 -1.23397329E-02  3.85964245E-03 -3.79422135E-03  3.85362648E-02 -7.95428826E-02
 -2.09432816E-02 -4.12546476E-02  1.62794734E-01  1.32814705E-01 -1.87221696E-02
  5.74748332E-02  4.23748775E-02  1.15783186E-02 -6.50275211E-03  1.23397372E-02
  3.85961632E-03 -3.79414006E-03 -2.77266990E-02 -7.08518804E-03  2.10778908E-03
 -3.60850359E-03  8.73548809E-04 -3.98949206E-02 -5.11987885E-03 -2.27328275E-03
 -3.73002402E-03  1.45341341E-03 -3.98935927E-02 -5.11947672E-03  2.27328672E-03
  3.72998798E-03  1.45350826E-03 -2.77273060E-02 -7.08538467E-03 -2.10773051E-03
  3.60844481E-03  8.73484156E-04  1.30223994E-01 -2.97646721E-01 -5.73362581E-02
  1.49057000E-07  2.74340000E-08  1.64213878E-01  8.32940000E-08 -4.16200000E-08
  7.19689465E-02  2.08036885E-04 -1.53510000E-08 -1.10110000E-08  8.59591094E-03
  6.06809928E-03  8.43709758E-02  1.79835077E-01  1.64873830E-01 -3.37111588E-02
  2.06028786E-01 -1.89025113E-01 -1.79939561E-02  1.03476044E-01 -8.56709481E-02
  1.02375367E-02 -2.61654884E-03  3.45291524E-03  8.21998199E-03  4.65254678E-03
  8.43710304E-02  1.79835249E-01  1.64873742E-01  3.37106986E-02 -2.06028971E-01
 -1.89025280E-01  1.79939027E-02 -1.03476177E-01 -8.56710264E-02  1.02374963E-02
  2.61659243E-03 -3.45293127E-03  8.21998529E-03  4.65257180E-03  5.87445821E-02
  1.26078622E-01  6.64744496E-02  3.37820000E-08 -7.63000000E-09  4.65754666E-02
 -7.20000000E-11  7.64700000E-09  3.25401029E-02 -3.28670570E-03 -7.00600000E-09
 -4.40000000E-11 -7.72731120E-05 -4.70016180E-05 -2.71451028E-02  5.58898385E-02
  3.49381420E-02 -2.53157089E-01 -2.51446972E-02 -3.64637716E-02 -1.07360058E-01
  1.98825950E-03 -4.74626043E-03 -4.06841114E-03 -6.02780153E-03  2.29983869E-03
  2.20929633E-03 -1.13682858E-03  2.71446097E-02 -5.58889061E-02 -3.49369917E-02
 -2.53156827E-01 -2.51425760E-02  3.64629145E-02 -1.07359730E-01  1.98907542E-03
  4.74599351E-03  4.06859575E-03 -6.02792405E-03  2.29990652E-03 -2.20946638E-03
  1.13685014E-03 -6.66842808E-02 -3.63437177E-03 -2.18027632E-03 -3.89459108E-03
 -3.23130439E-03  1.84552974E-01  3.70142220E-02  7.43351556E-03  5.61468811E-03
  2.69367333E-03 -1.84552418E-01 -3.70143221E-02  7.43343909E-03  5.61470214E-03
 -2.69359960E-03  6.66841853E-02  3.63442004E-03 -2.18023978E-03 -3.89456786E-03
  3.23134680E-03  2.10490000E-07 -3.64749000E-07 -1.29210000E-08 -1.21902625E-01
 -1.52273522E-01  5.82170000E-07 -5.88291724E-02 -3.76411442E-02  5.54403000E-07
 -1.32854000E-07  7.07666837E-03  5.64644405E-03 -2.23600000E-08 -1.23680000E-08
  1.70707964E-02  3.59084320E-02  3.75892019E-02 -1.89306985E-01 -2.78841646E-03
 -1.12918130E-01 -1.11262614E-01 -8.55259375E-03 -5.70560489E-02  2.95223015E-03
  3.18930238E-03  4.66740845E-03 -5.17572128E-03  8.98147035E-03 -1.70699397E-02
 -3.59066052E-02 -3.75872176E-02 -1.89306137E-01 -2.79060535E-03  1.12919397E-01
 -1.11262165E-01 -8.55393243E-03  5.70567145E-02 -2.95222167E-03  3.18923050E-03
  4.66751641E-03  5.17581820E-03 -8.98138147E-03 -8.62450000E-08 -1.01323000E-07
 -6.07178000E-07 -5.64895866E-02 -6.68530775E-02 -8.23460000E-08 -2.30823198E-02
 -3.33585156E-02  7.10160000E-08  1.07110000E-08  5.28868198E-03  5.58650732E-03
  7.32000000E-10 -1.98100000E-09  4.48945819E-03 -5.92326730E-05 -1.54896921E-02
 -8.26411053E-03  1.68339168E-01  2.20487503E-01 -1.06080809E-02  6.16044653E-02
  7.84068561E-02  1.14691398E-02  4.98296288E-03  8.64957105E-03 -6.83245079E-03
  1.51886875E-03  4.48998182E-03 -6.03141880E-05 -1.54902452E-02  8.26405278E-03
 -1.68339530E-01  2.20489023E-01  1.06081257E-02 -6.16043737E-02  7.84074037E-02
  1.14691775E-02 -4.98323698E-03 -8.64941272E-03 -6.83239737E-03  1.51894788E-03
 -1.47102281E-01 -3.85935682E-02  7.85015186E-03 -1.74642501E-03 -2.55386977E-03
 -8.53016705E-02 -3.10203593E-02 -6.27197720E-03  5.60351496E-04  2.23881797E-03
 -8.53011211E-02 -3.10206746E-02  6.27203187E-03 -5.60435183E-04  2.23884298E-03
 -1.47104576E-01 -3.85940315E-02 -7.85023817E-03  1.74655479E-03 -2.55392526E-03
  3.81117798E-02 -1.03654264E-01 -7.09056450E-02 -1.51121300E-06 -1.41859300E-06
 -7.60530191E-02 -7.09028000E-07 -4.49814000E-07 -1.77596068E-02  2.63388582E-02
  8.91960000E-08  2.49710000E-08  1.23039110E-02  7.88704266E-03 -4.67600506E-02
 -1.00351350E-01 -9.27830273E-02  4.97723801E-02 -1.53948728E-01 -1.87767946E-01
  3.16739901E-02 -1.09190505E-01 -9.60650605E-02 -3.65914589E-03 -3.84409610E-03
  1.35045358E-02 -6.39365364E-03 -4.64915582E-03 -4.67603637E-02 -1.00352006E-01
 -9.27838007E-02 -4.97763252E-02  1.53948843E-01 -1.87766087E-01 -3.16763286E-02
  1.09190420E-01 -9.60641431E-02 -3.65922671E-03  3.84408404E-03 -1.35044764E-02
 -6.39357213E-03 -4.64938471E-03  6.82274980E-02  1.35661137E-01  1.77860999E-01
 -7.13180000E-07 -7.29638000E-07  1.20101881E-01 -3.52414000E-07 -3.49505000E-07
  5.07533161E-02 -7.74779619E-03  6.15330000E-08  5.61140000E-08  9.85973138E-04
  5.29638053E-04  6.35303139E-02 -1.41921996E-01  2.55725324E-02 -4.85671356E-02
  5.77230129E-02  2.14867555E-01 -2.35735174E-02  4.40931763E-02  9.21521775E-02
  1.31590943E-02  6.00047781E-03 -1.47825860E-02 -6.39088750E-03 -1.34944873E-03
 -6.35304527E-02  1.41922334E-01 -2.55721933E-02 -4.85701767E-02  5.77217705E-02
 -2.14867139E-01 -2.35747471E-02  4.40927236E-02 -9.21521032E-02 -1.31589243E-02
  6.00036469E-03 -1.47827042E-02  6.39076663E-03  1.34917542E-03 -2.03715670E-01
 -6.10530969E-02  9.59092655E-03 -4.93289527E-03 -4.46371235E-03 -9.44257471E-02
 -3.43770761E-02 -7.94610529E-03 -9.87363082E-04  2.26976733E-03  9.44218029E-02
  3.43759474E-02 -7.94595412E-03 -9.87228617E-04 -2.26990110E-03  2.03717639E-01
  6.10535399E-02  9.59084504E-03 -4.93305689E-03  4.46384573E-03  6.23200000E-08
 -1.31982000E-07 -2.89010000E-07 -1.74935865E-01  1.83895306E-01 -1.33550000E-08
 -6.53245265E-02  5.34144244E-02  2.33365000E-07  6.32860000E-08  3.79500721E-03
  2.86289195E-04  3.62680000E-08  1.44780000E-08 -3.45480115E-02 -7.79125194E-02
 -6.24757571E-02 -1.00893378E-01 -8.81122699E-02  2.05897790E-01 -6.00101593E-02
 -4.69987507E-02  9.05464690E-02 -3.14169173E-04  3.79345917E-03 -7.98497136E-03
 -4.70106542E-03  4.55465230E-03  3.45478650E-02  7.79121784E-02  6.24757331E-02
 -1.00893692E-01 -8.81115983E-02 -2.05898221E-01 -6.00101631E-02 -4.69981035E-02
 -9.05466824E-02  3.14163371E-04  3.79350380E-03 -7.98498287E-03  4.70106591E-03
 -4.55466733E-03  1.23530000E-07  2.75241000E-07  1.97632000E-07 -9.53931559E-02
  9.89627404E-02  3.18671000E-07 -4.84998115E-02  5.07363081E-02  1.68982000E-07
 -3.75340000E-08  7.50646209E-03 -6.67863575E-03  2.75400000E-09 -7.41000000E-10
  3.17854486E-03 -9.15021167E-03  8.60483930E-03  2.59831332E-01  1.17211532E-01
 -6.10167799E-02  8.45644694E-02  5.04102393E-02 -1.42889384E-02 -1.42370589E-03
  2.45729603E-03  2.60076305E-03 -3.66578305E-03 -1.54180308E-02  3.17885966E-03
 -9.15138494E-03  8.60956717E-03 -2.59833183E-01 -1.17211165E-01 -6.10153200E-02
 -8.45651659E-02 -5.04115396E-02 -1.42865125E-02 -1.42334348E-03 -2.45750277E-03
 -2.60067221E-03 -3.66614211E-03 -1.54180472E-02  1.38526169E-01  6.03099105E-02
  8.78254439E-04  5.85937324E-03  4.78291901E-03 -2.19238831E-01 -8.68926519E-02
 -6.17622707E-03 -2.45593721E-03 -6.09600956E-03 -2.19241615E-01 -8.68937535E-02
  6.17636620E-03  2.45589183E-03 -6.09597814E-03  1.38524865E-01  6.03093186E-02
 -8.78361472E-04 -5.85942467E-03  4.78287894E-03  1.84921036E-02 -3.58188699E-02
 -1.74807758E-02  2.45461900E-06 -5.53265000E-07 -2.36458367E-02  1.09907400E-06
 -2.51022000E-07  4.20881808E-02 -1.57454273E-03  1.83850000E-08  2.35480000E-08
  6.48600573E-03 -1.43159498E-02  1.61917228E-02  3.35426477E-02  4.91650717E-02
 -2.37101798E-01 -3.89910460E-02  6.04409517E-03 -1.63178568E-01 -2.89619316E-02
  7.88083423E-04  1.62028003E-03  7.41529575E-03  2.06040386E-03 -5.51868121E-03
  6.61691578E-03  1.61911352E-02  3.35412173E-02  4.91650425E-02  2.37103755E-01
  3.89934734E-02  6.04483919E-03  1.63179649E-01  2.89634047E-02  7.87671397E-04
  1.62034101E-03 -7.41518753E-03 -2.06037619E-03 -5.51884070E-03  6.61698137E-03
  1.74716542E-02  3.91067791E-02  1.53148709E-02  1.89946100E-06 -2.92665000E-07
  6.01392213E-02  1.06269100E-06 -1.13891000E-07  3.73744184E-02 -3.13029100E-03
 -1.30923000E-07  1.77050000E-08  2.56278972E-04 -5.51505468E-04 -1.44988349E-03
  1.31862390E-03  1.74443358E-02  1.92391307E-01 -6.13784183E-03 -4.70837895E-02
  7.27942470E-02  9.13943986E-03 -2.26941978E-03  2.13652020E-03 -1.22737784E-02
  2.35938742E-03 -2.01443693E-03  1.46896997E-03  1.44969018E-03 -1.31784521E-03
 -1.74441403E-02  1.92387338E-01 -6.14072833E-03  4.70851419E-02  7.27922240E-02
  9.13892227E-03  2.26933526E-03 -2.13660937E-03 -1.22738964E-02  2.35954494E-03
  2.01445237E-03 -1.46927175E-03  1.45789228E-01  5.84442209E-02 -2.22672892E-03
  5.03531251E-03  2.93380053E-03 -1.29724123E-01 -4.34094821E-02 -2.52446940E-03
 -5.48104977E-03 -2.59626183E-03  1.29720888E-01  4.34081650E-02 -2.52444359E-03
 -5.48100702E-03  2.59614675E-03 -1.45787755E-01 -5.84441508E-02 -2.22667721E-03
  5.03517932E-03 -2.93374206E-03 -1.71756400E-06  4.16550500E-06  5.24360000E-08
 -3.18029411E-01 -1.42748302E-01  6.79660100E-06 -1.61828131E-01 -5.72622659E-02
 -5.92273000E-07  1.37685000E-07 -6.07234250E-03 -2.89909068E-03  1.23865000E-07
 -3.73170000E-08  1.16331014E-02  2.28474386E-02  4.23873528E-02 -1.72575170E-01
 -2.90176422E-02 -4.15434414E-02 -1.07499682E-01 -2.05956281E-02 -2.82513482E-02
 -4.99884408E-04 -6.79448160E-03  7.28386095E-04 -4.68491095E-03  9.30914342E-03
 -1.16335238E-02 -2.28483261E-02 -4.23890079E-02 -1.72571517E-01 -2.90197229E-02
  4.15424456E-02 -1.07497156E-01 -2.05970189E-02  2.82514350E-02  5.00150227E-04
 -6.79461939E-03  7.28386972E-04  4.68497033E-03 -9.30897479E-03 -2.86649400E-06
 -5.94543600E-06 -6.58449300E-06 -2.55308377E-01 -1.11685300E-01 -1.02122280E-05
 -1.39138550E-01 -6.31163657E-02 -5.46742800E-06  4.68940000E-07  1.71393229E-02
  7.31638444E-03 -3.43400000E-09 -1.09470000E-08 -1.03846003E-02  3.55542376E-02
  6.37437678E-03  3.88761044E-02  6.60883724E-02  1.02690414E-01  2.79205851E-02
  1.57247716E-02  3.24031662E-02  2.75436665E-03  3.78537499E-03 -1.96678976E-03
 -3.65302786E-03 -2.44575078E-03 -1.03846229E-02  3.55543144E-02  6.37402219E-03
 -3.88843031E-02 -6.60880211E-02  1.02688691E-01 -2.79240603E-02 -1.57245957E-02
  3.24026715E-02  2.75449508E-03 -3.78455107E-03  1.96675311E-03 -3.65312892E-03
 -2.44563994E-03 -4.05974674E-02 -2.31607581E-02  3.10831981E-03  3.72987399E-04
  7.90022187E-04 -5.93938178E-02 -2.04565539E-02 -3.13587382E-03  6.23499824E-04
  1.70922428E-03 -5.93985984E-02 -2.04581091E-02  3.13588136E-03 -6.23369004E-04
  1.70913702E-03 -4.05924297E-02 -2.31587679E-02 -3.10835963E-03 -3.73073325E-04
  7.90041822E-04 -7.07863218E-02  1.70526938E-01 -2.28624617E-02  7.10282500E-06
  2.74886800E-06  3.15569522E-01  3.50606200E-06  1.24241600E-06 -3.54587754E-02
  1.53815315E-02  2.03569000E-07  7.36720000E-08  9.60665195E-03  4.10971568E-03
 -1.47518935E-02 -3.17726866E-02 -4.61412425E-02 -2.38782646E-02  2.64519474E-02
 -1.10833775E-01 -1.57628982E-02  1.47756801E-02 -4.88134630E-02  5.18740110E-03
 -5.31373469E-04  3.78232248E-03  1.17597714E-03  1.38736969E-03 -1.47514933E-02
 -3.17718539E-02 -4.61400536E-02  2.38842777E-02 -2.64506489E-02 -1.10835251E-01
  1.57667078E-02 -1.47748645E-02 -4.88143179E-02  5.18733930E-03  5.31711271E-04
 -3.78233576E-03  1.17578939E-03  1.38770772E-03 -1.22917927E-01 -2.55371446E-01
 -2.79988224E-01  5.48945600E-06  2.42804100E-06 -4.88508184E-01  3.03345600E-06
  1.37947800E-06 -2.65222041E-01  2.20938694E-02 -3.55519000E-07 -1.55573000E-07
 -4.78698312E-04 -2.37882581E-04 -1.31238550E-02  3.43427972E-02  6.50043738E-02
 -1.16607131E-01  3.27982288E-01 -2.22104836E-02 -1.81127763E-02  1.21065983E-01
  3.52253522E-03 -1.40730446E-02  2.65080067E-03 -6.20666447E-03 -1.11858899E-02
  6.34847925E-03 -1.31246482E-02  3.43449760E-02  6.50024059E-02  1.16606022E-01
 -3.27982907E-01 -2.22088856E-02  1.81124086E-02 -1.21065943E-01  3.52127211E-03
 -1.40729903E-02 -2.65093633E-03  6.20647932E-03 -1.11857072E-02  6.34859537E-03
 -1.83964586E-01 -9.58374215E-02  5.40890765E-03  3.83180454E-03 -6.71320476E-03
  3.33182300E-03  7.05159930E-03 -4.28356660E-03  7.81054374E-03  5.57179142E-04
  3.33331995E-03  7.05246648E-03  4.28343156E-03 -7.81054261E-03  5.57330757E-04
 -1.83964773E-01 -9.58379219E-02 -5.40883198E-03 -3.83181320E-03 -6.71326581E-03
  6.31896818E-02 -1.59827767E-01 -2.11392187E-02 -3.45385000E-07  1.68911200E-06
  9.19500950E-02  1.93714000E-07 -9.39280000E-08  7.89426405E-02 -1.76240279E-02
  2.65800000E-08 -1.38941000E-07 -7.19423637E-03 -5.44134364E-03  5.43864490E-02
  1.12979135E-01  1.37347666E-01 -6.92467978E-02  2.06317459E-01  1.49419643E-01
 -4.26363910E-02  1.40021813E-01  1.08161633E-01  7.72445845E-04  3.86570160E-05
  3.00242549E-04  5.87737137E-03  4.27683837E-03  5.43875615E-02  1.12981618E-01
  1.37348883E-01  6.92488083E-02 -2.06324170E-01  1.49420976E-01  4.26379308E-02
 -1.40026380E-01  1.08162908E-01  7.72449234E-04 -3.86960220E-05 -3.00168020E-04
  5.87749952E-03  4.27695758E-03  3.29424193E-03  1.21764836E-02 -3.78562507E-02
 -1.18811000E-07  9.71115000E-07  3.68199052E-02 -1.35279000E-07  6.71544000E-07
  3.29081755E-02 -1.50795604E-03  1.18190000E-08 -7.63200000E-08 -9.43300617E-04
 -5.61293195E-04  3.60123035E-02 -9.13282717E-02 -4.61578482E-02 -2.87708632E-02
 -2.76473622E-02 -1.19073350E-01 -8.42799630E-03 -5.93496175E-02  2.49391235E-04
 -1.52371123E-02 -2.28357650E-03 -4.74325383E-03 -3.02153089E-03 -3.72956106E-03
 -3.60120183E-02  9.13275884E-02  4.61563695E-02 -2.87721420E-02 -2.76416104E-02
  1.19073964E-01 -8.42888872E-03 -5.93476290E-02 -2.49314877E-04  1.52373065E-02
 -2.28356162E-03 -4.74345273E-03  3.02177097E-03  3.72940719E-03  9.07520339E-03
  1.72748065E-02 -1.09795451E-03 -9.42928186E-04 -2.60639359E-03  1.19479498E-02
  1.31056687E-02 -4.63473290E-05  4.84939423E-04 -3.26472681E-03 -1.19468715E-02
 -1.31051777E-02 -4.64850720E-05  4.85039738E-04  3.26468073E-03 -9.07310549E-03
 -1.72733733E-02 -1.09793906E-03 -9.42809503E-04  2.60647576E-03 -5.25112000E-07
  1.32086400E-06  2.21947000E-07 -6.19140098E-02  1.46799488E-01 -6.75073000E-07
  5.60062875E-03 -5.71594243E-02 -8.14364000E-07  1.55940000E-07  4.00370940E-03
 -2.55151983E-02  1.51980000E-07 -1.20093000E-07 -5.08151634E-02 -1.06257683E-01
 -7.86243909E-02  1.10681587E-01 -4.04810512E-01 -1.36497103E-01  7.89248034E-02
 -2.74317808E-01 -8.39200557E-02 -3.19962734E-03 -3.07827798E-03  8.21753035E-03
 -9.23892580E-03 -6.75280479E-03  5.08142422E-02  1.06255757E-01  7.86220475E-02
  1.10685025E-01 -4.04805827E-01  1.36493921E-01  7.89272807E-02 -2.74314561E-01
  8.39177587E-02  3.19964633E-03 -3.07836206E-03  8.21747769E-03  9.23869638E-03
  6.75290260E-03 -2.33810000E-08 -9.63740000E-08  3.87086000E-07 -4.04709969E-02
  3.70399178E-02 -3.29792000E-07 -2.93659409E-02  3.43821020E-02 -2.71205000E-07
 -1.85470000E-08  3.10376411E-03 -5.48072006E-03  7.44000000E-09  4.23200000E-09
  8.82528563E-03 -2.65348572E-02 -2.26778365E-02 -1.55865585E-01 -9.54407247E-02
  2.06692313E-02 -1.24940780E-02 -3.20661186E-02  2.25903587E-02 -5.06683162E-03
  1.66060858E-02  5.11554656E-03  1.01749653E-02  8.91492446E-03  8.82531325E-03
 -2.65350245E-02 -2.26781004E-02  1.55861259E-01  9.54420704E-02  2.06707706E-02
  1.24944566E-02  3.20683584E-02  2.25928958E-02 -5.06666618E-03 -1.66051928E-02
 -5.11504360E-03  1.01747335E-02  8.91480886E-03 -1.17177712E-01 -6.55453253E-02
 -1.21216889E-03 -5.63469733E-03 -1.97751191E-03  2.01798015E-01  1.38191356E-01
  4.24279049E-03  2.82236807E-03  7.38378642E-04  2.01792672E-01  1.38187538E-01
 -4.24286038E-03 -2.82215123E-03  7.38287301E-04 -1.17173179E-01 -6.55417817E-02
  1.21236524E-03  5.63456444E-03 -1.97749239E-03 -2.55027835E-03  8.95503283E-04
  1.44738579E-02 -4.30755900E-06  1.84719000E-07  3.17817651E-03 -2.70559300E-06
  2.71931400E-06 -3.70118791E-02  3.41667730E-03 -1.73952500E-06  7.82097000E-07
  1.85749746E-02 -2.68448865E-02 -3.28658845E-03 -4.40436974E-03 -3.65625446E-02
 -3.81444648E-01 -1.21538278E-01 -4.24253049E-02 -2.86399187E-01 -8.66053918E-02
 -2.40149171E-02 -3.31999919E-04 -1.15096290E-03  3.20637793E-04 -6.39174846E-03
  1.03601744E-02 -3.28528729E-03 -4.40192772E-03 -3.65548370E-02  3.81459134E-01
  1.21550961E-01 -4.24270575E-02  2.86410086E-01  8.66152041E-02 -2.40163936E-02
 -3.32233725E-04  1.15076163E-03 -3.20918456E-04 -6.39221492E-03  1.03604534E-02
 -1.58542031E-04 -2.14843774E-03  1.87145947E-02 -1.60177910E-05  5.93374100E-06
 -1.59734886E-02 -1.10590890E-05  3.59873400E-06 -1.35289004E-02  6.80188928E-04
  6.71925000E-07 -2.00571000E-07  8.69806050E-04 -1.03256168E-03 -3.19352804E-03
  1.07545197E-02 -3.96627492E-02 -7.43299920E-02  1.57176301E-02 -2.64838128E-02
  3.23599920E-04 -1.86985020E-03 -6.12459990E-02 -4.93825966E-03  1.29290192E-02
  5.17424908E-03  4.77514693E-03 -8.66580558E-04  3.19298599E-03 -1.07526679E-02
  3.96632238E-02 -7.43407101E-02  1.57101927E-02  2.64826640E-02  3.22621235E-04
 -1.87300568E-03  6.12450658E-02  4.93862983E-03  1.29300356E-02  5.17459279E-03
 -4.77587313E-03  8.65955179E-04 -5.60391544E-02 -5.34248704E-02  4.14071046E-04
 -2.52539148E-03 -1.02768006E-04  9.39928467E-02  5.96700343E-02  1.42072232E-03
  4.25388911E-03 -9.61195590E-05 -9.40069846E-02 -5.96790673E-02  1.42109512E-03
  4.25409226E-03  9.61958130E-05  5.60463461E-02  5.34294360E-02  4.13888917E-04
 -2.52576425E-03  1.02944627E-04  1.80828000E-07 -2.40057000E-07 -7.47241000E-07
 -1.16281721E-01 -2.63139319E-03  4.24110000E-07 -6.23416980E-02  3.11032085E-02
  1.12220000E-06  5.00580000E-08 -5.08321119E-02  5.98022028E-03 -6.25982000E-07
  9.40849000E-07 -1.16474173E-02 -1.83585074E-02 -8.79284863E-02  2.66890866E-01
  1.22876949E-01 -1.02069595E-02  1.99760969E-01  9.77250877E-02  6.77506341E-03
  1.66008019E-03 -3.31769096E-03 -2.23674313E-03  5.57421057E-03 -6.36503423E-03
  1.16478865E-02  1.83593373E-02  8.79315234E-02  2.66865257E-01  1.22868905E-01
  1.02076028E-02  1.99741544E-01  9.77191154E-02 -6.77492213E-03 -1.66003497E-03
 -3.31775858E-03 -2.23680507E-03 -5.57383160E-03  6.36431174E-03  1.29310000E-08
  8.49670000E-08 -5.44392000E-07 -4.73937487E-01  5.78643861E-02  3.19113000E-07
 -3.31872919E-01  3.32435754E-02  3.57098000E-07 -2.66910000E-08  1.96873646E-02
 -1.88472217E-03 -1.62930000E-08  3.15640000E-08 -6.12148591E-03  2.30348230E-02
 -4.69092080E-02 -1.77573106E-02 -1.26656488E-02  8.29985657E-02  3.64095761E-03
 -3.34262921E-02  2.27346012E-02  1.09581665E-03  8.68118680E-03 -6.64469815E-03
  2.45649350E-05 -1.39992836E-03  6.12159646E-03 -2.30350343E-02  4.69084342E-02
 -1.77547015E-02 -1.26652276E-02 -8.29980941E-02  3.64155264E-03 -3.34265050E-02
 -2.27339949E-02 -1.09596678E-03  8.68093355E-03 -6.64495954E-03 -2.43694560E-05
  1.40011777E-03 -6.52537248E-02 -4.56329798E-02  2.39620470E-03 -1.97111979E-03
  1.81037596E-03  1.51367654E-02  1.10593068E-02 -6.63199928E-04  1.12666305E-03
  2.07150159E-03 -1.51343921E-02 -1.10571301E-02 -6.63126634E-04  1.12665543E-03
 -2.07144781E-03  6.52516226E-02  4.56319225E-02  2.39612670E-03 -1.97102324E-03
 -1.81040998E-03  7.19260000E-08 -2.05235000E-07  5.97760000E-08 -6.54001294E-03
 -4.75433044E-02  2.44655000E-07  3.63418139E-02 -1.62802132E-01 -2.66147000E-07
  3.91510000E-08  3.70848190E-04 -5.88765547E-02  1.30879000E-07 -2.25349000E-07
  2.54771902E-02  5.06626191E-02  1.33837837E-01  1.14428910E-01 -6.89798392E-02
  1.38245399E-01  9.08229777E-02 -5.98354649E-02  1.10420670E-01 -5.86054302E-03
  4.78875971E-04 -2.24045924E-03  3.07193016E-04 -3.57754707E-03 -2.54770910E-02
 -5.06624174E-02 -1.33837792E-01  1.14433772E-01 -6.89783867E-02 -1.38246650E-01
  9.08267123E-02 -5.98344575E-02 -1.10421581E-01  5.86054826E-03  4.78958446E-04
 -2.24050592E-03 -3.07288497E-04  3.57768489E-03  8.11000000E-09  1.83140000E-08
  7.30010000E-08  1.83687320E-02 -5.90116169E-01 -3.82353000E-07  2.94259478E-03
 -3.86672867E-01 -2.29511000E-07  9.85700000E-09 -3.15655076E-04  2.13031849E-02
  9.42200000E-09  5.46700000E-09  6.27456118E-03 -3.18404722E-02  1.53435292E-01
  5.76772257E-02  6.19016416E-02 -4.05220517E-02  1.41172084E-01  2.51116620E-01
 -3.50941212E-02 -2.15090221E-03  1.25276358E-02  5.94504660E-03  6.94032812E-03
  1.79837109E-04 -6.27485020E-03  3.18403292E-02 -1.53411276E-01  5.76800830E-02
  6.19030038E-02  4.05112877E-02  1.41180476E-01  2.51121347E-01  3.50699845E-02
  2.15171339E-03  1.25273398E-02  5.94566267E-03 -6.94058845E-03 -1.79644197E-04
 -2.42451465E-02 -1.30267269E-01 -6.92236205E-04 -1.47380579E-03  2.11337414E-03
  5.08855437E-02  3.28616132E-01 -2.36587378E-03  1.38761906E-03 -4.67344580E-03
 -5.08867531E-02 -3.28642927E-01 -2.36616987E-03  1.38774259E-03  4.67302866E-03
  2.42416742E-02  1.30241559E-01 -6.91863796E-04 -1.47396595E-03 -2.11366864E-03
  3.98357000E-07  3.08290000E-08 -1.18795770E-05 -5.83683343E-01 -1.26154949E-01
  7.03219000E-07 -5.15227314E-01 -1.31776191E-01 -1.94328000E-06  3.48896000E-07
  2.21575400E-02  6.80868250E-03  5.22000000E-09 -2.24470000E-08 -8.19917586E-03
 -1.73245109E-02 -3.01675583E-02  2.10315611E-01  5.66277293E-02  2.27584595E-02
  2.01826523E-01  4.28206296E-02  2.82061354E-02  7.73844345E-04 -1.47102200E-02
 -5.95192635E-03 -4.50125454E-03  8.75166958E-03  8.20210755E-03  1.73302408E-02
  3.01899937E-02  2.10314543E-01  5.66312150E-02 -2.27655773E-02  2.01824301E-01
  4.28268376E-02 -2.82142628E-02 -7.73786523E-04 -1.47101565E-02 -5.95190150E-03
  4.50093420E-03 -8.75184652E-03  5.51367000E-07  8.20729000E-07  6.32996100E-06
  3.72164678E-01  7.91598690E-02 -1.69045500E-06  3.99115439E-01  8.98545580E-02
 -2.98825300E-06  9.03100000E-08  8.07905004E-03  1.70909767E-03  8.19000000E-09
 -6.82000000E-10  5.78684983E-02 -1.14666163E-01 -1.12869909E+00  4.47484923E-02
  9.63190968E-02  1.93341899E-01  1.46848793E-01  3.05754203E-01  4.75183236E-01
 -1.04133214E-02 -5.56235808E-03  1.16462998E-02  8.12345134E-03 -1.62541673E-03
  5.78684699E-02 -1.14664789E-01 -1.12871582E+00 -4.47533633E-02 -9.63158088E-02
  1.93343196E-01 -1.46862809E-01 -3.05739107E-01  4.75179460E-01 -1.04133780E-02
  5.56255129E-03 -1.16460604E-02  8.12317129E-03 -1.62491227E-03  6.86048013E-02
  9.18020801E-01  9.53768567E-03 -1.75239655E-03  3.42097944E-03  3.66193322E-02
  9.00740390E-01 -7.70066116E-03  2.92062168E-03  6.03122112E-03  3.66209843E-02
  9.00748508E-01  7.70057968E-03 -2.92054209E-03  6.03143221E-03  6.86024085E-02
  9.18008299E-01 -9.53774685E-03  1.75237624E-03  3.42098791E-03  2.64975316E-03
 -5.26383252E-02  4.31076840E-01 -1.28408690E-05 -2.57851700E-06  1.12700355E-02
 -1.08806390E-05 -2.74534400E-06  2.89630722E-03 -4.67996064E-03  4.88608000E-07
  1.87807000E-07 -7.45404961E-04  3.57197571E-03 -3.50879415E-02 -6.98697484E-02
 -2.87991183E-01  6.16190042E-03  5.55822743E-02  6.74144943E-02 -1.16223910E-02
  1.31441650E-01  5.48395457E-02 -2.62093852E-03  1.89620540E-03  3.83087636E-03
  5.15797787E-03  1.75817727E-03 -3.50874481E-02 -6.98684982E-02 -2.87991102E-01
 -6.15163724E-03 -5.55793799E-02  6.74131180E-02  1.16333307E-02 -1.31439570E-01
  5.48381921E-02 -2.62102496E-03 -1.89675744E-03 -3.83112758E-03  5.15821832E-03
  1.75768484E-03 -1.20876697E-02 -1.31237814E-02 -1.70251886E-01  7.82826900E-06
  1.46849300E-06  2.36024405E-02  8.47496000E-06  1.75767700E-06  7.00442710E-02
 -3.29343308E-03  1.86482000E-07  3.94900000E-08  2.27280635E-04  3.99187809E-04
 -9.23176522E-02  2.03143344E-01  1.04201511E+00  5.20080078E-02 -8.32493476E-02
  1.72713371E-01  1.67889422E-01 -3.15359439E-01  4.79619611E-01 -2.56244501E-02
 -8.57460980E-03  1.61738775E-02 -3.07338051E-03 -3.29290140E-03 -9.23166501E-02
  2.03144481E-01  1.04195398E+00 -5.20356945E-02  8.32553227E-02  1.72713145E-01
 -1.67955602E-01  3.15392874E-01  4.79604285E-01 -2.56249876E-02  8.57395443E-03
 -1.61735690E-02 -3.07378013E-03 -3.29045434E-03  6.35617444E-02 -4.75291719E-01
  2.65907658E-03 -9.30208259E-03  1.14130397E-02  1.10330655E-02 -3.94988349E-01
  1.12169035E-03 -2.16843373E-03  1.11877227E-02  1.10427805E-02 -3.94881688E-01
 -1.12162971E-03  2.16892498E-03  1.11875391E-02  6.35516303E-02 -4.75381753E-01
 -2.65904582E-03  9.30194405E-03  1.14136970E-02 -3.75626140E-02  8.66643067E-02
  3.22113983E-01 -1.29959750E-05 -1.01494200E-06 -3.66543693E-02 -9.35035800E-06
 -1.61468000E-07  3.15352917E-01 -2.42517617E-02  5.01476000E-07  3.12879000E-07
 -1.73955560E-04 -3.51219382E-03 -7.70144777E-02 -1.42207566E-01 -6.50189086E-01
 -4.86445158E-02  7.56044532E-02  2.11208909E-01 -7.14201205E-02  8.41400114E-02
  3.33698789E-01  5.75674919E-03  6.00831517E-04 -4.69352178E-03  2.65759568E-03
  2.88324178E-03 -7.70130267E-02 -1.42203755E-01 -6.50188224E-01  4.86607918E-02
 -7.55997262E-02  2.11205389E-01  7.14414395E-02 -8.41364683E-02  3.33696322E-01
  5.75643905E-03 -6.00769642E-04  4.69327047E-03  2.65796116E-03  2.88246993E-03
 -3.28094284E-02 -5.65381011E-02 -3.61117494E-01  6.90897200E-06  9.41630000E-08
  8.98858711E-02  7.48048600E-06  1.08156000E-07  1.48797338E-01 -4.44792830E-03
  2.29954000E-07  3.33680000E-08 -8.38330054E-04 -7.66481192E-04 -1.12652110E-02
 -1.60271147E-03  5.43835769E-01 -2.72266382E-01  4.49037978E-02  6.55957477E-03
 -6.90348283E-01  2.61044763E-01  1.44112300E-01  5.35001358E-03 -6.68886409E-03
  2.38089569E-03  2.57269684E-03 -2.15755656E-02  1.12737947E-02  1.58393040E-03
 -5.43924084E-01 -2.72259667E-01  4.48993611E-02 -6.58422858E-03 -6.90326614E-01
  2.61021164E-01 -1.44184646E-01 -5.34716111E-03 -6.68990845E-03  2.38304380E-03
 -2.57233227E-03  2.15759629E-02  8.32516241E-02  8.99316963E-01  2.05196736E-03
 -2.09752052E-03 -4.59331245E-03 -8.10813025E-02 -1.11546316E+00  2.31709489E-03
  5.89144269E-03 -3.08052694E-04  8.10791664E-02  1.11548567E+00  2.31704961E-03
  5.89121776E-03  3.06883455E-04 -8.32606025E-02 -8.99289812E-01  2.05238869E-03
 -2.09859560E-03  4.59215219E-03  1.71107700E-06 -3.78039300E-06 -1.78238390E-05
 -1.49765142E-01  2.19796083E-03  1.36724800E-06 -8.70384695E-02  1.99081249E-02
 -1.98085740E-05  1.27491900E-06  6.98648906E-03  4.42414586E-03  1.15609000E-07
  2.37827000E-07 -1.24949652E-02 -3.26396553E-02 -1.27358509E-02  9.16680348E-02
  2.81684515E-02  2.64157912E-02  1.29123816E-01  1.91271828E-02  1.70357029E-02
  2.85796348E-03  2.44576670E-03 -1.48354661E-03 -2.87367982E-03  6.37038919E-03
  1.25036483E-02  3.26553411E-02  1.28134092E-02  9.16627827E-02  2.81776201E-02
 -2.64411733E-02  1.29115846E-01  1.91393454E-02 -1.70769038E-02 -2.85863669E-03
  2.44580524E-03 -1.48381405E-03  2.87340684E-03 -6.37069879E-03  1.87246800E-06
  3.10941800E-06  2.18278320E-05  6.97361623E-02 -1.00910367E-02 -4.90212700E-06
  7.34017598E-02 -1.12972381E-02 -8.72122800E-06  2.76411000E-07  2.97743367E-03
  2.31112670E-04  6.25720000E-08  4.82020000E-08 -1.04002584E-01  1.64840749E-01
  2.38226716E+00  1.15674345E-02 -2.94241361E-02 -1.41714543E-01  1.62752054E-02
  1.87214347E-01 -4.54567255E-01  2.49425282E-03  2.96276638E-03  2.05959972E-03
  4.23082721E-03 -2.32334567E-04  1.04002542E-01 -1.64840933E-01 -2.38226619E+00
  1.15693230E-02 -2.94243024E-02  1.41715284E-01  1.62791827E-02  1.87214061E-01
  4.54568869E-01 -2.49431452E-03  2.96273623E-03  2.05948383E-03 -4.23083858E-03
  2.32415759E-04 -4.00748355E-02 -1.31688379E+00 -4.53829983E-03  4.12005558E-03
  3.12134287E-03 -3.17410694E-02 -1.02789793E+00  3.91677927E-03  4.79444484E-03
 -3.15860862E-03  3.17413141E-02  1.02788666E+00  3.91674482E-03  4.79443389E-03
  3.15865855E-03  4.00752193E-02  1.31689510E+00 -4.53828463E-03  4.12015647E-03
 -3.12136020E-03  7.08390000E-08 -6.43340000E-08  6.30360000E-08 -5.28692993E-02
 -6.76467068E-03  1.86448000E-07 -1.56704357E-02  3.47245762E-02  1.80454900E-06
  5.34900000E-09  1.85013226E-03 -3.42505268E-03  5.67350000E-08 -2.66290000E-08
 -4.28035236E-03 -1.68819369E-02  3.60571152E-02  6.80486096E-04 -4.02265440E-02
 -2.66546823E-02 -4.31082965E-03 -2.91718140E-02 -5.24515061E-02 -4.22281622E-03
 -1.04674452E-03 -6.82119849E-04 -6.96145489E-04  3.63710578E-04  4.28023090E-03
  1.68815877E-02 -3.60572594E-02  6.81651638E-04 -4.02266841E-02  2.66550262E-02
 -4.30862246E-03 -2.91716898E-02  5.24517405E-02  4.22279195E-03 -1.04664395E-03
 -6.82149357E-04  6.96146617E-04 -3.63659214E-04 -3.75390000E-08  4.07040000E-08
 -1.39945200E-06  1.84173838E-02  1.01841709E-02  1.25780000E-08  1.83258870E-02
 -3.33379488E-03  3.46533000E-07 -2.15570000E-08  1.17087279E-03  2.35779484E-04
  4.17600000E-09 -3.64700000E-09  1.15411585E-02 -3.94373377E-02 -5.19490184E-02
  2.74166788E-01 -9.37245400E-06 -1.17599023E-01  1.04953219E+00  1.18505344E-02
 -2.53340687E-01  2.11567200E-03  3.81121691E-03 -1.35985545E-02  2.52347671E-03
 -6.31095362E-03  1.15386279E-02 -3.94288638E-02 -5.19911105E-02 -2.74166533E-01
  3.48365940E-05 -1.17573408E-01 -1.04953274E+00 -1.17624887E-02 -2.53277558E-01
  2.11338509E-03 -3.81084697E-03  1.35994805E-02  2.52245143E-03 -6.31057005E-03
 -4.88679388E-02 -1.32882836E+00 -7.08171846E-04  6.83346172E-03  1.56837804E-03
  2.05419768E-02  1.29188383E+00 -2.64048079E-03  1.47249645E-03  1.92938151E-03
  2.05439403E-02  1.29186063E+00  2.64034837E-03 -1.47133031E-03  1.93114572E-03
 -4.88735942E-02 -1.32882115E+00  7.07492067E-04 -6.83302850E-03  1.57005686E-03
 -3.65469219E-02  4.66513979E-02  7.10487747E-01  7.65285000E-07  1.36554180E-05
 -5.61198901E-02  1.22440800E-06  1.15465550E-05 -1.91745104E-01 -4.70873859E-03
 -1.16613000E-07  3.31758000E-07  6.04276361E-03  8.94275210E-03 -1.10860246E-02
 -6.43175916E-03 -2.25918214E-01  2.77340369E-02  3.55528776E-02 -8.46934458E-02
  8.50727871E-02  1.14513284E-01 -1.13710000E-01 -7.01750633E-04  7.10970669E-03
 -1.88220555E-03  1.99990665E-03  2.86440313E-03 -1.10779662E-02 -6.41564028E-03
 -2.25855158E-01 -2.77446125E-02 -3.55536508E-02 -8.47062710E-02 -8.50863823E-02
 -1.14513487E-01 -1.13731393E-01 -7.02683561E-04 -7.10961298E-03  1.88086709E-03
  1.99968314E-03  2.86432054E-03 -1.59674291E-02 -3.04354254E-02 -1.24612171E-01
 -2.62089000E-07 -7.37072800E-06  3.34802880E-02 -5.15410000E-07 -7.78944100E-06
  7.38559613E-02 -2.64939740E-03 -2.12490000E-08 -3.18083000E-07  1.44522084E-03
  1.71205402E-03  1.94317778E-02 -4.62743871E-02  1.60920977E-01 -6.96881691E-03
  2.94085917E-01 -2.36275778E-01 -1.80385132E-02  9.30951056E-01 -6.78497716E-01
  2.28339321E-02  2.80022432E-04  9.58248315E-03  1.32862507E-02 -3.78305310E-03
 -1.94331132E-02  4.62788455E-02 -1.60914442E-01 -6.94370875E-03  2.94086301E-01
  2.36288712E-01 -1.79375563E-02  9.30952560E-01  6.78525728E-01 -2.28343608E-02
  2.80198635E-04  9.58096803E-03 -1.32863574E-02  3.78372895E-03  6.74932038E-02
  1.24993308E-01 -3.93966937E-03  7.03826947E-03 -1.54221055E-02 -1.02660265E-02
  3.76949901E-01 -2.73862678E-03  1.33757327E-02 -1.26183190E-02  1.02665301E-02
 -3.77074230E-01 -2.73886015E-03  1.33758167E-02  1.26176589E-02 -6.74894958E-02
 -1.24862966E-01 -3.93989155E-03  7.03913692E-03  1.54222181E-02  2.18569500E-06
 -2.32441900E-06 -4.71483100E-05  4.39770553E-02  2.99254893E-01  3.44001700E-06
  4.39526660E-02  2.14347145E-01  1.22893270E-05  2.16185000E-07 -1.69180937E-03
  7.09408606E-03 -5.73690000E-07 -4.71494000E-07 -7.72574264E-02 -1.47189940E-01
 -6.78990936E-01 -9.75315989E-02 -4.19776528E-03  1.18330755E-01 -1.35018175E-01
  2.18481344E-03  2.36953923E-01  1.07913500E-02  2.03235959E-03 -1.45167680E-02
  8.06993776E-04  7.15937759E-04  7.72589884E-02  1.47191448E-01  6.79018996E-01
 -9.75310766E-02 -4.19296588E-03 -1.18319352E-01 -1.35013840E-01  2.19910249E-03
 -2.36937247E-01 -1.07911121E-02  2.03290577E-03 -1.45169590E-02 -8.07233740E-04
 -7.16378603E-04  1.01322900E-06  1.84648700E-06  8.57661200E-06 -1.61484931E-02
 -1.52339095E-01 -1.99797000E-06 -2.30875018E-02 -1.55316660E-01 -4.82482100E-06
  1.85193000E-07 -9.86741582E-04 -7.32482484E-03 -1.12971000E-07 -1.03029000E-07
 -2.05319879E-02  9.56208205E-02  2.71753420E-02  1.14316929E-01 -1.47630990E-02
  1.06723682E-01  3.91791357E-01 -7.40479445E-03  2.23233408E-01 -8.12643955E-03
 -2.99848580E-03  2.11602476E-02  5.15208398E-03 -3.11549188E-04 -2.05322354E-02
  9.56211605E-02  2.71825252E-02 -1.14319542E-01  1.47577350E-02  1.06722903E-01
 -3.91793422E-01  7.38611708E-03  2.23230415E-01 -8.12617580E-03  2.99853215E-03
 -2.11603702E-02  5.15249935E-03 -3.11466271E-04  7.35917854E-02 -2.98283939E-01
  4.79512962E-03 -3.42257755E-03  1.04333810E-03  7.81709625E-02  5.18808103E-01
 -4.41208366E-03 -5.83894155E-03 -1.25137677E-03  7.81717045E-02  5.18822870E-01
  4.41225478E-03  5.83872774E-03 -1.25149488E-03  7.35928081E-02 -2.98279654E-01
 -4.79530061E-03  3.42240980E-03  1.04336615E-03  1.22767401E-01 -1.99211197E-01
 -2.34824444E+00 -9.21316000E-07 -2.17122200E-06  1.88890974E-01 -7.45460000E-08
 -3.55422000E-07  3.53526853E-01  6.48375265E-03  3.44540000E-08 -2.04480000E-08
 -3.92305491E-02 -2.17832194E-02  5.85859112E-02  1.08613790E-01  6.24721331E-01
  4.58860532E-02 -1.77039880E-01  2.36160982E-01  1.13935027E-01 -3.78214272E-01
  4.20591079E-01  8.89921127E-03  4.79702195E-04  4.70424336E-03 -4.62932647E-03
 -2.72158365E-03  5.85855037E-02  1.08613028E-01  6.24718004E-01 -4.58843044E-02
  1.77040228E-01  2.36161131E-01 -1.13932311E-01  3.78215143E-01  4.20592393E-01
  8.89935665E-03 -4.79645333E-04 -4.70399193E-03 -4.62935759E-03 -2.72165413E-03
  5.98211774E-02  1.09047775E-01  6.03907855E-01  2.87180000E-07  7.05095000E-07
 -1.06181926E-01  1.50874000E-07  6.44616000E-07 -2.87152170E-01  1.19036753E-02
  4.62370000E-08  5.66800000E-08 -6.35109679E-03 -3.45883544E-03 -9.65688071E-02
  1.46060747E-01  2.68533387E+00  5.63660015E-02  2.67229618E-01  1.89715563E-01
  1.40637118E-01  1.76429623E+00  1.00396507E+00 -1.05891258E-03 -1.19764498E-02
 -3.47862233E-03  3.01048913E-02  1.02558519E-02  9.65687710E-02 -1.46060115E-01
 -2.68533506E+00  5.63647352E-02  2.67229054E-01 -1.89715614E-01  1.40620970E-01
  1.76429545E+00 -1.00396733E+00  1.05906331E-03 -1.19763465E-02 -3.47884410E-03
 -3.01049845E-02 -1.02558649E-02  6.94686219E-02  1.81067018E-01  1.65136004E-02
  1.87255159E-02  5.29448257E-03  1.33601476E-01  1.66005862E-01 -1.16489076E-02
  1.23290769E-03  1.27364751E-02 -1.33604484E-01 -1.65975573E-01 -1.16486173E-02
  1.23284146E-03 -1.27361355E-02 -6.94645858E-02 -1.81094477E-01  1.65139823E-02
  1.87255616E-02 -5.29485992E-03  5.94304000E-07 -1.81321000E-06 -5.35778800E-06
  9.66259142E-02  5.73117271E-02  9.50744000E-07  1.45259198E-01 -2.08541460E-01
  1.13158700E-06  1.52250000E-08  4.69298319E-03 -1.61525033E-03 -6.91750000E-08
 -1.11119000E-07  4.62814105E-02  5.83760930E-02  8.43908293E-01  1.33890100E-02
 -7.08430554E-02 -1.27616642E-01  4.87137132E-02 -1.94198063E-01 -2.87519194E-01
 -2.94254348E-03  2.58703311E-03 -9.82177857E-03 -8.89894819E-03 -1.38919913E-03
 -4.62808874E-02 -5.83748749E-02 -8.43905132E-01  1.33900403E-02 -7.08413924E-02
  1.27617567E-01  4.87149814E-02 -1.94194670E-01  2.87521425E-01  2.94258047E-03
  2.58705753E-03 -9.82187410E-03  8.89895749E-03  1.38921680E-03  1.50267000E-07
  3.44486000E-07  1.03398200E-06 -5.72534820E-02  4.68986161E-02 -2.81844000E-07
 -6.82892815E-02  6.29152328E-02 -5.97621000E-07  2.17120000E-08 -3.04111933E-03
 -8.25274495E-04 -1.66620000E-08 -1.09310000E-08  2.28695006E-02 -1.07368287E-01
  3.57991066E-01 -4.51291792E-02  1.47880200E-01 -1.37279839E-01  2.50494947E-01
 -3.27587594E-01  1.22584959E-01 -1.53008849E-02 -1.55465324E-03 -8.61732884E-03
 -1.20886859E-02 -4.16794565E-03  2.28700086E-02 -1.07369835E-01  3.57983637E-01
  4.51290468E-02 -1.47880340E-01 -1.37280748E-01 -2.50492275E-01  3.27593682E-01
  1.22582653E-01 -1.53009453E-02  1.55422543E-03  8.61724412E-03 -1.20886306E-02
 -4.16767583E-03 -4.47762109E-02 -1.90618468E-01  3.97525941E-03 -6.68559467E-03
 -2.62313824E-03 -2.98212515E-03 -1.23050493E-02 -6.03442880E-03  6.17872133E-03
  1.39645197E-03 -2.98040400E-03 -1.23090063E-02  6.03473500E-03 -6.17879240E-03
  1.39609677E-03 -4.47770344E-02 -1.90616152E-01 -3.97515225E-03  6.68564916E-03
 -2.62305179E-03 -1.42404752E-01  6.66170911E-01 -1.37081198E+00  4.32008000E-07
  5.50422000E-07 -3.67800388E-01 -2.19466500E-06  8.57230000E-08 -1.96458714E+00
  1.16740899E-02 -1.03450000E-08 -2.70220000E-08  2.72277983E-02  1.83888895E-02
 -3.05545488E-02 -5.27087444E-02 -5.32706615E-01 -4.29772962E-02  1.96224741E-01
 -3.22897863E-02 -6.76446643E-02  3.06486672E-01  1.42936138E-01 -2.27208885E-02
  8.54883174E-03 -2.00647223E-02 -1.42292886E-02 -6.85233450E-03 -3.05546480E-02
 -5.27088390E-02 -5.32708851E-01  4.29774285E-02 -1.96224896E-01 -3.22892653E-02
  6.76453874E-02 -3.06487185E-01  1.42937064E-01 -2.27208018E-02 -8.54888137E-03
  2.00646808E-02 -1.42293255E-02 -6.85223077E-03  8.53928071E-02  1.00993718E-01
  1.81782540E+00 -1.13820000E-08  2.33220000E-08 -1.94508686E-03 -2.19716000E-07
  9.29130000E-08 -5.24119802E-01  2.21851448E-02  1.33400000E-09 -2.08310000E-08
  9.06899320E-04  7.16471130E-04 -2.25323320E-02  1.54911787E-01 -7.53693666E-01
  2.13365355E-02  7.81557597E-02  2.85469550E-02 -2.30556532E-01  1.43820826E-01
 -6.78501450E-01  1.43068643E-02  3.93501562E-03 -9.09999863E-03 -2.55062895E-03
 -2.99331091E-02  2.25331563E-02 -1.54918636E-01  7.53698795E-01  2.13373170E-02
  7.81606203E-02 -2.85488853E-02 -2.30553846E-01  1.43812927E-01  6.78504864E-01
 -1.43067973E-02  3.93506875E-03 -9.09939145E-03  2.55173932E-03  2.99330234E-02
  3.00256095E-02  1.24815538E-01 -7.28193630E-03 -8.19409039E-03  1.60819293E-03
 -2.03084632E-01  1.49717689E-01  3.57477931E-03  2.40651610E-02 -3.24395211E-03
  2.03088231E-01 -1.49725257E-01  3.57487475E-03  2.40646541E-02  3.24371411E-03
 -3.00252288E-02 -1.24811366E-01 -7.28218530E-03 -8.19419612E-03 -1.60749600E-03
 -2.06560000E-08  1.10757900E-06 -9.63227000E-07  2.21707726E-01 -6.09463163E-01
 -5.79336000E-07  2.93817874E-01 -1.48365914E+00  4.09770000E-07  4.78410000E-08
  1.36260391E-02 -4.24742366E-02 -7.28930000E-08 -7.18100000E-08  6.30248640E-02
  1.59707450E-01  3.22003496E-01  3.98916272E-02 -1.33733679E-01  2.62518797E-01
  6.70599499E-02 -2.50571362E-01  5.86084118E-01 -2.09755488E-02 -4.48141512E-04
  8.42665169E-03  1.21362901E-03  1.21449244E-03 -6.30246506E-02 -1.59706317E-01
 -3.22005541E-01  3.98901824E-02 -1.33733279E-01 -2.62519182E-01  6.70575441E-02
 -2.50574127E-01 -5.86084347E-01  2.09754958E-02 -4.48084810E-04  8.42676630E-03
 -1.21347244E-03 -1.21448604E-03  1.00152000E-07  4.13921000E-07 -5.97940000E-07
 -7.74361593E-02  2.83156079E-01 -1.57027000E-07 -1.04394654E-01  4.62596612E-01
  2.93654000E-07 -6.88900000E-09 -7.57696366E-03  2.20061148E-02 -3.15200000E-09
  1.73270000E-08 -2.08130758E-02  1.11130032E-01 -1.35701280E-01  9.26860124E-02
 -5.03548162E-02  5.86470094E-02 -3.92920334E-01 -1.35609538E-01  2.93334833E-01
  1.16869091E-02 -4.58090445E-02  4.85262364E-03 -8.70777538E-03 -6.77374915E-02
  2.08181334E-02 -1.11169405E-01  1.35743207E-01  9.26906569E-02 -5.03344945E-02
 -5.86576340E-02 -3.92929151E-01 -1.35641958E-01 -2.93318979E-01 -1.16855791E-02
 -4.58081991E-02  4.85489105E-03  8.71249648E-03  6.77373593E-02  4.19742842E-01
 -1.53266441E-01 -2.67377017E-03 -2.62473406E-02 -2.84859520E-03 -4.41241155E-01
  1.49587898E-01 -8.89754794E-04  3.56278709E-02  2.57371132E-02  4.41246808E-01
 -1.49596502E-01 -8.89365081E-04  3.56260235E-02 -2.57363586E-02 -4.19732690E-01
  1.53250786E-01 -2.67424834E-03 -2.62487777E-02  2.84852124E-03  2.40834900E-06
 -7.45115400E-06  3.03853200E-06  4.22181454E-01  2.32418803E-01  6.58448000E-07
 -7.28570575E-01  2.27690931E-01 -5.44476200E-06  9.98148000E-07  2.77161837E-04
  1.41848490E-02 -4.00008000E-07 -9.75660000E-08 -1.46019571E-02 -5.09661642E-02
 -7.13228050E-02  1.37326928E-01  6.45162457E-02 -7.60499060E-02  1.81627075E-01
  7.23354694E-02 -1.52763546E-01 -4.39889132E-04  1.25068876E-02  2.06655532E-03
  2.49367531E-03 -1.30271239E-03  1.46037026E-02  5.09750789E-02  7.12978170E-02
  1.37324787E-01  6.45210236E-02  7.60490666E-02  1.81628507E-01  7.23227846E-02
  1.52767013E-01  4.38878081E-04  1.25067889E-02  2.06640278E-03 -2.49274514E-03
  1.30306389E-03  1.09472600E-06  3.80577800E-06  1.51976900E-06  1.25033567E-02
 -6.24687629E-02 -3.01516700E-06  1.33750753E-01 -9.20432432E-02 -1.55277000E-06
 -1.99011000E-07 -1.27604851E-02 -8.24494708E-03 -5.11000000E-10  1.53310000E-08
  8.03691212E-02 -5.46846341E-01  4.85845974E-01 -1.27751054E-01 -2.57804168E-01
 -2.58207230E-01  2.90931716E-01  5.09325720E-01  4.49182754E-01  2.86336415E-02
 -1.61985839E-02 -1.47808809E-02  7.13495642E-02 -2.56255000E-03  8.03675407E-02
 -5.46835384E-01  4.85812549E-01  1.27749891E-01  2.57806730E-01 -2.58202116E-01
 -2.90910222E-01 -5.09314917E-01  4.49186216E-01  2.86344736E-02  1.62013008E-02
  1.47806657E-02  7.13489643E-02 -2.56681832E-03  2.99209168E-01 -2.50706993E-01
  1.75508883E-02  1.68705238E-02 -4.80709647E-03  2.20650937E-01 -1.53694488E-01
 -9.04352960E-03  4.54820458E-02  2.06497191E-02  2.20628592E-01 -1.53691530E-01
  9.04330841E-03 -4.54841632E-02  2.06514006E-02  2.99231818E-01 -2.50707992E-01
 -1.75508289E-02 -1.68691944E-02 -4.80717783E-03  1.30371584E-01 -5.71227724E-01
  5.61971941E-01 -1.27055380E-05 -3.40613900E-06  5.85800875E-02  2.00010970E-05
  3.07381900E-06 -6.66967357E-01  4.96769410E-02  8.11280000E-08 -2.46340000E-08
 -1.07049536E-02  4.30688359E-03  3.24049536E-02  1.85919983E-01 -7.67036302E-01
  6.25251761E-02 -6.41004036E-02 -2.34347875E-02 -2.67874199E-02  3.02193840E-01
  1.13617250E-01 -2.61953401E-02  2.88210272E-03  1.30277845E-02  1.72977845E-02
  6.01405096E-03  3.24048628E-02  1.85919497E-01 -7.67041866E-01 -6.25345816E-02
  6.40984772E-02 -2.34360513E-02  2.67795958E-02 -3.02195297E-01  1.13616250E-01
 -2.61956113E-02 -2.88319009E-03 -1.30279493E-02  1.72978995E-02  6.01403023E-03
  4.73858266E-02  1.49259693E-01  2.35790656E-01 -5.64502000E-07  1.35560000E-08
 -1.32523296E-01 -3.68501300E-06 -2.13863000E-07 -1.10795061E-01 -1.03838796E-02
  3.61133000E-07  1.08785000E-07  1.35792292E-03  1.50540928E-03 -2.16123928E-02
  2.86507336E-02 -5.99652558E-01  5.65697895E-02 -3.57777049E-01  2.61802952E-01
  1.21679452E-01  8.28141513E-01 -3.19587094E-02 -2.26375455E-02  7.50459479E-03
 -8.42038301E-03  4.62808100E-02 -1.75646262E-03 -2.16118688E-02  2.86468777E-02
 -5.99650941E-01 -5.65708888E-02  3.57774119E-01  2.61796710E-01 -1.21677066E-01
 -8.28132407E-01 -3.19615097E-02 -2.26371802E-02 -7.50458999E-03  8.42069508E-03
  4.62808692E-02 -1.75690921E-03  3.05303892E-02  2.39345265E-01  2.32063560E-02
  2.83250507E-02  3.24327359E-02  2.69236021E-01  1.48796861E-01 -1.13777602E-02
  2.33820409E-02  6.24231319E-03  2.69232412E-01  1.48789994E-01  1.13773730E-02
 -2.33819587E-02  6.24181118E-03  3.05271127E-02  2.39347850E-01 -2.32060978E-02
 -2.83256364E-02  3.24321315E-02 -1.88792233E-01  1.03664247E+00 -1.17784025E+00
 -9.72381500E-06  1.66789800E-06 -1.97837547E-01  1.40757090E-05  2.22835000E-07
  7.90306047E-01 -3.89424742E-02 -8.33300000E-08  2.20555000E-07  1.41952157E-02
  1.28855307E-02 -3.45667830E-02 -1.58910588E-01  6.51046456E-01 -2.70940152E-02
  2.25793111E-01  2.22280532E-02  5.24508760E-02  1.90240781E-02 -8.57220937E-02
  2.50351355E-02  3.96158953E-03 -1.46895520E-02 -1.17612627E-02 -1.03710742E-02
 -3.45669521E-02 -1.58911041E-01  6.51043552E-01  2.70921362E-02 -2.25792778E-01
  2.22320168E-02 -5.24544814E-02 -1.90252710E-02 -8.57204603E-02  2.50353607E-02
 -3.96131513E-03  1.46891864E-02 -1.17609542E-02 -1.03712272E-02 -2.59172122E-02
 -7.84719852E-02 -1.82972506E-01 -5.53563000E-07 -4.02071000E-07  1.15109406E-01
 -1.78259100E-06 -4.12075000E-07  8.55905022E-02  1.20801751E-02  3.21849000E-07
 -8.23960000E-08 -1.92731812E-03 -6.15419738E-04 -1.13763661E-01  7.04292393E-01
 -2.43523642E+00  7.27842034E-02 -2.63661990E-02  5.31123160E-01 -1.36665632E-01
 -5.67593963E-01 -1.22377325E+00 -9.08141863E-03 -7.99490720E-03  8.67093921E-03
  2.47897934E-03 -5.65221879E-04  1.13763618E-01 -7.04291650E-01  2.43524334E+00
  7.27872200E-02 -2.63694476E-02 -5.31125567E-01 -1.36660701E-01 -5.67582849E-01
  1.22377270E+00  9.08191233E-03 -7.99413040E-03  8.67103952E-03 -2.47962661E-03
  5.65286049E-04 -7.36372598E-02  1.99544224E-01 -4.27398797E-03 -2.25882176E-02
  1.37598464E-02 -1.60318068E-01  2.87725641E-01  1.15565395E-02  5.91298888E-03
  1.64066659E-02  1.60312452E-01 -2.87733138E-01  1.15564095E-02  5.91345195E-03
 -1.64070859E-02  7.36359930E-02 -1.99542054E-01 -4.27366940E-03 -2.25880980E-02
 -1.37596400E-02  1.57088300E-06 -9.14602100E-06  1.27482500E-05 -3.55275085E-01
  2.36831566E-01  2.09485900E-06  3.54645956E-01 -1.82695166E-01 -9.55304300E-06
  1.98653000E-07 -1.33224187E-03 -1.34632425E-02 -1.24589000E-07 -3.29519000E-07
  1.33900645E-02  1.03716662E-01 -7.51855084E-01  2.44735824E-02 -4.98719810E-02
 -2.57105948E-01 -1.00038145E-01  5.83577231E-02  1.57003481E-01 -3.32927614E-02
  1.44195911E-02 -2.68094968E-02 -1.00823147E-03  4.87615367E-03 -1.33897538E-02
 -1.03714723E-01  7.51842993E-01  2.44742560E-02 -4.98681128E-02  2.57106390E-01
 -1.00039026E-01  5.83557307E-02 -1.57002025E-01  3.32923819E-02  1.44201667E-02
 -2.68096191E-02  1.00863996E-03 -4.87614411E-03  1.76987000E-07  4.64061000E-07
  2.47590100E-06 -6.77909062E-03  1.59008668E-03 -7.96963000E-07 -2.61891997E-02
  8.00566866E-04 -8.14010000E-07 -9.71920000E-08  1.31157282E-02 -1.00478248E-02
  2.60300000E-08 -9.83700000E-09 -2.36013722E-02  1.48820711E-01 -2.46919026E-01
  5.91323372E-02 -1.89583340E-01  3.85878008E-01 -3.58961862E-01 -6.58369395E-02
 -9.20867783E-01  1.54384461E-02 -3.81368636E-02  5.74037382E-02 -5.90325074E-03
 -5.25604297E-03 -2.35971231E-02  1.48800420E-01 -2.46876777E-01 -5.91267818E-02
  1.89597192E-01  3.85870804E-01  3.58957755E-01  6.58145968E-02 -9.20856290E-01
  1.54395083E-02  3.81372733E-02 -5.74056735E-02 -5.90478231E-03 -5.25693980E-03
  7.02598444E-02 -3.79713991E-01 -1.35820957E-02 -4.45050718E-03 -2.91500616E-02
 -3.24343402E-01 -2.05282935E-02  1.44135998E-02 -1.32992386E-02  2.96543487E-02
 -3.24345977E-01 -2.05244224E-02 -1.44147471E-02  1.32998115E-02  2.96563044E-02
  7.02718657E-02 -3.79731547E-01  1.35825341E-02  4.45227862E-03 -2.91510740E-02
  9.39599945E-02 -8.21315464E-01  1.19694430E+00  1.05979170E-05 -2.90218520E-05
  1.33859679E-01 -3.03317690E-05  8.33733570E-05 -2.64286654E+00 -3.90994545E-02
  8.39113000E-07 -3.60827100E-06  5.40905792E-03 -1.51328798E-02 -3.24542956E-02
 -1.04333548E-01 -3.85916735E-01 -8.88697440E-02  8.98024302E-02  1.95768052E-01
 -8.30106485E-02  2.61429858E-01 -9.72378119E-02  9.11727879E-03 -1.91466049E-02
  2.07888299E-02  1.21323695E-02  7.27826190E-03 -3.24544349E-02 -1.04339892E-01
 -3.85831213E-01  8.88757474E-02 -8.98214729E-02  1.95769246E-01  8.30076493E-02
 -2.61419047E-01 -9.72145030E-02  9.11860378E-03  1.91458433E-02 -2.07857852E-02
  1.21308394E-02  7.27746631E-03  5.81681724E-02  8.29592791E-02  1.43597931E+00
  1.91831500E-06 -4.43139300E-06  3.22121678E-02  4.32825700E-06 -1.32482610E-05
 -4.38311513E-01  1.93568329E-02 -3.06053000E-07  9.73971000E-07  3.97019663E-03
  1.41486320E-03 -4.54042863E-02  2.62678360E-01 -5.30134924E-01  7.38399851E-02
  8.77605561E-02  1.41377468E-01 -1.93368492E-02 -8.03360144E-02 -9.15646023E-02
 -2.00084069E-02  1.11309686E-02 -1.94196553E-02  1.70584193E-02  1.13122709E-02
  4.54061439E-02 -2.62688285E-01  5.30144946E-01  7.38473290E-02  8.77451540E-02
 -1.41406653E-01 -1.93675903E-02 -8.03465145E-02  9.16397980E-02  2.00071419E-02
  1.11282296E-02 -1.94156812E-02 -1.70577722E-02 -1.13120770E-02 -6.84914672E-02
  2.02848833E-01  1.01864739E-02  1.87429558E-02  1.12287952E-02  1.19710381E-01
 -9.69358802E-04 -1.76982998E-02  6.21276948E-03  7.26947326E-04 -1.19681960E-01
  9.75616779E-04 -1.76968827E-02  6.21156971E-03 -7.29397127E-04  6.84921044E-02
 -2.02819129E-01  1.01849680E-02  1.87427467E-02 -1.12264753E-02 -4.51384500E-06
  3.67018400E-05 -5.18024200E-05  2.68343652E-01 -6.86889229E-01 -6.24239100E-06
 -6.85660947E-01  2.01887185E+00  1.11356635E-04  1.42788000E-06  2.36045055E-02
 -8.90765904E-02 -2.45100000E-09  6.04047000E-07  3.79626107E-04  7.14238139E-02
 -1.03671808E+00  6.35610300E-02 -2.42838103E-01 -3.53057296E-02 -1.76544080E-02
  1.28013005E-01 -2.88159699E-01 -2.14465513E-02 -1.01097077E-02  3.57480994E-02
  1.87694284E-02  8.87828452E-03 -3.77120883E-04 -7.14162476E-02  1.03675488E+00
  6.35546955E-02 -2.42833278E-01  3.52888956E-02 -1.76611552E-02  1.28034865E-01
  2.88166810E-01  2.14459777E-02 -1.01110218E-02  3.57498359E-02 -1.87705524E-02
 -8.87894776E-03 -2.55428500E-06 -3.98963300E-06 -5.93827230E-05  4.22318324E-02
 -1.09118271E-01 -8.88147000E-07  1.07905576E-01 -3.28748906E-01  1.82461150E-05
 -7.33739000E-07 -8.56799845E-03  2.27558161E-02 -1.65732000E-07 -3.72740000E-08
 -8.27849483E-02  4.69602657E-01 -2.15141825E+00  1.41312621E-02  2.17396773E-01
 -2.29080033E-02  1.53191072E-01 -1.15800588E+00 -5.25669850E-01  1.32832381E-02
  3.96769244E-02  2.61591539E-04  1.25098561E-02  6.24327476E-02  8.27856400E-02
 -4.69601010E-01  2.15140061E+00  1.41273469E-02  2.17395107E-01  2.29118600E-02
  1.53195792E-01 -1.15801650E+00  5.25674137E-01 -1.32835229E-02  3.96772220E-02
  2.59607787E-04 -1.25089138E-02 -6.24326461E-02 -5.08107655E-01  3.25311288E-01
 -2.89914912E-02  4.17362968E-02  1.12462097E-02  9.94460549E-02 -9.09823171E-02
  2.48348472E-02 -1.09585790E-02 -1.56392958E-02 -9.94302602E-02  9.09763478E-02
  2.48365395E-02 -1.09584354E-02  1.56383282E-02  5.08120569E-01 -3.25305861E-01
 -2.89928585E-02  4.17359004E-02 -1.12464379E-02 -1.27392200E-06  5.54165000E-06
 -5.25806300E-06  5.45524999E-01  3.45156302E-01 -1.15251800E-06 -9.39063380E-01
 -6.79802433E-01  8.44217500E-06 -1.13666000E-07 -7.48966808E-03  4.74882666E-04
  4.89629000E-07  3.99584000E-07  9.88403481E-03  5.68071835E-02 -2.10470011E-01
  6.56186677E-03  2.92402625E-02 -5.52933001E-02  7.90706950E-02  1.03130283E-01
  1.10412973E-01 -3.54504061E-03 -1.89228180E-03 -1.67679898E-02  9.35629038E-03
 -1.19459788E-02 -9.88402292E-03 -5.68080205E-02  2.10479876E-01  6.56243394E-03
  2.92335043E-02  5.52906170E-02  7.90689055E-02  1.03132801E-01 -1.10413788E-01
  3.54525261E-03 -1.89229809E-03 -1.67682880E-02 -9.35662885E-03  1.19456385E-02
 -5.09857000E-07 -1.61967800E-06 -3.13358400E-06  1.23341906E-01  6.22332490E-02
  8.19561000E-07  1.01762142E-01  9.01652258E-02  1.31590500E-06  6.79410000E-08
 -1.60287658E-02 -1.07864274E-02 -1.28160000E-08 -1.91500000E-09 -1.02097711E-01
  4.35215878E-01 -1.74117031E+00 -9.48449866E-02  5.78256390E-01 -2.03295099E-01
  5.64204501E-02 -1.60994062E+00  5.51810998E-01  4.74335207E-02 -9.97533158E-03
  2.45436778E-03  2.33002707E-02 -3.70070808E-02  1.02096573E-01 -4.35208680E-01
  1.74115461E+00 -9.48369878E-02  5.78255552E-01  2.03288575E-01  5.64054617E-02
 -1.60994527E+00 -5.51798211E-01 -4.74333611E-02 -9.97423956E-03  2.45602608E-03
 -2.33008964E-02  3.70062726E-02 -6.54565600E-02 -4.78367340E-02 -1.26701520E-02
  2.63080638E-02 -9.31065080E-03 -3.79954062E-01  3.01417666E-01  2.39206705E-02
  5.21848623E-02 -8.05064814E-04  3.79947124E-01 -3.01393754E-01  2.39196324E-02
  5.21841171E-02  8.06462884E-04  6.54603594E-02  4.78354839E-02 -1.26699773E-02
  2.63083449E-02  9.30998627E-03 -1.31718400E-06  9.51189100E-06 -1.19494870E-05
 -2.96090974E-01 -1.18132279E-01 -2.87913000E-07  3.74187108E-01  4.80309271E-01
  1.97494710E-05 -4.48440000E-08 -1.10941555E-03  5.56814958E-03  2.84920000E-08
 -2.26873000E-07  2.01618461E-02  6.07440709E-02  8.76543517E-02 -3.94834551E-03
  5.44009686E-02 -1.09556582E-02 -1.88605918E-02  4.10554496E-02 -2.09677090E-01
  1.74549711E-02 -1.27930164E-03 -3.75800793E-04  5.57230873E-03  6.53522397E-03
 -2.01611750E-02 -6.07422770E-02 -8.76426055E-02 -3.94581972E-03  5.44029010E-02
  1.09523275E-02 -1.88632214E-02  4.10598106E-02  2.09676550E-01 -1.74549189E-02
 -1.27922460E-03 -3.75131484E-04 -5.57241827E-03 -6.53531923E-03 -6.19447000E-07
 -1.37110700E-06 -9.97301200E-06 -4.98022877E-02 -5.46963829E-02  3.71346000E-07
 -2.46843153E-02 -6.96881448E-02  3.86422100E-06 -2.05070000E-08  9.12459338E-03
  4.82527883E-03 -2.96600000E-08 -1.10150000E-08  8.42576644E-02 -2.94357724E-01
  5.63815457E-01 -2.68512289E-02  3.44753894E-01  2.04569624E-01 -3.13201368E-01
 -3.01421748E-01 -3.06592100E-01 -7.92868489E-03 -4.90492176E-02  7.95747104E-02
  3.04436604E-02 -1.00901214E-02  8.42556576E-02 -2.94343133E-01  5.63751002E-01
  2.68388263E-02 -3.44759969E-01  2.04565703E-01  3.13209104E-01  3.01446739E-01
 -3.06583554E-01 -7.92837409E-03  4.90482198E-02 -7.95747318E-02  3.04441389E-02
 -1.00861674E-02  7.05861778E-01 -7.14867986E-01  6.60698157E-02 -3.07305037E-02
 -8.55043236E-02  2.57198054E-01 -4.06170037E-01 -6.90469592E-02 -2.55418075E-02
  3.51031994E-03  2.57211878E-01 -4.06178310E-01  6.90478020E-02  2.55427207E-02
  3.51074913E-03  7.05850645E-01 -7.14846128E-01 -6.60682643E-02  3.07282453E-02
 -8.55037968E-02 -3.96209472E-02  9.05058476E-02 -1.04902995E-01 -3.33902900E-06
 -9.69009000E-07  3.97484021E-02  6.58269900E-06  1.94695000E-07  3.41524873E-01
 -8.14257689E-03 -4.34980000E-08  3.57347000E-07  4.32763437E-02  1.23780654E-02
  2.25116507E-02  3.50136591E-02  3.31308270E-01 -1.08164360E-01  1.35030458E-01
 -1.23253901E-01  6.12294911E-02 -2.28483703E-01 -6.08697880E-02 -4.12612968E-03
 -8.61554265E-03  8.50101694E-03 -8.66693478E-03 -5.24818970E-03  2.25119072E-02
  3.50151787E-02  3.31304009E-01  1.08163872E-01 -1.35029270E-01 -1.23254707E-01
 -6.12307880E-02  2.28480514E-01 -6.08708923E-02 -4.12625892E-03  8.61583878E-03
 -8.50075082E-03 -8.66658726E-03 -5.24847732E-03 -3.47178657E-02 -1.22823720E-01
 -1.34060313E-01 -1.06689200E-06 -2.45556000E-07  4.35038278E-02 -3.10007000E-07
 -9.69600000E-09  7.94843285E-02  4.05496141E-03  1.17596000E-07  1.36190000E-08
  8.48090461E-04  3.02915346E-04  1.13251564E-01 -9.18641827E-01  2.20029168E+00
  4.74670947E-01  6.67139149E-02  1.32403472E-01 -9.12563167E-01 -3.70018667E-01
 -1.10251017E-01 -2.67975354E-02  5.68027200E-02  2.25634063E-03  4.61185562E-02
  3.96051070E-02  1.13252803E-01 -9.18652401E-01  2.20036634E+00 -4.74675188E-01
 -6.66976596E-02  1.32400142E-01  9.12577125E-01  3.69965539E-01 -1.10248381E-01
 -2.67985936E-02 -5.68029385E-02 -2.25543088E-03  4.61178573E-02  3.96042810E-02
 -3.18327845E-01  3.49009637E-02  8.90145108E-03  4.10183406E-02  4.09433136E-02
  2.95081943E-01 -1.64234356E+00 -9.11780419E-02 -4.88293568E-02 -4.23009152E-02
  2.95075461E-01 -1.64234796E+00  9.11780511E-02  4.88292505E-02 -4.23012315E-02
 -3.18333380E-01  3.49088362E-02 -8.90053562E-03 -4.10169389E-02  4.09437845E-02
  4.87928857E-02 -1.80453977E-01 -7.11415024E-02 -3.52007600E-06 -2.18109800E-06
 -1.30277457E-01  4.87237600E-06  7.21955100E-06  2.73878718E-01  3.89851586E-02
  4.90900000E-09 -5.65772000E-07 -1.31884049E-02  8.47366507E-03 -2.33048942E-02
 -7.24910196E-02 -1.52301626E-01  8.42836452E-02 -4.49876430E-02  6.16379932E-02
 -1.21588063E-01  7.98143617E-03  9.40248028E-02 -5.15362040E-03  1.60544991E-02
  6.89226994E-03 -6.00142383E-03  3.33563894E-03 -2.33054868E-02 -7.24934852E-02
 -1.52293041E-01 -8.42821185E-02  4.49863146E-02  6.16384599E-02  1.21585244E-01
 -7.97857379E-03  9.40288951E-02 -5.15354088E-03 -1.60543598E-02 -6.89260392E-03
 -6.00179056E-03  3.33549671E-03  1.93332818E-02  7.19859454E-02 -1.20876069E-01
 -8.19862000E-07 -4.30194000E-07 -9.27924099E-02 -2.22924000E-07 -7.86491000E-07
 -4.97202688E-02 -1.71075224E-02  8.61900000E-08  1.18915000E-07 -7.34948767E-04
 -1.17103467E-03 -1.12039661E-01  8.07552461E-01 -2.43511155E+00  2.94259769E-01
 -3.51264994E-01 -3.78606953E-01 -5.61933003E-01  6.62291156E-01  8.99344233E-01
  8.12118213E-04  4.10798381E-02 -2.79165412E-02 -3.78399688E-02  2.90212173E-02
  1.12045777E-01 -8.07600838E-01  2.43523236E+00  2.94268810E-01 -3.51270879E-01
  3.78619705E-01 -5.61967977E-01  6.62318936E-01 -8.99366244E-01 -8.11047493E-04
  4.10806339E-02 -2.79167331E-02  3.78404212E-02 -2.90222269E-02 -2.60271746E-01
  1.70668356E+00 -1.01926854E-01  4.68910341E-02  6.89396133E-02 -9.25994185E-02
  6.04362091E-01  2.79033233E-02  8.91422319E-03 -5.02056136E-03  9.25954537E-02
 -6.04376280E-01  2.79035122E-02  8.91214477E-03  5.02113227E-03  2.60267890E-01
 -1.70675327E+00 -1.01929057E-01  4.68929534E-02 -6.89422291E-02 -1.77780200E-06
  1.10946840E-05 -1.32361510E-05 -1.23650208E-01 -3.19470230E-02  8.36702600E-06
  2.94793789E-01  2.63504818E-02  5.12337200E-06 -1.40387500E-06  6.37871487E-03
  1.64870112E-02 -5.34145000E-07 -1.59572000E-07 -1.27221556E-02 -4.56523420E-02
 -2.96647776E-02 -4.63365824E-03  1.56946976E-02 -1.28267744E-02  3.45326792E-02
 -5.48311514E-02  1.06041148E-01 -6.76415513E-03 -1.21473042E-03  7.96415761E-03
 -4.52936647E-03  2.27652196E-03  1.27215063E-02  4.56504656E-02  2.96599935E-02
 -4.63715359E-03  1.56998473E-02  1.28262677E-02  3.45299871E-02 -5.48268787E-02
 -1.06031677E-01  6.76451202E-03 -1.21491717E-03  7.96460161E-03  4.52965083E-03
 -2.27643860E-03 -1.32008100E-06 -4.31452100E-06 -1.73492600E-06 -6.90183743E-02
 -3.01930816E-02  3.78002700E-06 -1.10613867E-02 -1.36311541E-03  5.74303900E-06
  7.21164000E-07  3.20956023E-03 -2.18414462E-03 -9.23090000E-08 -4.81790000E-08
 -9.99377816E-02  8.92330375E-01 -2.25610317E+00  3.86594094E-01 -1.34283523E-02
 -2.17133373E-01 -1.40337567E+00  4.05035854E-01  3.44580103E-01 -2.18216587E-02
  1.55271060E-02  2.64323327E-02 -1.47003868E-02  2.42395627E-02 -9.99267726E-02
  8.92252255E-01 -2.25588273E+00 -3.86642785E-01  1.33870355E-02 -2.17113393E-01
  1.40345524E+00 -4.04941588E-01  3.44539528E-01 -2.18240742E-02 -1.55301771E-02
 -2.64342519E-02 -1.46939362E-02  2.42464525E-02  1.77947427E-01  1.52520788E+00
 -6.22983759E-02  2.56746752E-02  2.81828342E-02  1.75059363E-01 -1.50912705E-01
 -2.05056918E-02 -5.76251490E-02 -1.25295660E-02  1.75097137E-01 -1.51108206E-01
  2.05201131E-02  5.76287875E-02 -1.25329099E-02  1.77950108E-01  1.52515324E+00
  6.22950006E-02 -2.56744471E-02  2.81832522E-02  7.70869931E-02 -5.12165841E-01
  4.97400303E-01 -5.56700000E-09 -3.74777800E-06 -3.95992394E-01 -2.22926100E-06
  9.55598600E-06 -9.26169019E-02  6.44709127E-02 -5.73345000E-07 -5.91180000E-07
  3.36130636E-02  1.26645207E-02  1.30848380E-02  1.70587955E-02  2.85345753E-01
 -7.76824146E-02  1.48548656E-01 -1.23956583E-04 -7.55577617E-02 -1.38032607E-02
 -2.33181473E-01 -6.53981253E-03 -3.87561894E-03  1.26815373E-02 -1.12625192E-02
 -2.12084685E-03  1.30852482E-02  1.70587774E-02  2.85369078E-01  7.76829145E-02
 -1.48551972E-01 -1.21845720E-04  7.55466874E-02  1.37976355E-02 -2.33187166E-01
 -6.53934417E-03  3.87629319E-03 -1.26804017E-02 -1.12619927E-02 -2.12072792E-03
  5.47812277E-02  1.74905462E-01  4.67385456E-02  1.36373200E-06 -1.33679500E-06
 -1.69260859E-01 -2.52678000E-07 -9.06139000E-07 -2.65334205E-01 -3.44452064E-02
  2.92020000E-08  7.47300000E-08  4.42851274E-03  1.63176545E-03 -6.41824295E-02
  4.43669517E-01 -1.04340284E+00 -6.12927075E-01 -2.59406370E-01 -6.00116489E-02
  1.16682254E+00  6.96364505E-01  1.29582292E-01  1.91829002E-02 -4.29135279E-02
 -1.05132360E-02 -4.04162949E-02 -5.68223344E-02  6.41924603E-02 -4.43769628E-01
  1.04365756E+00 -6.12882937E-01 -2.59400063E-01  6.00333250E-02  1.16666179E+00
  6.96396922E-01 -1.29607111E-01 -1.91807129E-02 -4.29109158E-02 -1.05092236E-02
  4.04181164E-02  5.68190686E-02  2.20068506E-02 -1.91536341E-01  1.37800467E-02
 -1.17847434E-03 -3.43966104E-02 -2.50495683E-01  1.62098302E+00  1.25828647E-01
  1.65322242E-02  3.75852192E-02  2.50468869E-01 -1.62095570E+00  1.25825720E-01
  1.65243812E-02 -3.75826728E-02 -2.20329031E-02  1.91367054E-01  1.37732282E-02
 -1.17575444E-03  3.43941330E-02 -1.61590400E-06  1.53612370E-05 -2.17688300E-05
  7.59950338E-02 -4.48755054E-02  7.20701600E-06 -1.97966239E-01  1.36452552E-01
  2.21366400E-05 -5.92506000E-07 -1.85499620E-02 -2.21110280E-02 -1.85730300E-06
 -7.22558000E-07  5.66602228E-04  1.46907865E-02 -1.31142223E-01  1.21582042E-02
 -4.41290403E-02 -4.79744457E-03 -1.26211291E-01 -2.53658791E-02 -1.77995141E-02
  1.53260643E-04  5.34915288E-03  6.90613617E-03 -2.56330379E-03 -5.89043287E-03
 -5.69103650E-04 -1.46966591E-02  1.31109959E-01  1.21493676E-02 -4.41128231E-02
  4.79993240E-03 -1.26219924E-01 -2.53706745E-02  1.78257292E-02 -1.53434575E-04
  5.34873125E-03  6.90745090E-03  2.56390063E-03  5.89032193E-03 -1.76588900E-06
 -5.40350800E-06 -9.90375300E-06  7.22595418E-02 -2.40497620E-03  2.25408600E-06
 -1.79807507E-03 -1.41008745E-02  9.13320500E-06  4.26168000E-07 -5.61268602E-04
  2.44524861E-03 -2.50242000E-07 -9.12600000E-08  1.67050862E-02 -2.46403844E-01
  6.22878681E-01 -2.44616907E-01 -5.56788401E-03  1.50909619E-01  6.45308861E-01
 -3.06429833E-02 -1.58876694E-01 -5.84731491E-03 -3.02356666E-02  2.47973286E-02
 -1.93033336E-02 -2.04461952E-02  1.67034305E-02 -2.46393603E-01  6.22859225E-01
  2.44634273E-01  5.57428788E-03  1.50909665E-01 -6.45338858E-01  3.06207315E-02
 -1.58875124E-01 -5.84644589E-03  3.02366351E-02 -2.47974516E-02 -1.93047686E-02
 -2.04485326E-02  9.41447695E-03 -6.73091493E-01  2.99078364E-02 -2.33980671E-02
 -1.81594431E-02 -1.67989252E-01  3.85167233E-01  3.09344268E-02  1.90550261E-02
  5.66229731E-03 -1.68000159E-01  3.85217775E-01 -3.09384110E-02 -1.90554425E-02
  5.66271403E-03  9.41728745E-03 -6.73098602E-01 -2.99082122E-02  2.33985247E-02
 -1.81603243E-02  1.09914640E-01 -5.28824913E-01 -2.79311048E-01 -8.96502000E-07
  1.52918800E-06 -9.23098684E-01  2.85495300E-06 -5.41741200E-06  1.47478843E+00
  1.62133794E-01  3.33024000E-07  2.40000000E-07  9.85398474E-03  1.21109930E-03
 -3.35205659E-02 -1.80573214E-01  5.41542579E-01 -4.10212219E-02  5.93300884E-02
  6.47296476E-02  1.13090765E-01 -1.79908009E-01 -5.38098504E-02 -1.64285358E-02
 -5.97063914E-03 -1.24543985E-03 -2.84539123E-02 -1.84647316E-02 -3.35203528E-02
 -1.80572189E-01  5.41536824E-01  4.10217259E-02 -5.93286786E-02  6.47284590E-02
 -1.13088073E-01  1.79908894E-01 -5.38114113E-02 -1.64286431E-02  5.97049670E-03
  1.24531294E-03 -2.84540072E-02 -1.84647396E-02  6.14283035E-02  1.98007197E-01
 -5.02241068E-01 -9.82573000E-07  6.34253000E-07 -3.91001742E-01 -2.11004000E-07
  6.18552000E-07 -3.19098898E-01 -8.62321367E-02 -1.15563000E-07 -1.70040000E-08
 -1.65157239E-03 -4.26909328E-04 -4.03430828E-02  5.67365149E-01 -1.11822295E+00
 -1.70896703E-01  1.30266336E-01  1.40172131E-01  1.51112771E+00 -1.99618313E-01
 -6.48555422E-01 -1.25878520E-02  5.77943682E-02  6.46307758E-02 -1.18360649E-04
  1.56178022E-03 -4.03383368E-02  5.67296237E-01 -1.11784842E+00  1.70893706E-01
 -1.30255393E-01  1.40177560E-01 -1.51112990E+00  1.99506611E-01 -6.48612175E-01
 -1.25885322E-02 -5.77964722E-02 -6.46295487E-02 -1.21397362E-04  1.56405235E-03
 -1.70095919E-01 -4.70046945E-01  3.15097216E-02 -6.80386063E-02  2.24181397E-02
  5.62921855E-01  5.63806685E-01  1.97528376E-02  1.79351692E-03 -1.15100813E-01
  5.62895591E-01  5.63770010E-01 -1.97544320E-02 -1.79167154E-03 -1.15103407E-01
 -1.70139338E-01 -4.70082160E-01 -3.15065928E-02  6.80388525E-02  2.24172215E-02
  7.93620423E-02 -8.83595891E-01  1.37419952E+00 -8.98796000E-07  1.64831500E-06
 -1.72310993E-02 -1.06488500E-06 -9.84101300E-06 -1.79116361E+00 -7.27281329E-02
 -6.39725000E-07 -1.96854000E-07 -3.86210851E-03  3.73230251E-02  7.96554455E-03
  4.92981027E-02 -3.78322114E-01  3.16667329E-01  8.95425448E-02  7.62113450E-03
 -1.43384100E-01  5.57774786E-02 -9.52894895E-02  1.19254451E-02  1.56642451E-02
  1.64296294E-02  1.33023016E-02 -7.78830783E-03  7.96781041E-03  4.93084945E-02
 -3.78325922E-01 -3.16663224E-01 -8.95435919E-02  7.61546941E-03  1.43381237E-01
 -5.57739958E-02 -9.52914516E-02  1.19259774E-02 -1.56634875E-02 -1.64304099E-02
  1.33015702E-02 -7.78845140E-03  6.02378310E-02  1.71453164E-01  7.90599333E-01
  4.53205000E-07  3.39680500E-06  1.82445670E-01 -1.94973000E-07 -4.63598000E-07
 -5.86864342E-01  3.82289286E-03  9.38130000E-08  4.42120000E-08  6.51871487E-03
  1.52391677E-03  6.10972654E-02 -1.13784566E+00  7.15466726E+00  2.54729754E-02
 -1.42289232E-01  6.59040987E-02 -8.36329675E-02  2.38240815E+00 -2.24226358E-01
 -5.59041513E-03  2.51930791E-02 -1.23981143E-02 -5.86065283E-02 -2.63050053E-02
 -6.10986930E-02  1.13786760E+00 -7.15470122E+00  2.54778810E-02 -1.42296514E-01
 -6.58935554E-02 -8.37314416E-02  2.38242143E+00  2.24185893E-01  5.58963342E-03
  2.51894627E-02 -1.23982313E-02  5.86067875E-02  2.63049059E-02 -5.74424261E-01
 -5.46055049E-01 -3.27950238E-02 -2.83024082E-02  3.60269611E-02 -5.73323633E-01
 -5.73785542E-01  3.41616697E-02  5.18026105E-03 -3.84211296E-02  5.73358472E-01
  5.73811188E-01  3.41618278E-02  5.17800289E-03  3.84142662E-02  5.74405501E-01
  5.46020612E-01 -3.27977383E-02 -2.82978854E-02 -3.60227532E-02  1.92090000E-06
 -2.31696280E-05  2.82504150E-05  3.94865601E-02 -1.15755665E-01 -5.86109400E-06
 -5.10114272E-02  4.88073229E-01 -4.29349110E-05 -3.42373400E-06  2.98364203E-02
  3.78113612E-02 -1.02119300E-06  5.12826000E-07  6.84929984E-02  2.83156462E-01
  2.00256848E-01 -9.21977722E-02  1.12142508E-01 -1.58765991E-01  1.51452509E-01
 -2.35381573E-01 -1.33484725E-01  1.55165668E-02 -8.47142485E-03  1.78404948E-02
 -1.52554475E-02  8.75515704E-03 -6.84932894E-02 -2.83155753E-01 -2.00277098E-01
 -9.22168658E-02  1.12145315E-01  1.58765206E-01  1.51463228E-01 -2.35390843E-01
  1.33482621E-01 -1.55149742E-02 -8.47275047E-03  1.78405627E-02  1.52562208E-02
 -8.75544872E-03  2.54209200E-06  8.19549500E-06  2.11054250E-05 -3.71583340E-02
 -1.97313055E-01  9.27455700E-06  2.77464055E-02  6.15203084E-02 -2.59870180E-05
 -1.20046000E-07 -3.60954512E-03 -1.53257174E-03  9.98680000E-08  2.34900000E-09
  1.17304006E-03 -1.35458896E-02 -1.57309366E-01 -4.17037501E-02 -1.03774425E-03
 -3.91075859E-02  1.60193277E-01 -3.84173978E-02 -1.40655902E-01 -1.69455294E-02
  2.91241485E-03  9.63483914E-02 -2.16271545E-02 -7.25890533E-04  1.17226536E-03
 -1.35290245E-02 -1.57422823E-01  4.17036098E-02  1.03621400E-03 -3.91086367E-02
 -1.60196183E-01  3.84584852E-02 -1.40656434E-01 -1.69456439E-02 -2.91225592E-03
 -9.63483419E-02 -2.16258681E-02 -7.23936723E-04 -6.53879594E-02 -7.19072827E-02
 -2.36516672E-02 -4.36356492E-02  9.56411401E-03  3.09996164E-02  9.16561088E-02
  2.78665633E-02 -1.72275282E-02 -6.39337968E-02  3.10093389E-02  9.16648038E-02
 -2.78653423E-02  1.72282832E-02 -6.39333964E-02 -6.53813064E-02 -7.18989355E-02
  2.36518624E-02  4.36346973E-02  9.56251911E-03 -1.45792117E-02  4.43811491E-01
  7.26538979E-01  5.82114000E-07 -1.68857500E-06  2.85009845E-01 -1.51631000E-07
  4.01050800E-06  1.75786519E-01  1.65138917E-01  4.18916000E-07  5.84014000E-07
  1.60824803E-02  1.52500633E-02  2.66397356E-02  1.09587177E-01 -8.58137303E-02
  1.28077658E-01  2.41638896E-01  2.12490203E-01 -1.17828863E-01 -2.36246388E-01
 -3.39339720E-01 -2.83147142E-02  2.06613792E-03  1.54301565E-02 -6.28200094E-03
 -8.55935549E-03  2.66379217E-02  1.09579311E-01 -8.58152629E-02 -1.28078714E-01
 -2.41634478E-01  2.12494030E-01  1.17830944E-01  2.36237967E-01 -3.39339242E-01
 -2.83150804E-02 -2.06631046E-03 -1.54298095E-02 -6.28180518E-03 -8.55973424E-03
 -9.38965927E-02 -3.22772946E-01 -4.24030124E-01 -1.42505500E-06 -2.56658000E-06
 -5.93240637E-01  1.83275400E-06  1.35567500E-06  1.23843436E+00  6.12690590E-03
 -2.37710000E-08 -1.42500000E-08  1.01976380E-02  2.42031146E-03  2.29217912E-02
 -3.41431502E-01  1.94226910E+00  2.73139742E-02 -1.34634304E-02  3.94342203E-03
  1.24671781E-01  4.39783748E-01 -5.55636094E-02  4.30359444E-02 -8.71382432E-02
 -1.13763359E-02 -3.31085020E-02  1.36489299E-01 -2.29212132E-02  3.41423709E-01
 -1.94224199E+00  2.73141617E-02 -1.34596577E-02 -3.94709357E-03  1.24662313E-01
  4.39786785E-01  5.55797833E-02 -4.30340280E-02 -8.71392099E-02 -1.13787367E-02
  3.31083364E-02 -1.36489711E-01 -1.78998250E-01 -2.45017418E-01 -4.92566582E-02
  1.10809772E-01 -1.42073596E-01 -1.12215788E-01 -1.94861305E-01  4.41318103E-02
 -1.33620702E-01  9.69407362E-02  1.12212994E-01  1.94864432E-01  4.41313554E-02
 -1.33621861E-01 -9.69459452E-02  1.78993353E-01  2.45016405E-01 -4.92547722E-02
  1.10810505E-01  1.42070933E-01  2.73361000E-07 -7.54281500E-06 -2.38156810E-05
 -1.69889196E-02  6.45829055E-02 -2.59885000E-07  2.19435509E-01  2.20209501E-01
  1.54234390E-05 -1.25735000E-06 -7.19143778E-03 -7.91356659E-02  1.22580100E-06
  6.34717000E-07 -1.19751661E-02 -4.89835144E-02  1.42568359E-01  4.71901397E-01
 -2.69427857E-02  8.14843286E-02 -6.20668307E-01  9.58444107E-02 -2.56471433E-01
  6.25957475E-03  2.41706909E-02  1.71842203E-03 -1.05951051E-02 -1.36697949E-02
  1.19772233E-02  4.89928102E-02 -1.42571414E-01  4.71897260E-01 -2.69573755E-02
 -8.14914137E-02 -6.20665232E-01  9.58708174E-02  2.56491850E-01 -6.25967486E-03
  2.41704221E-02  1.71787612E-03  1.05951054E-02  1.36697363E-02 -3.94855000E-07
 -2.56596100E-06  3.24712900E-06 -3.43045721E-01 -1.00234174E-01  4.05854500E-06
  3.16902314E-01  1.08232709E-01 -8.80358300E-06 -5.62340000E-08  1.59862823E-03
  8.39455937E-03 -7.72500000E-08 -1.21657000E-07 -5.83170986E-02  6.60972105E-01
 -1.61135799E+00 -8.20710440E-03  9.85044656E-02  2.05117874E-01  2.22008746E-01
  2.14990363E-01 -5.35953647E-01 -2.47893950E-02 -8.87416224E-03 -4.94649333E-02
  1.10437015E-02  4.14381411E-03 -5.83173089E-02  6.60977531E-01 -1.61139739E+00
  8.20680406E-03 -9.85044929E-02  2.05118628E-01 -2.22008063E-01 -2.14980379E-01
 -5.35964861E-01 -2.47901664E-02  8.87358328E-03  4.94648373E-02  1.10441737E-02
  4.14137350E-03  1.76586347E-01  7.06402959E-02  5.95173038E-02  2.71883152E-02
  9.19728150E-03  3.01305387E-01  2.91975106E-01 -2.55621312E-02  5.42678031E-03
  2.16644289E-02  3.01308435E-01  2.91976770E-01  2.55619877E-02 -5.42830058E-03
  2.16641447E-02  1.76588172E-01  7.06423269E-02 -5.95186521E-02 -2.71872938E-02
  9.19805880E-03 -2.98227763E-02  5.53890000E-01  1.91407724E+00  1.02039500E-06
  1.68573800E-06 -3.50975863E-03 -3.69434200E-06  1.45353200E-06 -1.45970253E+00
  1.39679564E-01 -8.23040000E-08 -8.73112000E-07 -6.15798757E-02 -1.71740189E-02
 -5.40317525E-02 -2.11149265E-01 -1.71749526E-01 -1.01177681E-02 -4.60765280E-01
  2.80238135E-02 -4.46992462E-02  1.00520380E+00 -3.75712007E-01 -6.04421401E-03
 -3.51324229E-03  1.04558074E-03 -6.28838786E-03 -9.36091886E-03 -5.40304964E-02
 -2.11142416E-01 -1.71763931E-01  1.01324674E-02  4.60763490E-01  2.80215786E-02
  4.46797565E-02 -1.00519992E+00 -3.75703406E-01 -6.04411688E-03  3.51368355E-03
 -1.04546728E-03 -6.28797326E-03 -9.36065812E-03  4.74908387E-02  3.07119168E-01
 -2.75256014E-01 -1.09165930E-05 -7.84463000E-07 -3.14806076E-01  1.36367070E-05
  1.04040500E-06  7.30744248E-01  7.36601655E-03  2.05524000E-07  6.17080000E-08
  3.52765223E-03  7.14230685E-03 -2.22644492E-03 -1.40190292E-02  3.92026996E-01
  6.68674015E-02 -6.89023606E-02  9.86618544E-03 -1.03725671E+00  8.34912491E-02
  4.29234433E-01  1.08923199E-01 -4.15848059E-02  5.15573514E-02 -1.99617912E-02
 -4.82279421E-03 -2.22725788E-03 -1.40151779E-02  3.92046017E-01 -6.68666665E-02
  6.89034052E-02  9.86592441E-03  1.03725644E+00 -8.35141892E-02  4.29258297E-01
  1.08923997E-01  4.15857671E-02 -5.15581573E-02 -1.99622040E-02 -4.82018185E-03
  2.08131404E-01  3.02133806E-01 -9.04512229E-02 -5.47584634E-03 -6.95141757E-02
 -2.89742063E-01 -2.54005088E-01 -1.73324452E-02  1.89234550E-03 -2.64119950E-02
 -2.89741924E-01 -2.53999345E-01  1.73322045E-02 -1.89055124E-03 -2.64124754E-02
  2.08133486E-01  3.02141781E-01  9.04523380E-02  5.47474417E-03 -6.95154836E-02
 -3.31340334E-02  2.46080410E-01 -1.83926868E+00 -8.57976000E-07  2.30882000E-07
 -6.83385164E-02  2.11988200E-06 -2.84346200E-06  6.15158111E-01  7.69747924E-02
 -2.16973000E-07  6.86045000E-07  6.47924387E-02 -1.02301425E-01 -9.07351521E-02
 -5.11227717E-01  9.03592048E-01  4.30442684E-01  2.79543921E-03 -2.85576387E-01
 -6.61036543E-01 -1.42849086E-01  6.37870887E-01 -6.18766451E-03 -5.17963853E-02
  1.95711853E-02 -1.70118077E-02 -1.38983633E-02 -9.07338160E-02 -5.11221390E-01
  9.03594741E-01 -4.30445396E-01 -2.79879688E-03 -2.85574112E-01  6.61039506E-01
  1.42854926E-01  6.37860655E-01 -6.18764932E-03  5.17962345E-02 -1.95706642E-02
 -1.70115676E-02 -1.38982812E-02 -3.88735046E-02 -2.36510269E-01  4.03736399E-01
  1.19635500E-06  4.15104500E-06 -2.04072291E-02 -1.55272400E-06 -4.91034800E-06
 -3.35722024E-02 -3.85090848E-03  7.06680000E-08 -2.24660000E-07 -1.46028209E-02
 -3.21204095E-02 -4.36534457E-03  4.73210655E-02 -3.09669991E-01 -8.28041165E-02
  2.16369203E-02  1.77177035E-02  1.97143706E-01 -1.33857871E-01 -9.96259480E-02
 -3.63983939E-02  7.52819286E-02  4.14708740E-03  2.01374248E-02 -7.74241024E-02
  4.36656453E-03 -4.73351085E-02  3.09692774E-01 -8.28030751E-02  2.16394084E-02
 -1.77234973E-02  1.97142021E-01 -1.33858647E-01  9.96351545E-02  3.63983748E-02
  7.52810347E-02  4.14493288E-03 -2.01377292E-02  7.74241441E-02 -2.40044861E-02
 -9.74869385E-02  5.73184214E-02 -5.56256677E-02  9.78495705E-02  5.36113916E-02
  9.70138393E-02  4.98540152E-03  5.60032537E-02 -7.90217368E-02 -5.36168410E-02
 -9.70143723E-02  4.98388079E-03  5.60039596E-02  7.90221344E-02  2.39998207E-02
  9.74856528E-02  5.73195560E-02 -5.56252169E-02 -9.78480467E-02  3.21116000E-07
 -5.05590600E-06 -1.93933640E-05  9.87653882E-02 -3.48797063E-02  6.49661000E-07
 -7.15211462E-01 -1.63135057E-02  1.42519890E-05 -1.23775900E-06 -8.17759588E-02
  9.13902781E-02  8.01500000E-09  6.39491000E-07 -3.11909667E-02 -1.91070315E-01
  1.50735420E-01 -6.63352533E-02 -2.28220086E-02 -8.27030286E-02  1.77488854E-01
 -2.16467985E-02  1.52286448E-01 -1.47691968E-02 -2.53969130E-02  7.08245886E-03
  8.64708483E-03  1.06610183E-02  3.11906206E-02  1.91066266E-01 -1.50720665E-01
 -6.63321328E-02 -2.28274545E-02  8.27053654E-02  1.77482319E-01 -2.16316536E-02
 -1.52284869E-01  1.47694062E-02 -2.53973777E-02  7.08231898E-03 -8.64711633E-03
 -1.06608190E-02 -6.05566000E-07 -3.97871100E-06  4.22706100E-06 -8.15509383E-01
  2.00352255E-01  3.98642200E-06  1.21553044E+00 -3.01922816E-01 -8.40023800E-06
 -1.03117000E-07  3.74527618E-02 -2.08381196E-02 -6.73820000E-08 -1.04550000E-08
 -3.75900447E-02  6.37607505E-01 -2.68454575E+00 -1.78404276E-02 -2.93726686E-02
  1.32673109E-01  1.42014574E-01 -3.73016662E-01 -2.86985904E-01  3.71435776E-02
  1.00094984E-02  3.46929853E-02  1.45393587E-02  1.37556944E-02  3.75907126E-02
 -6.37614627E-01  2.68456043E+00 -1.78382751E-02 -2.93654858E-02 -1.32680502E-01
  1.41966919E-01 -3.73027334E-01  2.87006180E-01 -3.71366527E-02  1.00029422E-02
  3.46757875E-02 -1.45397562E-02 -1.37534897E-02  1.97362306E-01  1.97211705E-01
  1.88299761E-02  2.53169751E-02 -3.39666713E-02  2.92391570E-01  3.36387566E-01
 -1.80250315E-03  1.39862288E-03 -4.93161852E-02 -2.92386719E-01 -3.36367257E-01
 -1.80868279E-03  1.40199274E-03  4.93056469E-02 -1.97373742E-01 -1.97217618E-01
  1.88353021E-02  2.53178313E-02  3.39624128E-02  7.77899000E-07 -1.28273620E-05
 -7.88200010E-05  8.81536824E-02 -1.29259163E-01  6.91953600E-06 -2.60481420E-01
 -4.39542304E-02  1.20167270E-05  3.86806000E-06 -5.68218866E-02  2.18656348E-02
  6.99009000E-07  6.67667200E-06  5.99546406E-02  3.07259754E-01 -6.84065741E-01
 -3.46789067E-02  4.43522987E-01  1.51126087E-01  6.64221601E-02 -7.34862770E-01
 -8.16973745E-02  6.37906219E-03  7.04459048E-03 -3.05805239E-02  4.86194493E-02
  2.00099187E-02 -5.99636910E-02 -3.07317996E-01  6.84167815E-01 -3.46523137E-02
  4.43524349E-01 -1.51150322E-01  6.63749653E-02 -7.34842836E-01  8.17611675E-02
 -6.38083827E-03  7.04213273E-03 -3.05869421E-02 -4.86211866E-02 -2.00110211E-02
 -2.47859000E-06 -1.53347100E-05  3.22085310E-05 -1.63815269E-01 -4.57860074E-01
 -3.06306000E-07  2.86752417E-01  5.88300626E-01 -3.58976600E-06  2.91143000E-07
  8.54653103E-03  2.66007011E-02 -1.50592800E-06  6.86520000E-08  6.79229534E-03
 -5.01734063E-02  8.38893588E-02 -3.05059583E-02 -5.76845296E-02 -6.79308948E-02
  9.12865387E-01  7.15233109E-02  7.92949501E-02  6.41763156E-02  1.01212389E-01
  2.11901351E-01 -4.15909200E-05  1.95259160E-02  6.78907410E-03 -5.01127198E-02
  8.36007831E-02  3.05078581E-02  5.76864316E-02 -6.79187653E-02 -9.12876526E-01
 -7.14502607E-02  7.92602795E-02  6.41803145E-02 -1.01215801E-01 -2.11904091E-01
 -3.94238970E-05  1.95288880E-02 -2.15757116E-01 -1.84357897E-01 -4.20383169E-02
 -3.09252100E-02 -2.72982141E-02  1.76738063E-01  3.06306542E-01  8.43289500E-02
 -3.21375505E-02 -1.65566450E-01  1.76764825E-01  3.06332571E-01 -8.43276238E-02
  3.21391179E-02 -1.65571694E-01 -2.15739545E-01 -1.84341484E-01  4.20379085E-02
  3.09239366E-02 -2.73009051E-02  2.50285249E-02 -3.54531453E-01 -1.48725832E+00
 -3.38861300E-06  1.76764000E-06  1.70227150E-01  1.79366030E-05  1.50156040E-05
  1.07610471E-01  7.98713161E-02  3.15635600E-06  1.92666300E-06 -5.72767132E-03
  1.92159187E-01 -9.10184199E-02 -5.99353022E-01  1.05523573E+00 -3.25409394E-01
 -6.43950187E-04 -2.36752162E-01  6.06067922E-01 -2.36619675E-01  6.37134891E-01
 -1.70105600E-02  5.05834247E-02  7.77131857E-02 -1.82097005E-02 -1.21378093E-02
 -9.10152363E-02 -5.99335714E-01  1.05518408E+00  3.25415505E-01  6.14733219E-04
 -2.36734987E-01 -6.06077964E-01  2.36663388E-01  6.37124529E-01 -1.70103480E-02
 -5.05835810E-02 -7.77098453E-02 -1.82060784E-02 -1.21370006E-02 -5.06386366E-02
 -3.16391281E-01  7.10379914E-01  1.10116380E-05  2.57678360E-05 -2.13709401E-02
 -1.94024310E-05 -3.79419760E-05 -6.07619804E-02  7.64028708E-03 -6.46625000E-07
 -1.83669900E-06 -3.37975607E-02  7.46016504E-03  4.98291679E-03 -2.27862824E-02
 -5.99894318E-01 -1.12852569E-02  2.61025618E-02 -6.45722326E-02 -4.88526861E-02
 -5.82891514E-01  1.62217331E-01 -9.71784150E-03  4.93625604E-02  2.06535737E-02
  9.67994001E-03 -2.75082339E-02 -4.98259968E-03  2.27840594E-02  5.99898251E-01
 -1.12831703E-02  2.61037758E-02  6.45694642E-02 -4.88777026E-02 -5.82891694E-01
 -1.62215045E-01  9.72003817E-03  4.93617443E-02  2.06480368E-02 -9.68013205E-03
  2.75095992E-02  3.64626698E-02  8.43260849E-03 -2.30017029E-02 -1.01844019E-01
  4.31466146E-02 -7.12916595E-03 -7.87474534E-02  1.10545017E-02  8.76915144E-03
 -3.52103982E-02  7.13261672E-03  7.87570915E-02  1.10504911E-02  8.77314941E-03
  3.52077725E-02 -3.64686070E-02 -8.43886011E-03 -2.30017718E-02 -1.01845691E-01
 -4.31483910E-02  4.28611000E-07 -6.43716100E-06 -2.63766290E-05 -3.76858821E-02
  2.64224677E-01  2.28931600E-06 -2.28217917E-01 -1.03400336E+00  4.59903700E-06
  5.53985000E-07  3.29382230E-02 -2.41123179E-01  3.73916000E-07  1.71007800E-06
 -1.26352460E-02 -1.86371195E-02  2.99404426E-01 -1.17757870E-01 -3.14769559E-01
  4.84596070E-02  1.92331904E-01  6.96524025E-01 -6.19590313E-02 -4.39945327E-03
 -1.01876310E-02 -1.67764192E-02 -4.29007452E-02 -1.72213418E-02  1.26324179E-02
  1.86180083E-02 -2.99366921E-01 -1.17752079E-01 -3.14771926E-01 -4.84649937E-02
  1.92319039E-01  6.96536939E-01  6.19754811E-02  4.39903302E-03 -1.01884438E-02
 -1.67784161E-02  4.29003288E-02  1.72210394E-02 -9.20903000E-07 -5.97375300E-06
  1.24159440E-05 -1.39442117E-01 -6.43047677E-01  2.90104000E-07  2.19454435E-01
  1.18754651E+00 -3.00399100E-06  8.91840000E-08  5.46328358E-03  5.63569661E-02
 -4.09091000E-07  1.93460000E-08  3.09795244E-03 -7.09486758E-02  1.57129316E-01
  9.72172613E-02 -1.86330573E-02  3.28258911E-02 -7.13816911E-01  7.94358838E-02
  1.14310329E-01 -2.57567155E-02  1.22764556E-01  8.23326455E-02  1.76652003E-02
 -1.83385166E-01  3.09792874E-03 -7.09613879E-02  1.57327750E-01 -9.72189270E-02
  1.86379728E-02  3.28335195E-02  7.13837008E-01 -7.94856013E-02  1.14366995E-01
 -2.57442586E-02 -1.22752253E-01 -8.23351882E-02  1.76588919E-02 -1.83370704E-01
  1.31358827E-01  1.93435549E-01 -1.23914420E-01 -3.27523446E-01  1.16217614E-01
 -1.63198647E-01 -2.58151954E-01 -1.25972547E-01  3.66720574E-01 -1.71556405E-01
 -1.63215154E-01 -2.58173703E-01  1.25972186E-01 -3.66708924E-01 -1.71544764E-01
  1.31358459E-01  1.93429297E-01  1.23928553E-01  3.27514693E-01  1.16198956E-01
 -2.60292518E-02  2.92963794E-01  3.13124156E-01  1.16643800E-06  1.17463400E-06
 -9.43205629E-02  3.83989840E-05 -5.87817670E-05  7.88543343E-02 -5.84019107E-03
 -2.05001000E-07  8.02966000E-07 -8.44904297E-02  1.52026872E-02  2.64617523E-02
  2.06477964E-01 -4.16807747E-01 -1.09544183E-02 -8.94894888E-02  3.00740058E-02
 -9.74250162E-02  2.75059195E-01 -1.32476001E-01  1.76694373E-02  3.21456736E-02
 -7.36590903E-03 -1.53456785E-02 -1.13635643E-02  2.64645284E-02  2.06492589E-01
 -4.16832496E-01  1.09891483E-02  8.94961648E-02  3.00874169E-02  9.73552259E-02
 -2.75075807E-01 -1.32545163E-01  1.76711979E-02 -3.21497825E-02  7.36762896E-03
 -1.53474099E-02 -1.13597839E-02  1.01260975E-02  7.45736816E-02 -2.48295906E-01
  7.83382100E-06 -1.14588970E-05  2.87720959E-02 -2.02440810E-05  2.79293120E-05
  2.17200592E-02 -5.64458502E-03 -1.15124700E-06  5.64099000E-07  1.31638806E-03
  6.47533032E-03  4.62167124E-03 -1.19373970E-02 -8.47307400E-01 -1.60488443E-02
  2.12684457E-02 -8.15030272E-02  2.24637235E-01 -1.60035239E-02 -4.14554108E-01
 -1.27036252E-01  1.46416360E-01 -2.01341804E-02  5.40168435E-02 -1.58944345E-01
 -4.62071098E-03  1.19323238E-02  8.47276253E-01 -1.60388097E-02  2.12664550E-02
  8.14893817E-02  2.24598617E-01 -1.60070909E-02  4.14547675E-01  1.27036257E-01
  1.46429810E-01 -2.01291446E-02 -5.40182367E-02  1.58961625E-01 -5.05539349E-02
  2.12773960E-02  1.51204729E-01 -7.23226716E-02  2.09317243E-01  1.00337550E-01
  1.80582343E-01 -2.61258675E-03  1.44741598E-01 -1.44947970E-01 -1.00326462E-01
 -1.80562483E-01 -2.62282964E-03  1.44774245E-01  1.44965281E-01  5.05472333E-02
 -2.12805652E-02  1.51195657E-01 -7.23535767E-02 -2.09326650E-01  1.22582100E-06
 -1.39275810E-05 -2.65343840E-05  3.26346540E-02  2.20346337E-03  4.57517900E-06
  8.93171356E-01 -9.94483582E-01  7.57262600E-06 -1.69274400E-06  3.90188768E-02
  4.64500015E-02  3.26612500E-06 -1.21936900E-06 -2.44575481E-02 -1.42921652E-01
  3.71672469E-01  4.16056895E-01  8.51431702E-02 -1.40209227E-01 -8.15066149E-01
 -2.32729364E-01  6.27653464E-01 -1.03839118E-02 -5.31767113E-02  1.77620072E-02
  1.53125870E-02 -3.66795961E-02  2.44532040E-02  1.42887824E-01 -3.71595818E-01
  4.16055089E-01  8.51368668E-02  1.40218432E-01 -8.15076144E-01 -2.32701427E-01
 -6.27669714E-01  1.03819553E-02 -5.31740296E-02  1.77622160E-02 -1.53114103E-02
  3.66807772E-02 -1.63334800E-06 -1.09194580E-05  1.90098920E-05  1.78161291E-01
 -1.71019136E-01  3.21218300E-06 -4.94940405E-01  4.23942267E-01 -1.05633350E-05
  1.38490000E-08 -3.68261189E-02  2.03253692E-03  1.55110000E-07 -2.03362000E-07
  2.14262791E-02 -1.04648198E-01 -1.26461755E+00 -5.98694177E-02  5.83447524E-02
 -2.49643727E-01 -3.69784480E-01  4.30805642E-01 -2.05982471E-01 -5.08483131E-02
 -7.08854692E-02  2.35483805E-01 -8.26201857E-03  2.17122782E-02  2.14273849E-02
 -1.04618320E-01 -1.26534545E+00  5.98733796E-02 -5.83604198E-02 -2.49674113E-01
  3.69805673E-01 -4.30659212E-01 -2.06189497E-01 -5.08833865E-02  7.09000915E-02
 -2.35468944E-01 -8.25267175E-03  2.17204712E-02  1.68200930E-01  3.33795908E-01
 -1.03440635E-01  5.70501242E-02 -9.49012636E-02  6.59296781E-02  1.79975079E-01
 -7.68924640E-03 -3.87695946E-02  9.66764437E-03  6.59650942E-02  1.80018169E-01
  7.70147865E-03  3.87506977E-02  9.70615760E-03  1.68230535E-01  3.33842826E-01
  1.03442251E-01 -5.70686174E-02 -9.49162482E-02 -1.05404904E-02  3.99866124E-02
 -4.29847532E-01 -7.05043300E-06  1.52125600E-05 -2.56012900E-02 -3.68520810E-05
  2.37500009E-04  1.54160743E-01 -9.96632255E-02  3.06176710E-05 -1.29543240E-05
 -7.02841634E-02  7.35497189E-02 -6.02075311E-02 -5.00928404E-01  1.33711712E+00
  7.05563471E-02 -1.71291636E-01  4.20184495E-01 -6.44795885E-02  1.79025868E-01
 -1.20562442E+00 -6.14385844E-02  3.65949493E-02 -1.51123943E-02 -1.15984010E-02
 -2.80180891E-02 -6.02065732E-02 -5.00921461E-01  1.33713249E+00 -7.05530257E-02
  1.71293575E-01  4.20100255E-01  6.44819063E-02 -1.78985871E-01 -1.20526377E+00
 -6.14304591E-02 -3.65904815E-02  1.50971223E-02 -1.15932339E-02 -2.80282258E-02
 -1.12429405E-01 -7.15611182E-01  1.02670551E+00 -2.64760600E-06  2.51724950E-05
  2.93861696E-01 -3.72652100E-06 -8.18585010E-05 -7.15249397E-01 -3.25618497E-02
 -6.08430900E-06 -1.26510400E-06  2.19630334E-02  2.35248767E-02 -6.62056464E-03
 -1.42558043E-01  3.65636816E+00  2.26738255E-02 -7.72984901E-02  1.43180994E-01
  1.82446683E-01  7.81927628E-01  1.06493727E+00  1.63138513E-01  1.27090361E-01
  8.16733692E-02 -3.69778594E-02 -7.83342939E-02  6.61672235E-03  1.42574925E-01
 -3.65611725E+00  2.26601810E-02 -7.72863594E-02 -1.43133668E-01  1.82340112E-01
  7.82008087E-01 -1.06489720E+00 -1.63127065E-01  1.27073433E-01  8.17171330E-02
  3.69783234E-02  7.83283632E-02 -1.51765309E-01 -2.35821671E-01  3.00118653E-02
 -1.06909233E-01  1.02996632E-01 -1.61066401E-01 -1.73462765E-01  6.82325860E-02
 -8.59636244E-02 -2.28982326E-01  1.61061096E-01  1.73440479E-01  6.82282882E-02
 -8.59741845E-02  2.28980256E-01  1.51726932E-01  2.35743987E-01  2.99945211E-02
 -1.06894613E-01 -1.02981649E-01  9.84699000E-07 -4.37906400E-06  3.71237470E-05
 -6.99754349E-02  1.58982212E-01  4.11552000E-07 -3.06746429E-01  2.37111834E+00
 -1.74313440E-05  7.92004100E-06  3.33951005E-01 -1.28680676E-01  5.17724700E-06
 -7.65736100E-06 -5.96102030E-03 -4.30004669E-02 -4.08821378E-02  4.90885502E-02
  1.63944433E-02  4.13126639E-01 -4.83775400E-02  1.89374831E-01 -1.80447876E+00
 -4.60909461E-02  1.22227270E-02 -7.93219924E-02 -2.54069315E-02  4.76584811E-02
  5.97263396E-03  4.30991256E-02  4.06140053E-02  4.91010570E-02  1.63611255E-02
 -4.13206568E-01 -4.83857118E-02  1.89407834E-01  1.80471321E+00  4.61041389E-02
  1.22292852E-02 -7.93243564E-02  2.54092812E-02 -4.76535440E-02  1.05027330E-05
  6.60315690E-05 -9.02104930E-05 -2.42195881E-02  2.45315653E-01 -2.85956990E-05
 -6.80054217E-02 -8.12928354E-01  6.56180580E-05  3.10834400E-06 -6.94823003E-02
 -1.43479195E-02 -2.34528900E-06 -2.30052700E-06  6.48719662E-03  7.66223212E-02
 -1.87142549E+00  1.44508544E-03  2.84774176E-02 -2.02737680E-01  6.37966953E-02
  1.17724826E-01 -1.67842441E-01 -8.53760372E-02  7.60944173E-02  1.59128176E-01
  1.02514576E-02  1.00094740E-01 -6.48936588E-03 -7.65696963E-02  1.87124085E+00
  1.45092605E-03  2.84585189E-02  2.02710638E-01  6.38510749E-02  1.17762951E-01
  1.67736914E-01  8.53564975E-02  7.61109794E-02  1.59168188E-01 -1.02357650E-02
 -1.00108654E-01  1.90449291E-01  2.74322306E-01 -1.93462774E-01 -3.41105587E-01
 -8.30638385E-02  1.64955237E-01  3.43951278E-01 -5.42158235E-03  8.10294655E-02
  2.48102912E-02 -1.64955652E-01 -3.43943619E-01 -5.40901888E-03  8.10099154E-02
 -2.48185791E-02 -1.90439598E-01 -2.74301385E-01 -1.93514079E-01 -3.41095312E-01
  8.31262133E-02  9.95728500E-06 -1.08353413E-04 -1.39870870E-04 -3.27974270E-05
  1.43589632E-01  1.00824570E-05 -1.92368228E-01  1.12333324E+00 -1.46729486E-04
 -1.52792970E-05 -1.30845641E-02 -8.28861567E-02  2.95468260E-05 -1.84422220E-05
  1.51530083E-01  1.11580279E+00 -2.45004142E+00  1.26172831E-01 -8.44489163E-02
 -7.16064611E-02 -4.05844512E-01  3.67871567E-01  2.37105223E-01  7.34420934E-02
 -5.03549933E-02 -4.35171055E-02 -1.62553540E-02 -5.41005179E-02 -1.51547174E-01
 -1.11594189E+00  2.45034952E+00  1.26180367E-01 -8.44574490E-02  7.16165128E-02
 -4.05884529E-01  3.67951796E-01 -2.37116608E-01 -7.34478323E-02 -5.03413047E-02
 -4.35144523E-02  1.62615147E-02  5.41137317E-02 -1.35847720E-05 -1.03010266E-04
  2.90370809E-04 -4.87578949E-02  1.83112389E-01 -2.66591600E-06  1.18747658E-01
 -5.21209896E-01 -8.29681020E-05 -2.28221600E-06  7.15689651E-03 -3.49996780E-02
  1.57489300E-06 -3.18205600E-06  1.28866162E-02 -2.97187449E-01  9.50846748E-01
  1.70567685E-02 -7.87407264E-02  1.10624040E-01  7.70670943E-02  1.79337754E-01
  5.69004814E-01  1.03204292E-01  4.34040077E-02  2.15704746E-01 -6.79864131E-02
  6.35735328E-02  1.28849100E-02 -2.97202006E-01  9.51256120E-01 -1.70551491E-02
  7.87474111E-02  1.10666234E-01 -7.70464065E-02 -1.79318511E-01  5.69070904E-01
  1.03227926E-01 -4.33899688E-02 -2.15671828E-01 -6.79905054E-02  6.35571251E-02
 -3.50361003E-02 -3.41322748E-02 -2.35230623E-01  7.08518474E-02 -2.89343887E-01
 -4.05870088E-02 -9.85748652E-02  4.78505009E-02 -7.57770143E-02  1.75668103E-02
 -4.06226820E-02 -9.86512006E-02 -4.78471327E-02  7.57939845E-02  1.75584793E-02
 -3.50684099E-02 -3.41817031E-02  2.35199310E-01 -7.09223134E-02 -2.89331985E-01
 -1.05204733E-01  1.15701780E+00  1.41081396E+00 -4.83229000E-07  1.57883390E-05
 -5.22538181E-02 -1.90452030E-05  1.15442437E-04  1.88460342E+00  1.89820373E-01
 -4.62007500E-06 -9.53847100E-06 -2.61120812E-01  1.40683983E-01  7.83965462E-02
  6.36007345E-01 -1.34548038E+00  3.61964262E-02 -3.11821367E-02 -2.83290927E-02
 -1.88794634E-01  3.27047555E-01 -6.48931460E-03  2.05841212E-02  5.32160295E-02
  1.49416031E-02 -3.81796976E-02 -6.58373629E-02  7.83643023E-02  6.35767726E-01
 -1.34494463E+00 -3.61716829E-02  3.11646325E-02 -2.83159294E-02  1.88709161E-01
 -3.26968657E-01 -6.54587447E-03  2.05679139E-02 -5.32266696E-02 -1.49504698E-02
 -3.81769226E-02 -6.58248677E-02  1.50809128E-01  1.15788920E+00 -3.37447802E+00
 -4.16765100E-06  1.85964360E-05  6.33897276E-02  1.36254450E-05 -5.32238930E-05
  9.23999460E-01  2.81998615E-02  1.72533800E-06 -3.51587000E-06 -1.15070059E-02
  2.66585533E-02  3.06386815E-02 -3.33197923E-01  9.97563992E-02 -1.61073677E-02
  7.75702189E-03 -1.70144157E-01 -5.66390432E-01  2.59534100E-01  2.53772426E-01
 -2.95624156E-02 -9.86453759E-03  1.58310437E-01 -2.58824906E-02  1.13187970E-02
  3.06393458E-02 -3.33203795E-01  9.97692668E-02  1.61047133E-02 -7.75665455E-03
 -1.70148511E-01  5.66389270E-01 -2.59550637E-01  2.53767860E-01 -2.95680610E-02
  9.86130557E-03 -1.58312170E-01 -2.58795124E-02  1.13188099E-02  1.21210499E-01
  2.66082457E-01  1.28141101E-01  5.28405383E-02  1.27446671E-01 -1.25443417E-01
 -1.21228155E-01  9.18619033E-02 -1.67760821E-02 -2.17120090E-01 -1.25444897E-01
 -1.21227137E-01 -9.18592132E-02  1.67726191E-02 -2.17116545E-01  1.21209423E-01
  2.66085074E-01 -1.28141509E-01 -5.28334125E-02  1.27449695E-01 -5.43192988E-02
  7.10036031E-01  2.92653812E-01  6.02952000E-07 -4.29343800E-06  3.21443443E-01
  9.02180300E-06 -2.82314090E-05  3.09344962E+00  2.73391895E-01  1.15185920E-05
  6.02214400E-06  3.21005269E-01 -4.46065115E-01 -3.46735824E-02 -3.28289525E-01
  1.23577491E+00 -3.67232275E-02  3.23255901E-02  1.34371522E-01  2.26861383E-01
 -3.78313943E-01 -4.88361392E-01 -6.30001217E-02 -8.75124021E-02 -1.55852116E-03
 -7.41681118E-02  7.49894515E-02 -3.46693999E-02 -3.28256963E-01  1.23569999E+00
  3.67195195E-02 -3.23238041E-02  1.34375481E-01 -2.26845998E-01  3.78299868E-01
 -4.88374530E-01 -6.29987245E-02  8.75128830E-02  1.55953110E-03 -7.41668583E-02
  7.49834957E-02  1.31316700E-01  1.08841128E+00 -3.76073744E+00 -8.85413000E-07
 -3.78915100E-06  2.28199566E-01 -4.87404000E-06  9.48045800E-06  8.34299335E-01
  4.00171034E-02 -3.02284800E-06 -3.13051000E-07  4.19434595E-02 -5.22347764E-02
  2.02885688E-02 -1.74492019E-01  1.04702943E+00  5.66509194E-02 -9.61236661E-02
  2.50866700E-02  5.75917807E-02 -1.79669919E-01  1.82618259E-02  2.05575553E-03
  2.79922002E-02 -8.98588137E-02  4.46977128E-02 -4.95694460E-02 -2.02880330E-02
  1.74485781E-01 -1.04703202E+00  5.66498218E-02 -9.61249618E-02 -2.50942376E-02
  5.76058642E-02 -1.79673491E-01 -1.82551783E-02 -2.05821576E-03  2.79885415E-02
 -8.98592516E-02 -4.46950601E-02  4.95701849E-02 -1.71584944E-01 -1.64337015E-01
  8.14636305E-02  7.25815263E-02  8.20982676E-02 -9.43311667E-02 -1.89509222E-01
 -5.96305275E-02  1.86790378E-01  3.90777950E-02  9.43258686E-02  1.89507418E-01
 -5.96338311E-02  1.86789995E-01 -3.90884381E-02  1.71590103E-01  1.64344969E-01
  8.14547593E-02  7.25784322E-02 -8.20937850E-02 -1.53653000E-07  4.00478200E-06
 -5.70858200E-06 -6.72132930E-02  2.07363020E-01  5.82703400E-06 -3.34738741E-01
  1.37625069E+00  4.20722650E-05  3.70989200E-06 -6.48215961E-01 -3.61195540E-01
  5.05306800E-06 -6.97314300E-06  2.29643945E-02  2.26437692E-01 -7.93600179E-01
  8.53451981E-03  4.04368321E-03  2.16647562E-01 -1.90633008E-01  2.89715418E-01
 -8.79486546E-01 -3.23466477E-02  3.55916290E-02 -1.36590404E-02  3.58709982E-02
 -1.34440728E-01 -2.29667321E-02 -2.26456585E-01  7.93653567E-01  8.53559448E-03
  4.04033895E-03 -2.16642567E-01 -1.90640259E-01  2.89735851E-01  8.79475312E-01
  3.23453077E-02  3.55938606E-02 -1.36592952E-02 -3.58724581E-02  1.34444440E-01
  1.51485100E-06  1.25075000E-05 -4.38906240E-05  1.07673074E-01  1.61917989E-01
  2.52768600E-06  2.24495984E-01 -3.91355914E-01  9.14918300E-06  3.68591000E-07
  1.71572176E-01  4.53738811E-02  6.48021000E-07 -8.95518000E-07  2.73325201E-02
 -1.67130115E-01 -3.29769646E-01 -8.66139940E-02  3.88728008E-03 -1.94411894E-01
 -1.83493618E-01  1.98273392E-01 -2.48880987E-01 -1.42705824E-01 -9.53790935E-02
 -6.26748218E-02 -7.35605415E-02 -4.89778029E-02  2.73322489E-02 -1.67124674E-01
 -3.29833479E-01  8.66135479E-02 -3.88969463E-03 -1.94416530E-01  1.83499611E-01
 -1.98278602E-01 -2.48881006E-01 -1.42707042E-01  9.53807194E-02  6.26717961E-02
 -7.35616417E-02 -4.89803630E-02  3.31798324E-02  6.79337106E-02 -3.01043628E-02
 -2.00145692E-01  1.40268326E-01  1.64447353E-02  5.23601157E-02 -1.44148415E-01
 -6.31048128E-02  2.62649222E-01  1.64508953E-02  5.23699160E-02  1.44140350E-01
  6.31127539E-02  2.62638927E-01  3.31875134E-02  6.79469814E-02  3.00996461E-02
  2.00144161E-01  1.40270693E-01  7.56553959E-03  7.95360490E-02 -3.50400632E-01
  4.14625000E-07  1.19914700E-06  4.36336726E-01  5.12400000E-09  7.65708300E-06
  2.68769574E+00  2.23911785E-01  3.58208000E-06 -1.59588900E-06 -6.42311152E-02
  3.69467443E-01 -9.01449079E-02 -7.91992175E-01  2.35688972E+00  2.73203192E-02
  1.44951270E-01  4.81898911E-02  7.08765814E-02 -9.09953661E-01 -3.39783928E-01
 -5.68636377E-02  4.56035458E-02  2.52806892E-02  6.59510654E-02 -4.74848384E-02
 -9.01425736E-02 -7.91977165E-01  2.35686706E+00 -2.73200163E-02 -1.44948390E-01
  4.81825633E-02 -7.08786984E-02  9.09951907E-01 -3.39756788E-01 -5.68611876E-02
 -4.56052178E-02 -2.52815906E-02  6.59506554E-02 -4.74852156E-02  1.09743948E-01
  8.89848860E-01 -2.95564200E+00 -7.32942000E-07 -1.03640000E-08  1.26824805E-01
  3.94277000E-07 -1.22530400E-06  6.98453451E-01  4.94931417E-02 -8.42528000E-07
  2.20451000E-07 -2.87550688E-02  3.25726576E-02  4.09046153E-02 -2.39642165E-01
 -1.22140048E-01  1.14876467E-02 -2.99141730E-01  2.59215936E-03  1.71712115E-01
  6.80762414E-01  2.60817513E-02 -1.78128756E-01  3.66310781E-02  1.87003921E-02
 -3.85309233E-01  3.05818149E-02  4.09039190E-02 -2.39659349E-01 -1.21777006E-01
 -1.14670679E-02  2.99148215E-01  2.61859823E-03 -1.71819897E-01 -6.80819054E-01
  2.61203779E-02 -1.78112877E-01 -3.66457024E-02 -1.86967314E-02 -3.85311734E-01
  3.05718627E-02  1.20033370E-01 -1.98382026E-02  4.10677416E-04 -3.05188405E-01
  1.09307935E-02  1.69408163E-01  6.54260315E-02  1.86297851E-02 -2.90912608E-01
  2.87265480E-02  1.69413091E-01  6.54284933E-02 -1.85731209E-02  2.90862402E-01
  2.87694486E-02  1.19987612E-01 -1.99102606E-02 -3.48888036E-04  3.05219318E-01
  1.09109392E-02 -1.58630763E-03 -5.78550138E-04 -3.13926386E-03 -3.65227100E-06
  8.11485100E-06 -9.14473093E-02 -8.52160700E-06  1.90199450E-05 -9.15956065E-01
 -3.12949221E-02 -9.24953900E-06 -1.03343400E-06  4.13373019E-02 -1.75564512E-01
  3.89769495E-02  2.51946073E-01 -5.55090165E-01 -3.96577706E-03 -1.31964561E-01
 -9.47843589E-02  4.80122083E-02  5.11398401E-01  4.86598873E-02 -1.27102016E-02
 -1.01866107E-02 -2.69497363E-02 -5.46460263E-02  4.01304789E-02  3.89606330E-02
  2.51822212E-01 -5.54817351E-01  3.96228569E-03  1.31944336E-01 -9.47721412E-02
 -4.80067899E-02 -5.11335998E-01  4.85841739E-02 -1.27242249E-02  1.01922475E-02
  2.69526225E-02 -5.46387913E-02  4.01352320E-02 -5.57497899E-02 -4.13878373E-01
  1.13922456E+00  1.56165600E-06  4.06563600E-06  3.70103516E-02  4.24442900E-06
 -1.16172160E-05 -3.23404474E-01 -2.08925155E-02  3.52521300E-06 -1.74656500E-06
  1.07187550E-02 -1.70653532E-02  3.30975355E-03  9.40527848E-02 -1.90456368E+00
  1.28629801E-01  3.15658860E-02 -1.29900381E-01 -6.75403925E-01 -3.58384092E-01
 -1.89462204E-01 -7.95719670E-02 -9.02691772E-02  4.24971875E-03  1.25500380E-02
  1.30951394E-01 -3.31682565E-03 -9.40045104E-02  1.90454600E+00  1.28638578E-01
  3.15115569E-02  1.29894195E-01 -6.75369308E-01 -3.58270130E-01  1.89444700E-01
  7.96055992E-02 -9.02563727E-02  4.26278281E-03 -1.24878231E-02 -1.30958735E-01
  2.77287867E-01  3.99794502E-01  3.84959782E-01  1.74515652E-01  1.32266532E-01
 -8.38032225E-02 -6.79528542E-02  3.34787635E-01 -2.44107466E-01 -2.67479477E-01
  8.37842370E-02  6.79429651E-02  3.34797579E-01 -2.44156661E-01  2.67476965E-01
 -2.77302905E-01 -3.99782750E-01  3.84965988E-01  1.74469144E-01 -1.32262906E-01
  6.59117000E-07 -3.66811000E-06 -9.00801800E-06 -4.27107263E-02  6.44675227E-02
  1.29157560E-05 -8.14312504E-02  9.88942064E-02  1.07242395E-04  3.88327100E-06
 -7.19639931E-02  1.09989341E-02 -2.06777100E-06  1.53924830E-05  7.64600083E-02
  5.81614927E-01 -1.29063362E+00 -3.98223919E-02 -1.04021112E-01 -5.82190972E-02
  1.12218802E-01  3.09687608E-01  4.11319414E-01  7.59706897E-02  4.66603767E-02
  2.32314459E-02 -4.20055615E-02 -1.35596255E-02 -7.64709088E-02 -5.81691000E-01
  1.29081553E+00 -3.98203553E-02 -1.04047869E-01  5.82410260E-02  1.12215746E-01
  3.09802727E-01 -4.11344533E-01 -7.59691754E-02  4.66601680E-02  2.32277415E-02
  4.20180441E-02  1.35530347E-02  5.70394100E-06  4.30628850E-05 -1.23495640E-04
  1.57279934E-02  3.03643505E-02 -2.81921500E-06  3.80330411E-02 -8.84599156E-02
  3.34496430E-05  2.31083800E-06  3.24174439E-02 -1.89360790E-02 -1.06180200E-06
  1.35943300E-06  2.69501460E-02  8.91086896E-02 -2.73571557E+00  6.77935964E-02
 -1.03939026E-01 -1.24891356E-02 -1.98139277E-02 -1.64169663E+00 -7.81338160E-01
 -1.70176753E-01 -6.71198606E-03 -1.52270116E-01  1.82214208E-01  1.48612907E-01
 -2.69505894E-02 -8.91013957E-02  2.73570341E+00  6.77920770E-02 -1.03939449E-01
  1.24950848E-02 -1.98520546E-02 -1.64169347E+00  7.81325339E-01  1.70171075E-01
 -6.72249618E-03 -1.52274797E-01 -1.82212340E-01 -1.48608733E-01 -5.43417010E-03
 -1.35079749E-01  1.73993672E-01  1.81520761E-01  3.49981184E-03 -8.11859168E-02
  9.97458446E-02 -4.41700610E-03  4.17122658E-01  2.43841777E-01  8.11890898E-02
 -9.97330585E-02 -4.41237418E-03  4.17118613E-01 -2.43827953E-01  5.42983765E-03
  1.35068400E-01  1.74002318E-01  1.81524108E-01 -3.50501871E-03  7.69562000E-07
 -9.31839000E-06  3.29466800E-06 -6.78088002E-02  2.49668937E-01 -2.47666600E-06
 -4.28460610E-01  6.96336601E-01 -4.38074980E-05 -3.39419000E-06  4.19225772E-01
 -7.18813443E-02  9.87985600E-06 -7.47088600E-06  3.38652392E-02  3.91607420E-01
 -1.53000550E+00 -5.30911664E-02  8.66861111E-03  1.49484425E-01  3.88338278E-02
  4.44762599E-01 -2.61506091E-01 -1.22928246E-02 -3.41685735E-02  3.51551203E-03
 -6.89977286E-02  9.70331408E-03 -3.38632113E-02 -3.91594557E-01  1.52997141E+00
 -5.30903623E-02  8.67338257E-03 -1.49487405E-01  3.88200366E-02  4.44743231E-01
  2.61517242E-01  1.22929196E-02 -3.41705549E-02  3.51321684E-03  6.89929044E-02
 -9.69677514E-03 -1.56765800E-06 -1.30700340E-05  4.68130040E-05 -1.33358418E-01
  2.85785637E-02 -1.90213000E-06  1.24080725E-01 -1.89910220E-01 -1.02886330E-05
 -5.04047000E-07 -1.05962891E-01 -2.04657691E-02  1.39603500E-06 -8.80822000E-07
  1.39426058E-02 -1.28652585E-01  1.95904943E-01  9.03621320E-02  9.34725803E-03
  6.49498896E-02 -1.71993940E+00  7.39375460E-02  6.76297363E-02 -1.66879123E-01
 -5.91955418E-02  1.71243580E-01  5.59481004E-02 -2.44175653E-02  1.39442444E-02
 -1.28611809E-01  1.95187788E-01 -9.02919876E-02 -9.35088283E-03  6.49430524E-02
  1.71989140E+00 -7.37172668E-02  6.73850168E-02 -1.66916134E-01  5.92890812E-02
 -1.71236138E-01  5.59662297E-02 -2.45288747E-02  2.71295145E-01  5.05493944E-01
  2.66754407E-01  1.17632510E-01  3.65158499E-01 -4.62055238E-01 -5.38933749E-01
  2.66075183E-01 -1.26503317E-01 -1.23259227E-01 -4.61973635E-01 -5.38927576E-01
 -2.65995208E-01  1.26559757E-01 -1.23256279E-01  2.71237313E-01  5.05553848E-01
 -2.66705665E-01 -1.17699918E-01  3.65227562E-01 -3.49894355E-02  3.33123147E-01
 -2.48860662E-02  1.05255900E-06 -3.31113140E-05 -8.82161336E-02  5.09450840E-05
 -6.94719480E-05  8.32590715E-02  4.52045337E-02 -1.76919580E-05  1.92108300E-06
 -1.80390795E-01  3.33170609E-01  5.34616098E-02  2.95767267E-01 -2.39674585E-01
  1.33964031E-01 -8.49224673E-02 -1.21831977E-01 -5.19960326E-01  1.98572980E-01
 -3.90094127E-02 -6.12192153E-02  1.17285465E-02  7.69337770E-03  2.38902637E-02
 -1.10579203E-01  5.34870022E-02  2.95979550E-01 -2.40241260E-01 -1.33980325E-01
  8.49443243E-02 -1.21816466E-01  5.20018728E-01 -1.98701357E-01 -3.89695954E-02
 -6.11997516E-02 -1.17310793E-02 -7.69988027E-03  2.38676693E-02 -1.10576162E-01
 -1.58112308E-02 -8.54573899E-02  1.02262235E-02  1.24066390E-05 -2.84654200E-06
  7.63150148E-02 -2.36884950E-05  2.25136970E-05 -5.90236729E-02 -1.01538232E-02
  2.40042900E-06  4.69093400E-06 -1.46726294E-02  4.77018872E-02 -7.54329447E-03
 -1.57282463E-01  2.68479291E+00  1.92843407E-01 -2.89605901E-03  2.44939339E-02
 -1.00684593E-01  8.93823086E-01  8.44245571E-01  1.24779493E-01  2.54282458E-01
  2.74574739E-02 -7.14071101E-02  3.39657381E-01  7.53909892E-03  1.57325922E-01
 -2.68486809E+00  1.92869444E-01 -2.89117149E-03 -2.45113799E-02 -1.01304721E-01
  8.93840846E-01 -8.44283917E-01 -1.24725534E-01  2.54258719E-01  2.75065687E-02
  7.13801335E-02 -3.39647604E-01  1.41735051E-01 -2.05186812E-01  1.25715255E-01
 -2.46096213E-01 -1.97085768E-01 -2.50216919E-01 -3.30401338E-02  2.03459048E-01
  1.69512783E-01 -1.33233029E-02  2.50383008E-01  3.32411568E-02  2.03544343E-01
  1.69471094E-01  1.33748800E-02 -1.41833530E-01  2.04998107E-01  1.25803101E-01
 -2.46050979E-01  1.96961000E-01  5.82827500E-06 -5.72946630E-05  1.00448260E-05
  1.77942206E-02 -2.24269153E-01  1.26689720E-05  3.23508200E-01 -4.91760235E-01
 -3.84608710E-05 -7.81494200E-06 -1.31120781E-01  2.57949300E-02  3.25288110E-05
 -5.73637320E-05 -8.28880495E-02 -7.01028081E-01  1.93911608E+00 -4.36991301E-02
  6.59060722E-02 -5.24567872E-02  1.87827443E-01 -4.33279776E-01 -1.29666578E-01
 -5.32950152E-02  6.23486809E-03 -1.74922935E-02  7.06079403E-02 -4.89286428E-03
  8.28716747E-02  7.00938891E-01 -1.93905746E+00 -4.36552214E-02  6.58813274E-02
  5.24954331E-02  1.87651571E-01 -4.33228276E-01  1.29681472E-01  5.33152198E-02
  6.23826585E-03 -1.74916844E-02 -7.06190854E-02  4.93039119E-03  1.83707300E-06
  7.45044500E-06  2.13617520E-05  7.87658161E-02 -2.31669166E-02 -1.27338180E-05
 -1.43672053E-01  1.59179099E-01  4.60109700E-06  1.33346200E-06  2.10631737E-02
  3.07146657E-02  3.08032600E-06 -8.11178200E-06 -5.51305941E-03 -1.07086712E-01
  1.76467715E+00  2.74911699E-02  1.48217016E-01  3.19780447E-02 -2.42828226E-02
  1.13926264E+00 -8.75861989E-01 -1.84286341E-01 -9.65891651E-02  8.35168284E-02
  1.54424918E-02  7.56280274E-02  5.51332238E-03  1.07089275E-01 -1.76469310E+00
  2.74888703E-02  1.48209421E-01 -3.19723388E-02 -2.43044685E-02  1.13927036E+00
  8.75828955E-01  1.84271523E-01 -9.65942334E-02  8.35027915E-02 -1.54307092E-02
 -7.56260068E-02 -1.91488044E-01 -1.34217376E-01  4.77294836E-02 -3.26412264E-01
  3.98318208E-01 -1.26567173E-01 -4.53342875E-02  1.26651933E-01 -2.36727902E-01
  4.25600370E-01  1.26562995E-01  4.53480851E-02  1.26646241E-01 -2.36729724E-01
 -4.25575259E-01  1.91479502E-01  1.34207287E-01  4.77339844E-02 -3.26413110E-01
 -3.98308273E-01  7.44645000E-07 -8.32007500E-06 -5.46281100E-06  3.81735615E-02
 -1.13228753E-01  1.17740000E-07  1.08350387E-01 -1.99702781E-01 -2.30738690E-05
 -5.39952000E-07 -8.49957976E-02  1.28891952E-01  1.44511450E-05 -5.25627600E-06
 -3.54912753E-02 -1.85862286E-01  3.64892252E-02 -1.52518193E-02  6.44902870E-02
  1.86435228E-01 -2.28544105E-02 -3.33741949E-01  6.02216502E-02  6.67679853E-02
 -1.84005492E-02 -2.54466815E-02  5.08721227E-02  2.68909037E-02  3.54935914E-02
  1.85868104E-01 -3.64749456E-02 -1.52530211E-02  6.44957681E-02 -1.86444259E-01
 -2.28704470E-02 -3.33745461E-01 -6.02113327E-02 -6.67720164E-02 -1.84044105E-02
 -2.54506946E-02 -5.08763449E-02 -2.68848493E-02 -9.81490000E-07 -7.79000500E-06
  2.73393950E-05  2.98478823E-02 -4.63476080E-02 -8.09588000E-07 -4.10421021E-02
  7.84210751E-02 -5.76377600E-06 -2.33964000E-07  1.42863350E-02 -9.75776654E-03
  2.05711100E-06 -9.64689000E-07 -1.04674881E-03 -4.77497548E-02  1.36414578E-01
  6.31893141E-02 -1.23914834E-01 -1.51880528E-01 -1.02029012E+00  1.42026033E-01
  4.97307758E-01  1.28433180E-01  4.82233046E-02 -2.56483446E-01 -1.41777482E-01
 -4.67654640E-02 -1.04725532E-03 -4.77525526E-02  1.36458075E-01 -6.31880944E-02
  1.23920046E-01 -1.51887025E-01  1.02029722E+00 -1.42035592E-01  4.97389006E-01
  1.28444154E-01 -4.82382350E-02  2.56487130E-01 -1.41783123E-01 -4.67878200E-02
  3.09291549E-01  3.37522553E-01  2.44115223E-01  2.42998735E-02 -1.47275432E-01
 -1.42118407E-01 -3.75895867E-01  1.03057082E-02 -7.59246986E-02 -4.08908590E-01
 -1.42114253E-01 -3.75908846E-01 -1.02975087E-02  7.59400336E-02 -4.08932193E-01
  3.09301179E-01  3.37535604E-01 -2.44114020E-01 -2.43207309E-02 -1.47301792E-01
 -8.21815157E-03  1.35616188E-01 -4.12358507E-02  3.19179000E-07 -3.88679700E-06
  3.27707239E-02  1.18705700E-06 -1.50396140E-05  6.91549881E-01 -1.60935554E-03
  5.05523400E-06  6.02173500E-06 -4.53547380E-01  6.71984351E-02 -5.79471239E-02
 -2.53211778E-01  1.42200779E-01 -2.91199049E-03  1.08226777E-01  1.36781484E-01
 -2.43383826E-01 -1.33256071E-01 -2.12702074E-01  8.60126706E-02 -9.47665150E-03
 -6.71339486E-02  5.16612021E-02 -4.94584461E-02 -5.79436331E-02 -2.53193724E-01
  1.42206683E-01  2.90905317E-03 -1.08221800E-01  1.36767092E-01  2.43390778E-01
  1.33238555E-01 -2.12713603E-01  8.60064926E-02  9.47964079E-03  6.71332974E-02
  5.16592248E-02 -4.94627556E-02  2.26773108E-02  1.84184384E-01 -6.71631052E-01
 -9.28879000E-07 -2.67510300E-06  1.21053549E-02 -7.10030000E-07  5.51949400E-06
  1.29661768E-01  6.76916884E-03 -1.71054000E-06 -3.79940000E-07 -7.02719706E-02
  8.80079722E-03  1.18205978E-02  1.53887254E-02 -6.14399853E-01  2.30261741E-01
  6.83583446E-02 -1.06669712E-01 -3.22205845E-01  2.86886951E-02 -3.06720019E-01
 -3.18979866E-01  2.35233097E-01  5.14993387E-02  1.48074897E-01  1.75935559E-02
  1.18202266E-02  1.53889469E-02 -6.14331172E-01 -2.30267381E-01 -6.83578125E-02
 -1.06674375E-01  3.22194065E-01 -2.87077274E-02 -3.06741120E-01 -3.18984443E-01
 -2.35244060E-01 -5.14905550E-02  1.48078035E-01  1.75852901E-02  1.28203137E-01
 -2.85500011E-02  7.87010404E-02 -6.86919043E-02 -2.33554271E-01 -1.17551199E-01
  2.05328513E-01  2.71360681E-01  8.21982060E-02  2.26652368E-01 -1.17553217E-01
  2.05328031E-01 -2.71363496E-01 -8.21915742E-02  2.26676304E-01  1.28194917E-01
 -2.85697605E-02 -7.87071240E-02  6.86988724E-02 -2.33553932E-01  2.58074558E-02
 -2.39134565E-01  2.45146963E-01  8.36353000E-07 -2.00487000E-06  5.47098497E-02
  3.02355700E-06 -1.37756870E-05 -6.01939668E-02 -1.08675525E-01 -2.39910500E-06
  6.00088100E-06 -2.96604528E-01 -2.72902882E-01 -4.94649597E-02 -3.72333388E-01
  7.82439564E-01  4.88028431E-02  9.58456764E-02 -6.50898716E-02  2.86271862E-02
 -1.96417910E-01 -3.22177298E-01  4.25299225E-02  1.45100681E-01 -6.18250091E-02
  8.93374497E-03  1.12974103E-01 -4.94675393E-02 -3.72345749E-01  7.82438043E-01
 -4.87992038E-02 -9.58539890E-02 -6.50828829E-02 -2.86293910E-02  1.96422968E-01
 -3.22199673E-01  4.25261485E-02 -1.45096823E-01  6.18239857E-02  8.93192870E-03
  1.12972533E-01  2.39752535E-02  1.39753583E-01 -1.24900629E-01  5.18560000E-07
 -1.56989600E-06 -9.78400758E-02 -5.03216000E-07  3.40196700E-06  7.75913920E-02
  1.26444283E-02  8.69872000E-07 -1.34416800E-06 -5.96353487E-02 -5.80582189E-02
 -1.45214915E-02  9.89702730E-02  3.15244977E-02  1.18487486E-01  2.20511003E-02
 -1.33617226E-01 -1.08094545E-01  1.92026006E-01 -2.04102881E-01 -6.91178634E-02
  3.75228738E-01 -1.19079043E-01  8.23182685E-03 -3.06651199E-01  1.45210645E-02
 -9.89613831E-02 -3.15678021E-02  1.18482939E-01  2.20478767E-02  1.33607812E-01
 -1.08083994E-01  1.92032636E-01  2.04093448E-01  6.91121215E-02  3.75224829E-01
 -1.19070826E-01 -8.22851018E-03  3.06650785E-01  4.83701307E-02 -5.32003561E-02
  1.35182222E-01  7.37928799E-02 -2.41250383E-01  5.28021492E-03 -3.92233838E-02
  8.09231547E-02 -3.70261348E-01  3.46541625E-01 -5.27993823E-03  3.92290719E-02
  8.09236908E-02 -3.70269796E-01 -3.46549013E-01 -4.83640653E-02  5.32041571E-02
  1.35178121E-01  7.37862724E-02  2.41232350E-01  1.10641800E-06 -1.08276140E-05
  1.27136020E-05 -1.87139723E-02  1.10553431E-01  4.26715400E-06 -7.48479542E-02
  4.45804224E-01  1.42631600E-06 -2.06160500E-06  5.28227727E-02 -1.81721974E-01
 -1.41475870E-05 -8.30063600E-06  2.76422792E-02  2.42220680E-01 -7.15535780E-01
 -3.94657152E-02  6.11434856E-02 -6.96126418E-02 -6.99109762E-02  7.29599061E-02
 -2.38932665E-02 -1.08167365E-01 -1.49238888E-01 -1.29093956E-02 -7.44125163E-03
 -6.63673450E-02 -2.76485742E-02 -2.42259272E-01  7.15591501E-01 -3.94624379E-02
  6.11337992E-02  6.96203726E-02 -6.99173382E-02  7.29788478E-02  2.38625117E-02
  1.08173715E-01 -1.49241274E-01 -1.29036444E-02  7.44272528E-03  6.63709179E-02
  8.69143000E-07  4.99459900E-06 -8.86530400E-06 -1.78180281E-02  5.86149610E-02
 -1.52038800E-06  2.26036321E-02 -1.42255127E-01  2.51975700E-06  4.79782000E-07
 -1.85991072E-02  1.54194851E-02 -2.68837600E-06 -1.51696800E-06  8.59889951E-03
  7.63031693E-02 -6.21666571E-01 -2.46000138E-01  8.96954539E-02  4.83626328E-02
  5.62455120E-01 -5.09717006E-02 -4.66582282E-01 -1.65158115E-02 -2.00321512E-01
  1.24296984E-01 -1.38723540E-03 -5.89789837E-02  8.59896045E-03  7.63063652E-02
 -6.21726399E-01  2.45997590E-01 -8.96979449E-02  4.83650764E-02 -5.62455913E-01
  5.09883646E-02 -4.66590453E-01 -1.65156157E-02  2.00312492E-01 -1.24302174E-01
 -1.38863677E-03 -5.89888387E-02 -1.43459899E-01  2.51399769E-03 -1.61552611E-01
  1.14874933E-01  2.82192872E-01  2.21457449E-01  8.06907865E-02 -1.51661754E-01
 -6.76119893E-02  1.94005541E-02  2.21464631E-01  8.06942233E-02  1.51657276E-01
  6.76182629E-02  1.94004143E-02 -1.43457243E-01  2.51828768E-03  1.61552865E-01
 -1.14882170E-01  2.82186938E-01  1.70149081E-02 -3.45693753E-01  1.34984590E+00
 -8.18000000E-10  1.48300000E-08  2.35579724E-04 -2.63128900E-06  3.68847200E-06
 -1.36190778E+00 -6.43780107E-02  1.61707600E-06 -5.17017500E-06 -6.20765825E-01
 -4.75170254E-01 -1.88755158E-02 -3.98908553E-02 -4.29017951E-01 -9.15604803E-02
  1.03086615E-01 -1.44063808E-01  1.53430985E-01  2.07086730E-01 -2.60038588E-01
  4.41260725E-02 -1.37260834E-02 -1.05403556E-01  3.77805900E-03 -1.08822816E-02
 -1.88726088E-02 -3.98742972E-02 -4.29042420E-01  9.15588889E-02 -1.03080103E-01
 -1.44066287E-01 -1.53428920E-01 -2.07092952E-01 -2.60027625E-01  4.41265493E-02
  1.37294234E-02  1.05404881E-01  3.78056486E-03 -1.08821512E-02 -2.17392936E-03
 -5.63309996E-02  5.70115571E-01 -4.99864000E-07  1.56154600E-06 -7.12863624E-02
  5.35990000E-07 -7.91927000E-07 -3.52547886E-02  4.78524790E-03 -3.45167000E-07
  2.38279000E-06 -1.20017196E-01 -8.64854868E-02  6.85012117E-04 -6.78060993E-02
  8.27862379E-01  8.04715756E-02 -4.03021224E-02  1.59507073E-01  8.06460575E-02
 -1.51261596E-01  4.68278763E-01 -2.52343851E-02  1.58560739E-01  8.57042155E-02
  3.36257696E-02 -1.10776354E-01 -6.85189324E-04  6.78103191E-02 -8.27876939E-01
  8.04792105E-02 -4.03042228E-02 -1.59506316E-01  8.06088445E-02 -1.51259075E-01
 -4.68290046E-01  2.52391423E-02  1.58564787E-01  8.57024294E-02 -3.36275565E-02
  1.10773481E-01 -3.75761925E-02 -1.00981593E-01 -6.32252801E-02  1.58771383E-01
 -1.58375317E-01 -5.03766521E-02 -3.59074869E-02  8.51675651E-02  7.12702397E-02
  7.89016109E-03  5.03878028E-02  3.59162361E-02  8.51752642E-02  7.12693149E-02
 -7.89122353E-03  3.75681721E-02  1.00974475E-01 -6.32222662E-02  1.58769243E-01
  1.58381035E-01  2.68858000E-07 -4.93030000E-06  1.35415440E-05 -5.74859315E-03
 -2.20105257E-02  5.59022000E-07  4.41197570E-02  6.00257879E-02 -1.58403080E-05
  5.11454000E-07 -2.08663707E-01  7.17066110E-01 -4.93334200E-06 -3.33972100E-06
  3.91880756E-02  6.19451424E-02  5.65662509E-01  4.85033837E-02 -2.84857146E-01
  2.92265248E-01  2.93243237E-03  1.55652443E-01 -6.17314258E-01  1.11708271E-02
 -6.56201201E-02  1.78395250E-02  8.23963626E-02  2.02363509E-02 -3.91890521E-02
 -6.19489093E-02 -5.65670425E-01  4.85057098E-02 -2.84859476E-01 -2.92264420E-01
  2.92793420E-03  1.55649455E-01  6.17308394E-01 -1.11687614E-02 -6.56183231E-02
  1.78406209E-02 -8.23971377E-02 -2.02374617E-02 -1.35957000E-07 -1.66526300E-06
  8.31845900E-06  6.81124984E-02 -1.99667222E-01 -1.80210000E-07 -4.18071315E-02
  3.84956762E-02 -1.29672400E-06 -1.64483000E-07  7.79880091E-02 -2.89528255E-01
 -9.36346000E-07 -8.25808000E-07  1.84979503E-02 -1.06775553E-01  3.44575520E-01
 -6.65700418E-02 -1.04537229E-01  5.49783889E-02  1.64902337E-01 -2.35020143E-01
  1.30824316E-01 -4.35049251E-01 -1.68422110E-01 -1.16905036E-02 -1.90956335E-01
 -1.57849779E-03  1.84999539E-02 -1.06785699E-01  3.44537558E-01  6.65674481E-02
  1.04536198E-01  5.49819907E-02 -1.64901250E-01  2.35027341E-01  1.30826029E-01
 -4.35052830E-01  1.68419704E-01  1.16788241E-02 -1.90950933E-01 -1.58512270E-03
 -7.18538967E-02 -4.14266328E-02 -1.27380937E-01  3.34078491E-01 -2.15529045E-01
 -8.38337481E-03 -5.95989561E-02 -1.14660698E-01  2.67967839E-01 -2.88503021E-01
 -8.38017655E-03 -5.95908728E-02  1.14652180E-01 -2.67965768E-01 -2.88498592E-01
 -7.18510275E-02 -4.14187580E-02  1.27389203E-01 -3.34090717E-01 -2.15534319E-01
  4.91364839E-02 -2.71272023E-01 -7.87121659E-01 -2.90369000E-07 -5.50930000E-08
  7.19094938E-02 -2.60402300E-06  1.34207400E-06  5.76182387E-01 -1.82094761E-01
 -1.79578000E-07  5.25452900E-06  1.77206044E-01  1.62321379E-01  6.15460322E-03
 -1.06431344E-01  5.59814399E-01  3.84329973E-03  4.41626071E-03 -1.39095583E-01
  9.47006204E-02 -4.42344786E-01  2.72871118E-01 -5.94222981E-02  1.80886579E-04
 -1.09805502E-01  1.27761563E-01  7.32510226E-02  6.15399630E-03 -1.06431795E-01
  5.59807378E-01 -3.84479544E-03 -4.41897235E-03 -1.39099827E-01 -9.46934414E-02
  4.42346208E-01  2.72883361E-01 -5.94208647E-02 -1.77205667E-04  1.09808684E-01
  1.27762612E-01  7.32506351E-02  3.60617761E-02  2.13164484E-01 -2.51028630E-01
 -3.17503000E-07 -1.59422400E-06 -1.50084761E-01  1.06954900E-06  2.39203000E-07
  9.50528401E-02  5.67849118E-03  2.25985000E-07 -2.51837800E-06  4.73834244E-03
  1.86125475E-02  7.02736097E-02 -4.35941465E-01 -1.64653832E-01  6.59193114E-02
  2.73455146E-04  1.82991854E-01 -9.59975483E-02 -4.91109542E-02  3.07130123E-01
 -9.30236150E-02  6.88522877E-02  4.19062122E-01  1.97053447E-01 -9.60608570E-02
 -7.02733250E-02  4.35941775E-01  1.64650892E-01  6.59294417E-02  2.73827887E-04
 -1.82990179E-01 -9.60219258E-02 -4.91024136E-02 -3.07131745E-01  9.30132443E-02
  6.88598676E-02  4.19064088E-01 -1.97057385E-01  9.60592245E-02  6.73030609E-02
  2.21634255E-01 -2.32623542E-01  3.21091067E-01 -3.53593821E-02  6.97855369E-03
  1.20662637E-01  3.10824490E-01  6.96837696E-02  1.78671365E-03 -6.97226998E-03
 -1.20658448E-01  3.10833370E-01  6.96747991E-02 -1.79568880E-03 -6.73083332E-02
 -2.21638091E-01 -2.32613329E-01  3.21081825E-01  3.53523105E-02  1.11935200E-06
 -6.96042300E-06 -1.05345960E-05  1.93810339E-02 -9.86586761E-02  1.47797400E-06
  2.29498815E-01 -2.81443146E-01  7.69052400E-06 -4.57472400E-06 -1.70545686E-02
 -2.27238437E-01  3.54030100E-06  2.70163000E-07 -5.62773781E-02 -3.24133100E-01
  5.70841459E-01 -4.11331834E-02  6.98695186E-02 -6.17324759E-02  4.42973761E-03
 -1.59455292E-01  2.30466531E-01  8.61448709E-02 -1.14815030E-01 -1.19778397E-01
  6.84188989E-02  3.02178885E-03  5.62761731E-02  3.24120744E-01 -5.70809307E-01
 -4.11313332E-02  6.98682237E-02  6.17317753E-02  4.41938072E-03 -1.59437850E-01
 -2.30464237E-01 -8.61440486E-02 -1.14815415E-01 -1.19774731E-01 -6.84145970E-02
 -3.01932233E-03  9.14675000E-07  5.06940300E-06 -4.47698800E-06  2.03785145E-02
  7.35194278E-02 -3.61995400E-06 -8.56244390E-02  4.55315432E-02  2.10619500E-06
  2.36522000E-07 -2.26389334E-02  1.47476722E-01  3.70582000E-07 -7.39090000E-08
  2.85822866E-02 -3.14104367E-01  4.82614520E-02 -1.00416346E-01  1.93536910E-02
 -1.19296018E-01 -5.91991648E-01  4.31091230E-01  2.90115085E-01  1.02889824E-01
  3.27459113E-02  1.06053391E-01  8.76345109E-02 -4.92472914E-02  2.85830586E-02
 -3.14110908E-01  4.82731081E-02  1.00415434E-01 -1.93546436E-02 -1.19293958E-01
  5.92000161E-01 -4.31097505E-01  2.90125152E-01  1.02892369E-01 -3.27462159E-02
 -1.06057191E-01  8.76346704E-02 -4.92481360E-02  1.71979251E-01  3.48880463E-01
 -7.78482852E-02 -1.05289010E-01  1.35105304E-01 -1.12888833E-01 -1.70130375E-01
  3.82775609E-02 -2.82679210E-01 -4.24828832E-02 -1.12891271E-01 -1.70135815E-01
 -3.82777013E-02  2.82678973E-01 -4.24837499E-02  1.71982802E-01  3.48887953E-01
  7.78466577E-02  1.05283734E-01  1.35112160E-01  1.04539217E-02  4.60390382E-01
 -6.61422267E-01 -4.70739000E-07  9.75252000E-07 -2.43337199E-01  1.52128300E-06
  3.53901000E-06  1.48944980E+00 -7.88536444E-01 -1.01064100E-06  1.28475000E-07
  1.93123199E-01  7.43673314E-02 -2.94829823E-02 -2.44672550E-01  8.17933437E-01
  1.21160917E-02 -4.96024555E-02  4.10810552E-02 -3.13819919E-03 -1.05244722E-01
 -2.34986910E-01  1.04916254E-01  4.34808265E-02 -9.32675309E-02  1.89307763E-01
  9.73094598E-02 -2.94829841E-02 -2.44673533E-01  8.17943156E-01 -1.21154681E-02
  4.96037204E-02  4.10791398E-02  3.13411652E-03  1.05244874E-01 -2.34982715E-01
  1.04918982E-01 -4.34833594E-02  9.32684297E-02  1.89308433E-01  9.73108496E-02
  1.45503379E-01  9.21237318E-01 -1.43752182E+00 -1.87944000E-07  6.09770000E-08
 -5.33542447E-01 -6.15730000E-08 -1.01005700E-06  5.02225983E-01 -1.41735261E-02
 -1.70907000E-07 -7.04012000E-07  7.20166979E-02  2.53593531E-02 -3.13244004E-02
  2.68052653E-01  2.17069530E-01 -1.10082440E-01 -1.20776561E-01 -1.43625480E-01
 -3.24522452E-01 -3.69487457E-01 -2.62313983E-01  8.58000545E-02  3.01425423E-01
  3.03764233E-01 -2.70892775E-01 -1.80566299E-01 -3.13238046E-02  2.68054242E-01
  2.17019474E-01  1.10092465E-01  1.20781368E-01 -1.43626601E-01  3.24522621E-01
  3.69519782E-01 -2.62331278E-01  8.58133998E-02 -3.01435092E-01 -3.03770042E-01
 -2.70890356E-01 -1.80554955E-01 -6.38078017E-02 -7.52136142E-02  4.15295501E-01
  3.76078775E-01  5.09603013E-02 -1.77677856E-01 -3.09535096E-01 -3.80851709E-01
  1.03708861E-01  2.95920380E-01 -1.77677985E-01 -3.09538703E-01  3.80861249E-01
 -1.03715343E-01  2.95935290E-01 -6.38082717E-02 -7.52185848E-02 -4.15305451E-01
 -3.76081143E-01  5.09698143E-02  2.21667867E-02 -1.73872515E-01  1.35615270E-01
 -3.02668000E-07  1.21161100E-06  4.21200937E-03 -7.25810000E-07  7.89416500E-06
 -3.93548575E-01 -1.05524631E-01 -5.35640000E-07 -2.76432200E-06  2.96764257E-02
  2.01244599E-02 -2.29449033E-03 -2.22486041E-02  3.00382072E-02  4.11352820E-02
  1.86548879E-02 -6.75456224E-03 -7.00090633E-02 -7.81893358E-02  2.19616985E-02
  7.26837756E-02  9.07950934E-02  4.38811039E-02 -7.00610436E-02  2.20773662E-02
 -2.29383061E-03 -2.22462698E-02  3.00362108E-02 -4.11356811E-02 -1.86516265E-02
 -6.75647465E-03  7.00089230E-02  7.81885058E-02  2.19697830E-02  7.26842434E-02
 -9.07909725E-02 -4.38749280E-02 -7.00551800E-02  2.20779690E-02  8.91601754E-03
  2.45481431E-02  2.54121901E-01  2.84422000E-07  1.14666900E-06 -8.62684273E-02
 -1.49109000E-07 -2.70271200E-06 -5.26674906E-03 -7.95570264E-03  7.12175000E-07
  6.79137000E-07  1.40725823E-02 -1.21857928E-03 -1.60108941E-02 -9.62065107E-02
  2.34615736E+00  1.27321274E-01  1.96856785E-01  1.59579133E-01  1.70167686E-01
  1.13846980E+00  7.24396342E-01 -4.59373414E-01 -1.38434984E-01 -2.53222390E-01
 -4.69516980E-02 -8.37477558E-02  1.60112855E-02  9.61977720E-02 -2.34614829E+00
  1.27355703E-01  1.96853661E-01 -1.59561704E-01  1.70192086E-01  1.13844967E+00
 -7.24359523E-01  4.59344112E-01 -1.38456889E-01 -2.53189537E-01  4.69864332E-02
  8.37116012E-02 -1.96411873E-02 -1.84394134E-02 -3.31792614E-01 -1.76277624E-01
 -2.65679677E-01  3.85011373E-02  1.32012128E-01  3.14245164E-01 -4.72187720E-02
 -2.93468527E-01 -3.85132488E-02 -1.32027069E-01  3.14242205E-01 -4.71682384E-02
  2.93443507E-01  1.96584799E-02  1.84736977E-02 -3.31749166E-01 -1.76288579E-01
  2.65670550E-01 -3.84786000E-07 -1.28615000E-07 -2.26546430E-05 -2.48281618E-02
  4.54466534E-02  4.02707100E-06 -2.35539083E-02  5.69163049E-01  1.19632320E-05
  1.66659230E-05 -1.43739143E-02 -8.67737667E-02  7.33183400E-06  3.85808000E-07
 -5.13874276E-02 -3.05996484E-01  5.90485939E-01 -4.17711572E-02  1.18942460E-01
  1.75354306E-01  3.87046645E-02 -1.38830657E-01 -5.69732091E-01 -5.51400289E-02
 -2.56595333E-02  2.09113068E-01 -1.75994128E-01 -9.49429706E-02  5.13885207E-02
  3.06003326E-01 -5.90496144E-01 -4.17744685E-02  1.18944356E-01 -1.75352999E-01
  3.87080690E-02 -1.38829613E-01  5.69753898E-01  5.51416251E-02 -2.56770429E-02
  2.09106798E-01  1.75984704E-01  9.49508454E-02 -2.36719000E-06 -1.37314040E-05
  7.23295900E-06  1.76619585E-02  3.91775015E-02  1.06349530E-05 -1.86288133E-02
 -1.64258804E-01 -6.69584800E-06  9.48035000E-07  2.04301215E-02 -2.75196094E-02
  2.46218200E-06 -8.71791000E-07  9.72729082E-03 -1.80994553E-02 -1.58326761E-01
  3.68182714E-01  2.23240847E-02 -9.20423682E-02  5.48753165E-01 -8.59584304E-02
 -2.91095349E-01  2.30922601E-01 -2.74567724E-01  1.82239052E-01 -2.54184400E-01
  4.08893013E-01  9.72825420E-03 -1.80862917E-02 -1.58556916E-01 -3.68164753E-01
 -2.22974643E-02 -9.20650127E-02 -5.48734256E-01  8.60767706E-02 -2.91173645E-01
  2.30972657E-01  2.74546725E-01 -1.82268214E-01 -2.54179187E-01  4.08908330E-01
 -2.04190107E-01 -3.82587632E-01  3.04077385E-01 -2.21447088E-01  4.35432052E-02
  2.68644257E-01  3.30033074E-01  1.51134941E-01  4.90442190E-01  1.65508764E-01
  2.68635302E-01  3.30015668E-01 -1.51097903E-01 -4.90444933E-01  1.65532454E-01
 -2.04190729E-01 -3.82588035E-01 -3.04113723E-01  2.21431226E-01  4.35664596E-02
  3.68848527E-04  2.16617891E-02  3.38760046E-01 -7.30103000E-07  2.93125700E-06
 -5.57205266E-02 -2.75632000E-06  3.04240440E-05 -1.05643818E-01 -2.20314007E-01
 -1.29276000E-06 -4.85591100E-06 -1.30335070E-01 -4.75859006E-03 -1.01789092E-02
 -6.64721139E-02  1.08702146E-01 -2.30948754E-02  2.02388780E-02 -4.03368856E-03
  4.41996390E-02 -2.66562110E-03 -1.82807930E-01 -4.43993087E-02 -1.58875283E-01
 -5.34823714E-02  8.76076356E-02 -4.71208196E-02 -1.01732976E-02 -6.64400348E-02
  1.08643536E-01  2.30909574E-02 -2.02262027E-02 -4.05389690E-03 -4.41971961E-02
  2.65144828E-03 -1.82746677E-01 -4.43976292E-02  1.58872607E-01  5.35060934E-02
  8.76301467E-02 -4.71116982E-02  3.16436800E-02  1.93908777E-01 -1.61926555E-01
  5.88532000E-07  2.22277500E-06 -1.37255561E-01 -1.67911000E-07 -8.77614200E-06
  1.01751210E-01 -1.21738101E-02  1.74764700E-06 -8.11025000E-07 -5.54041769E-02
  2.06673772E-02  1.25810868E-01 -5.71073005E-01 -1.18304259E+00  3.51125864E-02
 -2.26239406E-03  8.20697897E-02  4.23616165E-02 -9.48793547E-02  1.18191989E-03
  4.28083168E-01  5.76663609E-03 -2.78223739E-01  4.80095997E-01 -2.50221319E-02
 -1.25810866E-01  5.71072278E-01  1.18304545E+00  3.51195432E-02 -2.26204145E-03
 -8.20680775E-02  4.23731504E-02 -9.48800734E-02 -1.17836499E-03 -4.28084898E-01
  5.76300361E-03 -2.78222899E-01 -4.80094470E-01  2.50272429E-02  2.47500233E-01
  2.32537259E-01 -3.27372566E-01 -1.03156944E-01  2.37577710E-01  2.80415179E-01
  2.73770015E-01  4.07080988E-01 -4.63302745E-02  6.79095516E-02 -2.80420170E-01
 -2.73774752E-01  4.07084569E-01 -4.63287517E-02 -6.79050045E-02 -2.47496022E-01
 -2.32533203E-01 -3.27368574E-01 -1.03158145E-01 -2.37579882E-01 -1.62770000E-08
  4.36750000E-07 -8.76646000E-07  2.74450759E-02 -6.69221217E-02  1.70859000E-07
  8.03187855E-02 -1.81829228E-01  2.23353700E-06  2.95447000E-07 -3.19090810E-02
  5.32042581E-02  1.69550000E-07  2.47794000E-07  2.90622430E-02  1.37665445E-01
 -1.60811643E-01  3.44065318E-02  6.91724062E-03 -1.22052191E-01 -4.88066835E-02
 -9.07410186E-02  2.67315107E-01 -1.99234360E-01  6.02331837E-02  3.73523744E-02
 -8.68464290E-02  3.59965849E-02 -2.90622457E-02 -1.37665403E-01  1.60812006E-01
  3.44073668E-02  6.91739996E-03  1.22051875E-01 -4.88073542E-02 -9.07407935E-02
 -2.67314111E-01  1.99233793E-01  6.02327913E-02  3.73526416E-02  8.68466390E-02
 -3.59953170E-02  8.27340000E-08  5.04694000E-07 -2.01891700E-06  1.64781599E-02
 -2.91004715E-02  2.95040000E-08 -3.11092666E-02  5.73905650E-02  5.44357000E-07
 -1.48701000E-07  5.51254439E-02 -1.18147246E-01 -1.36884000E-07 -8.01260000E-08
  2.01979764E-02 -1.21355223E-01 -1.20546500E-01 -8.07980024E-02  6.12111436E-02
  5.95122780E-02 -1.87317885E-01  4.44582900E-02  4.42702249E-02  2.10883905E-02
  6.60805279E-02 -4.32412790E-02 -3.09941087E-02  6.52531662E-02  2.01985542E-02
 -1.21359190E-01 -1.20545836E-01  8.08005815E-02 -6.12148338E-02  5.95156674E-02
  1.87319972E-01 -4.44632704E-02  4.42730382E-02  2.10870391E-02 -6.60832800E-02
  4.32427844E-02 -3.09969058E-02  6.52563057E-02  1.76687935E-01  1.35775644E-01
 -1.20858852E-01  6.62537402E-02  1.27421508E-01 -1.33332348E-02 -3.58986575E-02
  1.69799313E-02  3.69369404E-03 -5.47059930E-05 -1.33330557E-02 -3.58987783E-02
 -1.69800244E-02 -3.69434981E-03 -5.43604910E-05  1.76694209E-01  1.35779421E-01
  1.20861824E-01 -6.62578813E-02  1.27427755E-01 -2.86603438E-03  3.39217663E-02
 -1.53071543E-02  2.52791000E-07  1.15981000E-07 -6.44380349E-03  5.96814000E-07
 -5.50427000E-07  6.25041175E-02 -1.14494596E-02 -2.60343000E-07  1.30448000E-07
 -5.14649859E-02  7.35015535E-02 -4.39105099E-03 -2.68751697E-02  6.63247595E-02
  3.31298657E-02  1.01225166E-02  1.50502435E-02 -8.28961743E-02 -1.26613065E-02
 -4.79143282E-02  1.87861351E-02 -7.96651488E-02 -8.26884730E-03 -1.66257516E-01
  2.83532015E-01 -4.39104610E-03 -2.68748746E-02  6.63239247E-02 -3.31291706E-02
 -1.01232838E-02  1.50503861E-02  8.28944488E-02  1.26624852E-02 -4.79144535E-02
  1.87833620E-02  7.96675017E-02  8.26577986E-03 -1.66259403E-01  2.83528062E-01
  2.11072863E-03  1.57243992E-02 -4.96140667E-02  1.11304000E-07  1.18718000E-07
 -4.40226418E-03 -2.46250000E-07 -5.00820000E-08  9.98657863E-03 -1.50766461E-03
  7.30803000E-07  8.80101000E-07 -4.08400041E-01  7.56492574E-01  1.50876492E-01
 -9.03255237E-01 -5.64270770E-01  1.31561217E-01  3.28002313E-01  2.50266756E-01
 -1.23235610E-03  1.97172191E-01  1.48721607E-01  1.62717826E-01  1.31250922E-01
 -2.21495849E-01 -4.42307830E-01 -1.69387536E-01  1.50876960E-01 -9.03261116E-01
 -5.64243570E-01 -1.31552553E-01 -3.28006752E-01  2.50270651E-01  1.24573463E-03
 -1.97185661E-01  1.48732714E-01  1.62714753E-01 -1.31259125E-01  2.21497535E-01
 -4.42314458E-01 -1.69371031E-01  5.02259771E-01  2.64448859E-01 -4.03302631E-01
  3.03766654E-01  3.25111522E-01  6.00517080E-01  2.38317617E-01  6.48169471E-01
  2.75557461E-01  1.89323275E-01  6.00507426E-01  2.38307816E-01 -6.48166422E-01
 -2.75550882E-01  1.89309957E-01  5.02275091E-01  2.64459736E-01  4.03308473E-01
 -3.03775545E-01  3.25127874E-01  1.67817483E-02 -1.40297517E-01 -2.83549390E-01
  1.49194200E-06  1.89395900E-06  7.21060128E-02  2.09474000E-07  5.64933000E-07
  9.58820407E-02  4.29185357E-02 -3.54899000E-07 -1.88813000E-07 -1.24145493E-02
  5.89154684E-03 -2.95645137E-02 -2.13283197E-01  4.44144209E-01 -1.15098706E-02
  3.92564573E-02  4.56644588E-02  4.46674775E-02 -1.32735047E-01 -6.20281914E-02
  1.59622195E-01 -6.45994151E-03 -2.05431245E-03 -2.22717462E-02 -4.49921557E-02
 -2.95651896E-02 -2.13288509E-01  4.44157505E-01  1.15136182E-02 -3.92574043E-02
  4.56653102E-02 -4.46777022E-02  1.32738613E-01 -6.20295994E-02  1.59614113E-01
  6.47466957E-03  2.05543774E-03 -2.22691860E-02 -4.50053058E-02 -7.49087853E-03
 -5.60329605E-02  9.16596884E-02  1.79562000E-07  4.14454000E-07  2.01107534E-02
 -2.71680000E-07 -8.10367000E-07 -4.07209226E-02 -4.75440462E-03  2.57319300E-06
  3.81945800E-06  3.80928659E-01  9.14463762E-02 -6.18921294E-02  4.14707451E-01
  1.83363515E-01 -2.27511894E-02 -1.35048607E-01 -1.42050143E-01  1.64276007E-01
 -1.46396256E-01 -1.67017913E-01 -9.94067956E-02 -1.23898266E-01  1.12913689E-01
  1.92606578E-01  7.24879828E-02 -6.18946936E-02  4.14725583E-01  1.83363538E-01
  2.27236786E-02  1.35063332E-01 -1.42065354E-01 -1.64305827E-01  1.46415101E-01
 -1.67030601E-01 -9.94030152E-02  1.23919404E-01 -1.12918361E-01  1.92623316E-01
  7.24606204E-02 -2.93417768E-01 -1.94331940E-01  2.08579323E-01 -1.52206549E-01
 -1.56792477E-01 -2.08173313E-01 -4.22231786E-02 -2.59830513E-01 -8.01121064E-02
 -6.79748732E-02 -2.08159582E-01 -4.22108593E-02  2.59821098E-01  8.01056534E-02
 -6.79683581E-02 -2.93460785E-01 -1.94359804E-01 -2.08604632E-01  1.52229433E-01
 -1.56827068E-01  1.69135842E-02 -2.01086181E-01  1.09804628E-01 -3.30166200E-06
 -2.83908700E-06  4.49370879E-02 -2.82469200E-06 -2.26708500E-06 -3.26879025E-01
  6.19911340E-02  1.99505800E-06  1.39103000E-07 -1.69584712E-01 -1.14436909E-01
 -7.00886311E-03 -4.03089841E-02 -3.25077291E-02 -1.29321051E-02  3.27265625E-02
 -9.64487820E-02  3.44016329E-02 -3.00458817E-02  1.13971154E-01  2.78196914E-02
  9.17905054E-03 -7.76972105E-02 -3.28001103E-02 -2.56527149E-02 -7.00867062E-03
 -4.03078224E-02 -3.25098056E-02  1.29277054E-02 -3.27251853E-02 -9.64483442E-02
 -3.43873106E-02  3.00419367E-02  1.13965689E-01  2.78292955E-02 -9.18621313E-03
  7.77009138E-02 -3.28039972E-02 -2.56256613E-02 -9.21344343E-03 -7.13994020E-02
  2.41075815E-01 -9.39427000E-07 -7.11112000E-07  1.66597361E-02  1.94649000E-06
  1.64924300E-06 -4.23386148E-02  1.33439325E-02 -7.03693700E-06 -6.87534400E-06
  7.55909481E-01  4.77393553E-01 -5.01482520E-02  3.25556385E-01  3.63615835E-01
  4.04788860E-01 -2.64055543E-01 -2.51468682E-01  3.87680609E-01 -2.24280190E-01
 -8.49402525E-02  3.81071637E-02 -3.40494152E-01  7.87412160E-02  3.20232823E-01
 -3.32328846E-01  5.01402362E-02 -3.25509272E-01 -3.63581294E-01  4.04797473E-01
 -2.64040138E-01  2.51461163E-01  3.87688844E-01 -2.24270536E-01  8.49378332E-02
 -3.81217666E-02 -3.40483739E-01  7.87377096E-02 -3.20201333E-01  3.32353351E-01
 -6.72790399E-01 -4.14721798E-01  4.41499363E-01 -3.54235064E-01 -4.94958574E-01
  9.59327920E-02  9.03719484E-02  8.27479557E-02  4.32009518E-02 -4.76179971E-03
 -9.59724075E-02 -9.03892020E-02  8.27867828E-02  4.32139293E-02  4.74630565E-03
  6.72768866E-01  4.14711903E-01  4.41475916E-01 -3.54219618E-01  4.94951852E-01
 -1.71841000E-07 -8.41230000E-07  4.72550200E-06  1.24580558E-01  6.53803533E-02
 -6.85230000E-07  1.23580671E-01  7.19129575E-02 -7.29452600E-06  3.55212200E-06
 -7.57331815E-02  7.88098067E-04 -7.56518200E-06 -1.13161400E-06 -6.02782370E-03
 -5.44204602E-02  1.64971195E-01  4.88515698E-02 -8.86550057E-03  2.31832426E-02
 -1.76862211E-01  1.44461046E-02 -1.35772382E-01  1.01872784E-01 -2.45292496E-02
 -6.99347938E-02 -1.06111360E-01  4.20557519E-01  6.02827064E-03  5.44260260E-02
 -1.64994717E-01  4.88500410E-02 -8.86664307E-03 -2.31899208E-02 -1.76853897E-01
  1.44416628E-02  1.35783338E-01 -1.01877756E-01 -2.45404433E-02 -6.99306692E-02
  1.06109230E-01 -4.20548724E-01 -5.13078000E-07 -2.88342600E-06  4.78209700E-06
  4.11883234E-02  1.85195305E-02  1.52263100E-06 -8.95235253E-02 -4.48662105E-02
 -1.16182500E-06  5.98188000E-07  2.48647335E-01  1.65276908E-01  2.37513270E-05
  6.47350000E-06  2.44866144E-02 -1.86982245E-01  2.90552908E-01  3.68500347E-01
  3.71178367E-02 -3.37835113E-02  3.69405801E-01  1.65107061E-01  4.85823380E-02
  3.54587774E-02 -1.11827695E-01 -1.14731990E-01 -5.86635184E-02 -3.66008079E-01
 -2.44899051E-02  1.86999233E-01 -2.90538498E-01  3.68519328E-01  3.71223106E-02
  3.37881367E-02  3.69435426E-01  1.65105884E-01 -4.85740982E-02 -3.54649555E-02
 -1.11827280E-01 -1.14727619E-01  5.86805926E-02  3.66035586E-01 -2.41309437E-01
 -1.71536705E-01  6.56691132E-02 -1.29620461E-01 -2.16264403E-01  4.02550378E-01
  2.43739072E-01  4.00197002E-01  1.35093498E-01  1.15669042E-01 -4.02581413E-01
 -2.43755613E-01  4.00224860E-01  1.35100095E-01 -1.15677694E-01  2.41317361E-01
  1.71546135E-01  6.56701078E-02 -1.29616305E-01  2.16273601E-01 -6.55600000E-07
  5.03742400E-06  3.78831700E-06 -1.42258258E-01  6.78298598E-02 -1.81246100E-06
 -2.48283174E-01  1.22274598E-01  1.04603000E-06  3.03301000E-07  7.45718798E-02
  3.24464754E-02 -6.03924100E-06  3.60114800E-06  1.14941420E-02  8.14043797E-02
 -1.20554218E-01 -6.33902395E-03 -5.80906658E-02 -2.23837995E-03 -7.18515103E-03
  1.65406915E-01 -1.22973548E-01  1.62585377E-01  4.43993123E-01  6.95593821E-04
  3.30063096E-01 -1.08233926E-01 -1.14938362E-02 -8.13991745E-02  1.20535034E-01
 -6.34044163E-03 -5.80906322E-02  2.23735819E-03 -7.17292612E-03  1.65400013E-01
  1.22974595E-01 -1.62593075E-01  4.43984145E-01  6.95034737E-04 -3.30065496E-01
  1.08250753E-01 -3.67880000E-08  2.23221000E-07 -2.66165300E-06 -6.08102372E-02
  1.31382175E-02  4.45224000E-07  1.55892983E-01 -5.22086527E-02  3.92968000E-07
  5.96849000E-07 -3.01958906E-01  1.32658963E-01  7.88087900E-06 -5.41128100E-06
 -5.68669614E-04  1.89694040E-02  7.49659880E-03  2.72422546E-01 -1.92826381E-02
 -1.08936055E-01  8.55444371E-01  1.36840369E-03 -1.39107225E-01 -2.57033817E-02
 -2.40198984E-02  1.15520757E-01  2.19243467E-02 -4.78821932E-01 -5.76001759E-04
  1.90179999E-02  7.56062482E-03 -2.72375876E-01  1.93205659E-02 -1.08948911E-01
 -8.55387530E-01 -1.34038961E-03 -1.39097848E-01 -2.57095558E-02  2.40225080E-02
 -1.15523276E-01  2.19852763E-02 -4.78778724E-01 -4.17150238E-01 -3.51828235E-01
  1.61044174E-01 -6.71703305E-02 -3.11845860E-01  3.63449307E-01  3.26172213E-01
  2.34001318E-01 -2.24733243E-02  1.76581000E-01  3.63365148E-01  3.26113322E-01
 -2.33933539E-01  2.25187801E-02  1.76539358E-01 -4.17151810E-01 -3.51821975E-01
 -1.61044130E-01  6.71821602E-02 -3.11850163E-01  2.57927901E-02 -2.20225926E-01
 -5.40265880E-02  3.65022800E-06  8.06133600E-06  7.14092874E-02 -5.97716000E-07
  1.07214950E-05 -1.62652643E-01  3.42537578E-02  1.61316900E-06 -2.06996900E-06
  2.25163736E-01 -2.43194395E-01 -1.26991582E-04 -3.48399727E-02  8.29191272E-02
 -5.58309633E-02 -1.34341547E-02 -1.43028615E-02  3.10123905E-01 -2.87263027E-02
  9.86563739E-02 -1.06015608E-02 -2.24263940E-01 -1.36435701E-01  2.17642015E-01
 -3.97397124E-01 -1.29749862E-04 -3.48635460E-02  8.29767158E-02  5.58382604E-02
  1.34332996E-02 -1.42990272E-02 -3.10153841E-01  2.87346380E-02  9.86527554E-02
 -1.06109703E-02  2.24299442E-01  1.36452142E-01  2.17658580E-01 -3.97430779E-01
 -7.12939648E-03 -5.94156076E-02  1.91801690E-01  3.29221000E-07  1.58940500E-06
  1.21601303E-02 -1.30396200E-06 -5.09085400E-06 -4.77792504E-02  3.62916925E-03
  1.08147660E-05  8.96164700E-06 -2.17709688E-01  3.11005699E-01 -6.47063969E-02
  3.89311845E-01  1.17050345E+00 -5.83465054E-02 -3.78268825E-01 -1.91649012E-01
 -1.74761652E-01 -5.37668556E-02  1.60583745E-01 -1.41062923E-03 -2.78888922E-01
  3.50817417E-02  6.17004725E-01  8.64189172E-02  6.47083293E-02 -3.89319363E-01
 -1.17051708E+00 -5.83876852E-02 -3.78272235E-01  1.91640228E-01 -1.74873975E-01
 -5.37655515E-02 -1.60605427E-01  1.41340761E-03 -2.78886746E-01  3.50706147E-02
 -6.17013517E-01 -8.64685476E-02 -4.03745832E-01 -1.72261587E-01  2.43389897E-01
 -2.81965487E-01 -2.75008244E-01 -4.81081472E-01 -3.67877092E-01 -3.48526864E-01
 -2.65707951E-01 -2.66526705E-01  4.81140266E-01  3.67924049E-01 -3.48569168E-01
 -2.65714809E-01  2.66546240E-01  4.03700725E-01  1.72218610E-01  2.43368793E-01
 -2.81962506E-01  2.74980620E-01  1.31418400E-06 -1.26341570E-05 -4.64861100E-06
 -8.76852461E-02 -1.17757678E-01  3.82241200E-06 -7.45340588E-02 -1.37085701E-01
 -9.26287700E-06  3.53887800E-06 -2.76029330E-02  4.08974936E-02  1.47855110E-05
 -1.50645030E-05 -2.28954004E-02 -2.10018589E-01  6.24869211E-01 -5.98291950E-02
  1.72974160E-05  2.89961454E-02  2.33252929E-01 -5.75913554E-02 -1.26076288E-01
 -1.99701108E-02 -1.98644068E-01 -1.09448772E-01  1.96646289E-01 -3.04831074E-01
  2.28950799E-02  2.10011708E-01 -6.24849311E-01 -5.98245348E-02  1.80918450E-05
 -2.89963601E-02  2.33218484E-01 -5.75844538E-02  1.26083935E-01  1.99738588E-02
 -1.98626275E-01 -1.09438931E-01 -1.96621964E-01  3.04783929E-01 -6.66962000E-07
 -4.84387000E-06  1.26439940E-05 -2.33068153E-02 -2.22381507E-02  1.32297000E-06
  7.66170356E-02  7.01636138E-02 -3.45437900E-06  7.17794000E-07 -2.66906541E-01
 -1.15467147E-01 -1.30573780E-05  1.69017430E-05 -3.43740373E-02  1.97917801E-01
  6.67267550E-01 -5.07011688E-01 -1.88084329E-01  4.53877268E-02 -2.67567041E-01
 -1.44460477E-02  1.48389463E-01 -2.42462446E-01  5.24740981E-01 -6.77981290E-02
  4.97013975E-01  3.17859684E-01  3.43728315E-02 -1.97908592E-01 -6.67264192E-01
 -5.07026895E-01 -1.88076953E-01 -4.54063453E-02 -2.67593180E-01 -1.44403885E-02
 -1.48403499E-01  2.42460729E-01  5.24755989E-01 -6.78092412E-02 -4.97014762E-01
 -3.17869248E-01  2.60679477E-01  3.57477464E-02 -2.76435448E-01  1.05740604E-01
  5.62996176E-02 -7.05001326E-01 -3.08444063E-01 -5.92750143E-01 -3.84420027E-01
 -1.53480455E-01  7.05010109E-01  3.08453493E-01 -5.92759900E-01 -3.84417521E-01
  1.53472074E-01 -2.60708188E-01 -3.57639098E-02 -2.76450988E-01  1.05753731E-01
 -5.63191093E-02  6.80614000E-07 -2.62064000E-06 -1.30826200E-06  7.43360467E-03
  3.73998811E-02  2.44279700E-06  5.73031328E-02  1.58165241E-01  8.32355600E-06
 -4.25561000E-06  1.83893816E-02  6.83347616E-02  5.22248700E-06 -4.17061100E-06
 -7.09186228E-03 -6.90069082E-02  1.98954665E-01  1.53554944E-02 -4.50808277E-03
  4.46294658E-02 -2.63689824E-02 -1.00335371E-04 -2.09898702E-01  1.91681465E-01
  2.99010985E-01  7.79831792E-02 -2.85758940E-02  1.10425216E-01  7.09159438E-03
  6.90007889E-02 -1.98929655E-01  1.53551146E-02 -4.50805100E-03 -4.46295077E-02
 -2.63760339E-02 -9.00572410E-05  2.09893408E-01 -1.91677128E-01  2.99004333E-01
  7.79787966E-02  2.85713324E-02 -1.10438991E-01  9.24585000E-07  5.68975400E-06
 -1.00335940E-05  1.95349035E-02  1.91249370E-02 -2.34740000E-06 -5.74838454E-02
 -8.63645077E-02  3.49634900E-06 -8.66676000E-07  9.70918339E-02  1.88821856E-01
 -4.20756400E-06  3.74381900E-06 -4.13621454E-02  3.49617352E-01 -5.24234707E-01
  1.77940576E-01 -1.18591042E-01 -8.38232562E-02  2.16182345E-01 -2.38022686E-01
 -4.08775277E-01  1.37464998E-01 -4.88268543E-02  4.99850207E-01  1.38314203E-01
 -1.57796197E-01  4.13599805E-02 -3.49607174E-01  5.24252370E-01  1.77905358E-01
 -1.18587057E-01  8.38161211E-02  2.16172499E-01 -2.38021150E-01  4.08778794E-01
 -1.37456002E-01 -4.87823292E-02  4.99846804E-01 -1.38311622E-01  1.57762689E-01
 -3.87058186E-01 -2.00073972E-01  3.48720808E-01 -8.93671295E-02 -1.68653530E-01
  5.12075085E-02  9.14679657E-02 -6.22889192E-02  3.16800866E-02  1.91449151E-01
 -5.11877941E-02 -9.14638883E-02 -6.23124527E-02  3.16747946E-02 -1.91449407E-01
  3.87019893E-01  2.00063582E-01  3.48689644E-01 -8.93521336E-02  1.68633619E-01
  2.32381000E-07  1.27304300E-06 -2.80093500E-06  4.20018703E-02 -2.81317605E-01
  2.92140000E-08  3.83618144E-02 -5.20383637E-01  9.95416200E-06 -1.60281400E-06
  2.21649257E-02 -1.55920673E-02 -5.72150000E-07  5.73540000E-06 -2.76687049E-02
 -2.31694704E-01  4.24496726E-01 -1.81853628E-02  9.62990729E-02 -2.48287324E-02
  2.23798971E-02 -3.80629785E-01  2.75096651E-01  5.63269993E-03  2.60667280E-01
  2.08705195E-01 -3.68309838E-01 -2.43233259E-01  2.76692188E-02  2.31697822E-01
 -4.24500485E-01 -1.81877832E-02  9.62999912E-02  2.48281507E-02  2.23868197E-02
 -3.80626747E-01 -2.75090737E-01 -5.63615486E-03  2.60649564E-01  2.08703936E-01
  3.68295275E-01  2.43254444E-01  4.66693000E-07  3.57546500E-06 -9.47066500E-06
 -1.02250267E-02 -4.08089496E-02 -8.60860000E-07  7.81189065E-03  2.10712973E-01
  2.34357300E-06  2.36755000E-07  6.62175927E-03 -3.30978498E-01  6.35177000E-07
 -3.46908500E-06 -3.46842677E-03  3.51746055E-02  4.81015998E-02  4.76979459E-01
 -3.49920823E-02 -2.04145289E-01  3.61684783E-01 -6.05999353E-02 -1.01775672E-01
  5.51044994E-02 -6.68988187E-01  5.25864469E-02 -4.17397005E-02 -4.77662046E-01
 -3.47285925E-03  3.52025398E-02  4.81262338E-02 -4.76967437E-01  3.50066882E-02
 -2.04154836E-01 -3.61684235E-01  6.06018316E-02 -1.01797333E-01  5.51017313E-02
  6.68972635E-01 -5.26185450E-02 -4.17240435E-02 -4.77655496E-01 -5.87937730E-01
 -2.17876766E-01  3.99049318E-01 -2.24331865E-01 -3.32676259E-01  4.22534988E-01
  1.79833201E-01  4.09609480E-01  1.39941880E-01  4.32634970E-03  4.22505724E-01
  1.79824881E-01 -4.09582146E-01 -1.39924802E-01  4.32326724E-03 -5.87951794E-01
 -2.17888649E-01 -3.99054009E-01  2.24337331E-01 -3.32689245E-01  4.06970590E-02
 -1.40274418E-01 -1.75293267E-01 -2.73647900E-06  1.32983870E-05  1.64169870E-01
 -5.31754900E-06  2.06324320E-05  5.13280335E-01 -2.03136524E-01 -1.09934900E-06
 -7.00570000E-08  1.33511357E-01  6.26219737E-02 -3.71783919E-03 -1.25011654E-01
  5.20591358E-01  2.45591095E-02  6.27328071E-04 -9.50672357E-03  3.32567804E-02
 -2.80173498E-01 -3.11864257E-02  1.13482421E-01  2.39051937E-01  8.98084448E-02
 -3.53948880E-01 -5.34520998E-03 -3.72061745E-03 -1.25035730E-01  5.20644839E-01
 -2.45583916E-02 -6.33529746E-04 -9.50764036E-03 -3.32598061E-02  2.80203064E-01
 -3.11685774E-02  1.13488813E-01 -2.39070027E-01 -8.98133122E-02 -3.53974804E-01
 -5.36001500E-03  3.65322691E-02  2.64341390E-01 -5.36886418E-01 -4.96277000E-07
  1.38039800E-06 -1.10297698E-01  2.46946000E-06 -8.21368500E-06  1.88174722E-01
 -5.80744644E-02 -3.44615500E-06  1.27423440E-05 -6.12708354E-02 -1.71509564E-02
 -2.44311064E-02  1.40037068E-01  8.64347169E-02  2.76480057E-01 -7.42041852E-03
  2.65624499E-02  5.25839141E-01 -8.45006420E-03 -3.47182595E-02  1.71959398E-01
 -7.83847272E-02  1.02700841E-01  1.23859726E-02 -4.27034330E-01 -2.44312107E-02
  1.40042394E-01  8.63662420E-02 -2.76491379E-01  7.41672549E-03  2.65562975E-02
 -5.25846378E-01  8.46633000E-03 -3.47443861E-02  1.71963828E-01  7.83912296E-02
 -1.02716125E-01  1.23692847E-02 -4.27043846E-01 -3.47220097E-01 -2.19240720E-01
  1.82499071E-01 -7.79827985E-02 -2.07049855E-01  3.17441177E-01  1.86305566E-01
  2.37247563E-01 -1.71113218E-02  1.55078399E-01  3.17458922E-01  1.86315611E-01
 -2.37259190E-01  1.71047151E-02  1.55084208E-01 -3.47229123E-01 -2.19241808E-01
 -1.82507851E-01  7.79848624E-02 -2.07055268E-01 -9.60998690E-03 -1.94808570E-02
  6.36312526E-02 -1.53209300E-06  5.88260700E-06 -9.48981028E-02 -1.95933000E-06
  1.38031260E-05 -3.38033592E-01  1.51263832E-01 -5.56382000E-07  2.05490900E-06
 -2.23293472E-01  3.72061351E-01  1.01746823E-02  1.30188899E-01 -4.19697536E-01
  8.88358350E-05 -1.15788091E-02 -1.50024646E-02 -4.28116023E-02  1.30550222E-01
  1.91202986E-01 -1.52528674E-01 -3.44680028E-01 -2.26202317E-01  6.80951189E-03
  4.05962029E-01  1.01739192E-02  1.30184905E-01 -4.19700195E-01 -8.81581770E-05
  1.15760474E-02 -1.50046886E-02  4.28136386E-02 -1.30540891E-01  1.91226147E-01
 -1.52535451E-01  3.44670278E-01  2.26202399E-01  6.80060756E-03  4.05958639E-01
 -2.32140178E-02 -1.71995815E-01  3.71927044E-01  1.98553000E-07  9.24340000E-07
  7.24538428E-02  3.61524000E-07 -5.86505000E-06 -1.33959347E-01  6.69241729E-02
 -1.88552800E-06  9.61784600E-06  1.52253334E-01 -2.28923035E-01  2.95894262E-02
 -1.30947560E-01 -1.83049165E-01 -2.12862589E-01  1.57901703E-02 -2.01728972E-01
 -8.62492329E-03 -6.48356802E-04 -1.33693380E-01 -3.29726194E-01  1.52934020E-01
  1.68654271E-02  1.27200053E-01  1.58691584E-01  2.95910147E-02 -1.30953899E-01
 -1.83098960E-01  2.12870348E-01 -1.57965366E-02 -2.01723015E-01  8.62734177E-03
  6.59251725E-04 -1.33695353E-01 -3.29728440E-01 -1.52943107E-01 -1.68569894E-02
  1.27195407E-01  1.58696525E-01  1.03397355E-01  2.91118398E-03 -1.29910532E-01
  3.89166659E-02  8.38257757E-03 -2.06325708E-01  4.90586979E-02 -1.94912943E-01
 -6.67491281E-02 -2.32529795E-02 -2.06323799E-01  4.90642733E-02  1.94914939E-01
  6.67464239E-02 -2.32489756E-02  1.03415455E-01  2.91920159E-03  1.29920722E-01
 -3.89258024E-02  8.39454067E-03  6.89689408E-02 -2.97732441E-01 -2.76862080E-01
  1.41525400E-06 -6.49338100E-06  3.41463537E-01  2.50757600E-06 -9.03785000E-06
  6.66638662E-01 -3.02991247E-01 -8.18759000E-07 -1.29196000E-07  2.37662750E-02
  2.79099308E-01 -2.36160334E-02 -3.41798280E-01  1.10958718E+00 -7.80379919E-03
  1.81241438E-02  8.11820346E-03  1.48088576E-01 -4.53952773E-01 -2.12037667E-01
  1.96074471E-01 -4.10438222E-01 -5.34584627E-02 -4.33251105E-01 -1.97799612E-01
 -2.36146042E-02 -3.41785039E-01  1.10955046E+00  7.80269251E-03 -1.81222818E-02
  8.11866766E-03 -1.48085978E-01  4.53940607E-01 -2.12040897E-01  1.96069390E-01
  4.10445686E-01  5.34566449E-02 -4.33242548E-01 -1.97793613E-01  4.71525526E-02
  3.44222215E-01 -6.86001945E-01  2.23000000E-10 -4.89621000E-07 -1.51399634E-01
 -3.43895000E-07  3.59532900E-06  2.61923775E-01 -1.42580312E-01 -1.62361000E-07
 -5.65745300E-06  1.95738441E-02 -1.54771471E-01  1.27643614E-03  2.68416465E-02
 -1.69739489E-01 -3.90777668E-02 -3.39265249E-02 -1.79632973E-01 -5.04200138E-02
 -5.00281361E-02 -1.84759593E-01 -9.23754655E-02 -8.54736349E-02  3.33092086E-01
  7.70309953E-02  4.46355326E-02 -1.27573131E-03 -2.68449628E-02  1.69733903E-01
 -3.90688940E-02 -3.39275339E-02  1.79632962E-01 -5.04050836E-02 -5.00283633E-02
  1.84758975E-01  9.23706917E-02 -8.54822600E-02  3.33093530E-01 -7.70312297E-02
 -4.46222083E-02 -1.24907088E-01  3.87633711E-03  1.32432019E-01 -2.33244763E-02
 -1.65670137E-02 -1.14130582E-01 -3.17548024E-02 -1.11759022E-01 -3.27837807E-02
  7.13485651E-03  1.14120140E-01  3.17500109E-02 -1.11750454E-01 -3.27833138E-02
 -7.13679667E-03  1.24920497E-01 -3.86998116E-03  1.32438722E-01 -2.33286721E-02
  1.65749454E-02 -3.07250000E-08  2.52635000E-07  2.44967000E-07 -1.62521919E-01
  5.73058925E-01  8.06751000E-07 -1.96541964E-01  7.43198291E-01  1.76847200E-06
 -7.82769000E-07  3.19164462E-02 -1.23798912E-01 -9.03863000E-07  1.74712000E-07
  3.55885953E-02  4.32242167E-01 -1.30014200E+00 -3.54949706E-04 -1.40560620E-02
  4.46943125E-02 -1.25191982E-01  3.60257583E-01 -1.69246800E-01 -4.18840026E-01
 -9.30546231E-03  4.83731074E-01  2.34519160E-01  1.30378946E-01 -3.55889012E-02
 -4.32245309E-01  1.30015129E+00 -3.55199093E-04 -1.40564663E-02 -4.46938134E-02
 -1.25191775E-01  3.60259056E-01  1.69241741E-01  4.18841858E-01 -9.29753305E-03
  4.83730506E-01 -2.34519042E-01 -1.30380253E-01  5.77720000E-08  6.06210000E-07
 -1.69764400E-06 -1.05730732E-02  4.15261774E-02 -2.14733000E-07  7.40432719E-02
 -2.71353681E-01  4.60465000E-07 -2.93401000E-07 -1.01789386E-01  3.31509164E-01
  2.36927000E-07 -3.67070000E-08 -2.25541037E-02  1.06156428E-01  5.90782302E-01
  9.53741832E-02 -5.30454800E-02  3.09465528E-01  1.34341398E-01 -2.71458525E-02
  3.59227785E-01  4.13003097E-01  1.07315231E-01 -1.20501334E-01 -1.88996373E-03
 -3.75429981E-02  2.25544498E-02 -1.06158516E-01 -5.90783720E-01  9.53862932E-02
 -5.30460203E-02 -3.09464094E-01  1.34346409E-01 -2.71480733E-02 -3.59226524E-01
 -4.13009470E-01  1.07303795E-01 -1.20500326E-01  1.89306043E-03  3.75531070E-02
  2.69374579E-02 -7.81961692E-02 -2.26953437E-02 -1.30432422E-02  6.87666561E-02
  1.07472969E-01  1.86151182E-02  9.65784691E-02  5.83999889E-02  5.96540601E-02
 -1.07484716E-01 -1.86176286E-02  9.65902257E-02  5.84038078E-02 -5.96553847E-02
 -2.69258228E-02  7.81998485E-02 -2.26860916E-02 -1.30477158E-02 -6.87601782E-02
 -1.46849000E-07  8.98873000E-07  8.49753000E-07 -1.01348793E-01  1.30289813E-01
  2.53970000E-07 -1.89677432E-01  6.25752012E-01 -4.74764000E-07  4.53608000E-07
 -3.74084075E-01  2.48283595E-01  6.85020000E-08 -1.51463500E-06  8.51541376E-03
 -9.98728878E-02  3.93877650E-01  9.42335812E-03 -4.26228820E-02  8.36775561E-02
  7.07364624E-02 -8.81610997E-02 -7.31918400E-01  3.59159996E-01 -2.47824525E-01
  2.49668794E-01 -2.13216418E-01 -3.36937397E-02 -8.51547103E-03  9.98723199E-02
 -3.93877464E-01  9.42366276E-03 -4.26228913E-02 -8.36774988E-02  7.07388508E-02
 -8.81617454E-02  7.31915343E-01 -3.59155731E-01 -2.47829104E-01  2.49664900E-01
  2.13216478E-01  3.36914613E-02  3.00140000E-08  5.59270000E-08 -2.48280000E-08
  2.12133374E-03  2.48836978E-02 -2.13100000E-09  1.84979066E-01 -2.72582933E-01
  9.97070000E-08  2.04219000E-07 -5.28926503E-01  4.26715424E-01 -6.31299000E-07
  1.07248100E-06  1.04895886E-02 -5.35439262E-02 -3.31732243E-01 -9.75353554E-02
  3.98529732E-02 -1.27686762E-01 -6.69225388E-02 -1.32674310E-02 -1.84302866E-01
 -2.29499641E-01  4.99004383E-02  3.88944172E-02 -1.20313302E-02  5.55869542E-02
 -1.04898148E-02  5.35455189E-02  3.31731737E-01 -9.75401512E-02  3.98539365E-02
  1.27684792E-01 -6.69255292E-02 -1.32665407E-02  1.84301350E-01  2.29502080E-01
  4.99051701E-02  3.88932009E-02  1.20298455E-02 -5.55913372E-02  5.49909190E-02
  4.35418197E-02 -3.84826914E-02  4.48045329E-02 -6.04153819E-04 -8.83969778E-02
 -2.74916783E-02 -9.59652696E-02 -4.12949630E-02 -2.97854530E-02  8.84014963E-02
  2.74935930E-02 -9.59699349E-02 -4.12958462E-02  2.97856808E-02 -5.49965709E-02
 -4.35438163E-02 -3.84863869E-02  4.48072471E-02  6.00304268E-04  4.60210000E-08
 -5.75858000E-07  2.87655000E-07 -9.74296698E-02 -7.27089690E-02 -3.93953000E-07
  2.23247983E-02 -2.72686129E-01 -1.14603400E-06  8.42093000E-07 -6.00571545E-01
 -3.26372957E-01 -6.55895000E-07  3.65633000E-07 -1.63157004E-03  6.96325385E-02
 -2.52211302E-01  3.98581923E-03  1.79285731E-02 -3.65434689E-02 -1.29610739E-01
  4.49905391E-02  3.25269812E-01 -1.41582467E-01  7.87086149E-02 -1.13374070E-01
 -7.40074844E-02  3.31295062E-01  1.63161885E-03 -6.96320687E-02  2.52210443E-01
  3.98573279E-03  1.79286762E-02  3.65434968E-02 -1.29612152E-01  4.49899545E-02
 -3.25268949E-01  1.41581096E-01  7.87104824E-02 -1.13372008E-01  7.40081313E-02
 -3.31294256E-01 -4.37750000E-08 -4.50183000E-07  1.35493100E-06  2.12359097E-02
 -2.37738156E-03  1.13790000E-07  1.98877906E-01  1.89225961E-01 -7.26384000E-07
  1.25736600E-06 -7.57896089E-01 -4.43002053E-01 -4.84321000E-07 -3.93418000E-07
 -1.56804686E-02 -3.86365805E-02  3.20130945E-01  2.50316440E-02 -4.74537503E-03
  2.30151920E-01  1.78266023E-02 -3.92767970E-02  2.81466757E-01  1.89959031E-01
  1.91546482E-01 -2.02861342E-01 -7.34986146E-02 -9.00196643E-02 -1.56800877E-02
 -3.86383215E-02  3.20119743E-01 -2.50343968E-02  4.74366410E-03  2.30151819E-01
 -1.78258554E-02  3.92791942E-02  2.81467330E-01  1.89959895E-01 -1.91543035E-01
  2.02862890E-01 -7.35025593E-02 -9.00200876E-02  1.17759207E-01  3.43480209E-02
 -1.09114201E-01  9.10224430E-02  2.38872264E-02  6.46829752E-02 -2.68269430E-02
  7.42351210E-02  1.43789828E-02  1.82103223E-02  6.46874840E-02 -2.68254176E-02
 -7.42393245E-02 -1.43813802E-02  1.82108101E-02  1.17760069E-01  3.43496279E-02
  1.09112561E-01 -9.10232351E-02  2.38883823E-02 -3.54910167E-02  4.72458325E-01
  2.43808640E-02  1.62010000E-07 -4.54730000E-08  4.09704230E-01  8.26013000E-07
  5.20637000E-07  8.95271391E-01 -2.74335481E-01 -8.06788000E-07  4.47421000E-07
 -1.61399281E-01 -1.15088888E-01 -1.19062025E-02  1.19052963E-02 -1.53080105E-01
 -2.05656613E-02  7.37799613E-02 -2.23569131E-02  2.19504034E-02 -2.10471482E-01
  2.62295286E-01 -6.41120046E-01  5.16469395E-02  3.91871468E-02 -1.49062970E-01
 -9.46254334E-02 -1.19062256E-02  1.19056437E-02 -1.53082073E-01  2.05657136E-02
 -7.37799398E-02 -2.23569989E-02 -2.19483747E-02  2.10471292E-01  2.62296798E-01
 -6.41120102E-01 -5.16514756E-02 -3.91867410E-02 -1.49063266E-01 -9.46249769E-02
  5.73477262E-02  5.29853981E-01 -1.43596945E+00  2.88320000E-08  3.59290000E-08
 -1.19357289E-01  4.22516000E-07 -4.35918000E-07  6.46498683E-01 -4.69366351E-01
 -1.16057700E-06  4.99479000E-07  8.19843510E-02  5.81242429E-02 -1.64397456E-02
  3.20272479E-02  3.11670321E-01 -3.48175644E-02 -1.57829130E-05  1.74820794E-01
 -9.03918801E-02 -4.33263415E-02  2.19064681E-01  2.14807666E-01  1.15967473E-01
 -6.12709217E-02 -1.12746687E-02  1.34989512E-01 -1.64395790E-02  3.20256126E-02
  3.11677065E-01  3.48127474E-02  1.60442210E-05  1.74819957E-01  9.03901075E-02
  4.33229044E-02  2.19067559E-01  2.14808195E-01 -1.15962096E-01  6.12721385E-02
 -1.12736697E-02  1.34985800E-01  1.27990833E-01  5.80496447E-02 -6.99968111E-02
  2.01348828E-02  1.34648511E-01 -6.77507248E-02 -6.20746916E-02 -2.56561309E-02
  4.14374756E-03  2.66492335E-03 -6.77465043E-02 -6.20729458E-02  2.56513324E-02
 -4.14562674E-03  2.66573839E-03  1.27985832E-01  5.80484965E-02  6.99925936E-02
 -2.01333032E-02  1.34645948E-01  1.52651017E-01 -9.37888947E-01 -1.12742142E+00
 -4.47300000E-08  6.66817000E-07  2.28723247E-01  1.40632000E-07  1.43261600E-06
  1.30415123E-01  1.13099851E-01 -4.25977000E-07  1.68750000E-08  4.88944263E-01
  2.52275063E-01 -8.00286352E-04 -8.66728534E-02  4.14960763E-01  7.82057907E-03
 -1.93971425E-02 -1.36774545E-02  3.43224953E-02 -3.39635870E-01  6.90310520E-01
 -6.94105150E-02  2.72588799E-01 -6.89047011E-01 -2.09857612E-01 -1.19833188E-01
 -8.00357511E-04 -8.66736069E-02  4.14965091E-01 -7.82052769E-03  1.93969808E-02
 -1.36779696E-02 -3.43201600E-02  3.39636718E-01  6.90311985E-01 -6.94086596E-02
 -2.72590755E-01  6.89048097E-01 -2.09858006E-01 -1.19831361E-01 -2.19542504E-02
 -2.15883867E-01  6.28876647E-01  1.08316000E-07  3.68230000E-08  4.28050853E-02
 -2.22967000E-07 -5.60213000E-07 -2.91919781E-01  1.68368110E-01 -6.24320000E-08
  7.79198000E-07 -7.84483484E-02 -3.11938246E-02  7.17006558E-03 -5.72924778E-02
 -1.17651578E-01 -5.43997297E-03  1.19932903E-03  4.03096164E-03  2.86396512E-02
 -1.98004743E-02 -1.42711760E-02 -1.32104931E-02  5.62606129E-02 -8.86595997E-02
 -2.91934305E-02 -3.43201018E-02  7.17006926E-03 -5.72921013E-02 -1.17659271E-01
  5.44088928E-03 -1.19967234E-03  4.03187618E-03 -2.86407071E-02  1.98031540E-02
 -1.42719433E-02 -1.32101518E-02 -5.62617337E-02  8.86606502E-02 -2.91941443E-02
 -3.43188937E-02  5.08535831E-02  1.30992564E-02 -4.35449862E-02  4.00081942E-02
  3.23104175E-04  3.63163401E-02  3.78801648E-02  2.33107793E-02  1.36885011E-02
  2.15597282E-04  3.63164479E-02  3.78812728E-02 -2.33103166E-02 -1.36886678E-02
  2.15049756E-04  5.08554726E-02  1.30995216E-02  4.35457572E-02 -4.00090699E-02
  3.24858191E-04  1.51652603E-01 -1.26281658E+00 -6.12139273E-01 -2.88132000E-07
 -7.99013000E-07 -8.44539789E-01 -3.01246000E-07 -1.04735000E-07 -4.68819801E-01
 -8.36382796E-01 -1.66295700E-06  2.80644100E-06 -1.07373188E-01 -6.64246381E-02
 -1.12759515E-02 -8.15507969E-02  1.60298148E-01 -8.12776804E-03  2.13364180E-02
  7.84460784E-03  4.13841761E-02 -1.10072437E-01 -5.88053895E-02 -2.37859308E-01
 -4.64669524E-02  1.41253453E-01 -1.33800083E-01 -8.87330708E-02 -1.12760443E-02
 -8.15505500E-02  1.60295012E-01  8.12789518E-03 -2.13369134E-02  7.84422039E-03
 -4.13836563E-02  1.10070534E-01 -5.88062471E-02 -2.37858114E-01  4.64668784E-02
 -1.41255190E-01 -1.33798401E-01 -8.87322196E-02  2.99069725E-02 -1.01524841E-01
  1.71269413E+00 -1.91105000E-07 -6.71640000E-08 -3.48303048E-01 -4.77612000E-07
 -4.31412000E-07 -1.02086638E+00  1.14455231E+00  7.48736000E-07  1.41433600E-06
  3.19977703E-02  1.86796510E-02 -1.29961748E-02  3.00629016E-02  1.31005334E-01
  2.76130143E-02 -5.27221642E-02  1.54333533E-01  2.21514657E-02 -1.12972293E-01
  2.05875924E-01  2.08234994E-01  8.11155308E-02 -1.19066398E-01  2.13116540E-02
 -1.12567806E-02  1.29961604E-02 -3.00625973E-02 -1.31006926E-01  2.76145963E-02
 -5.27223302E-02 -1.54333122E-01  2.21475818E-02 -1.12972519E-01 -2.05876824E-01
 -2.08235667E-01  8.11120698E-02 -1.19066645E-01 -2.13111261E-02  1.12570053E-02
  5.40201408E-02 -1.45191598E-03 -3.66194735E-02  5.42104775E-03  4.31254943E-02
  2.74923077E-02 -1.19531346E-02  3.20544420E-02  1.16157655E-02  2.17073681E-03
 -2.74927156E-02  1.19545914E-02  3.20560879E-02  1.16166207E-02 -2.16971829E-03
 -5.40189099E-02  1.45105018E-03 -3.66174795E-02  5.42039785E-03 -4.31251102E-02
  4.50587000E-07 -3.84655100E-06 -1.44309200E-06 -9.63165842E-02  3.52134899E-01
 -1.86619500E-06 -5.44021217E-02  1.89168253E-01 -2.16733300E-06 -2.76120000E-06
  2.50319155E-01 -9.15262604E-01 -1.08063000E-07 -1.02401500E-06 -2.47446896E-02
 -6.61288068E-02 -1.08998125E-01 -2.63344028E-02  9.09067499E-02 -6.64522489E-02
 -2.90080073E-02  3.06997429E-01 -4.34009631E-01  3.47059219E-01 -1.73128265E-01
  4.34107124E-01  3.19353535E-01  1.60481014E-01  2.47446511E-02  6.61285141E-02
  1.08998697E-01 -2.63340312E-02  9.09067021E-02  6.64523280E-02 -2.90072079E-02
  3.06998158E-01  4.34009901E-01 -3.47059476E-01 -1.73129504E-01  4.34106875E-01
 -3.19354778E-01 -1.60480590E-01  8.54990000E-08 -3.93827000E-07  5.28349800E-06
 -1.34982537E-02  5.10317941E-02 -9.04418000E-07 -5.31290299E-02  1.92377350E-01
 -2.72996400E-06  2.52877100E-06  1.74053220E-01 -6.32863275E-01  5.81450000E-08
 -3.59313000E-07
Total SCF Density                          R   N=        5460
  2.08143843E+00 -1.69299180E-01  5.70357219E-01 -1.05879034E-01  5.78582721E-02
  4.49844959E-02  3.55752950E-03 -6.85900385E-03 -8.08734693E-03  4.38510183E-01
 -8.40990373E-03  2.10390032E-02  6.78256030E-02  5.49089891E-03  4.23913353E-01
  1.59344470E-02 -2.50667485E-02 -9.37876837E-03 -2.63569635E-02  3.41491192E-02
  3.28100702E-01  9.17696804E-03 -8.02485928E-03 -6.38364669E-03  1.40886534E-01
  6.97952673E-03 -1.07162538E-02  5.27910674E-02 -1.06610447E-02  8.22056757E-03
  3.61404118E-02  5.79776463E-03  1.62410717E-01  2.60789404E-02  2.11180877E-03
  7.08303746E-02  1.94877436E-02 -3.74743779E-02  1.12926599E-03 -9.44859846E-03
  1.98580309E-02  1.04442517E-01 -4.92863353E-03  1.06152718E-02  4.55476961E-02
 -1.66523127E-03  3.61162639E-03 -1.46506242E-03  9.05801738E-03 -8.43678575E-03
  2.31831302E-02  1.51358803E-03 -1.10878659E-03  6.13162086E-03  2.69503377E-03
 -8.30230345E-04  7.38708123E-04 -2.89195056E-03 -7.87832496E-03  2.94050378E-04
  1.15808614E-02 -4.21844002E-04 -3.81321873E-04  2.37980972E-03  3.65271581E-04
  1.75162160E-03  8.12630615E-04  1.33232124E-03 -8.45515519E-04  5.99838703E-04
  1.72952793E-03 -7.31776339E-03  3.70450571E-04  8.84559696E-04 -3.35910521E-03
 -4.51810685E-04 -2.17466437E-04  1.32904019E-03  2.63096258E-03 -1.96478972E-03
 -3.68335778E-03 -4.11046181E-03 -1.70234716E-02 -3.46198017E-03 -8.03131356E-04
 -6.38604037E-03 -2.25295539E-03  8.48749845E-05  2.86833529E-04  2.77833895E-04
  9.99275390E-04  1.47086948E-04  2.88715950E-05  6.22058350E-04 -1.11898945E-02
  6.11954643E-04  1.00100332E-03 -2.78922752E-03  4.99915309E-04  4.50649438E-04
 -2.37569196E-04  1.18119094E-04  1.66493596E-04  1.37276135E-04  8.10179846E-04
  1.83836128E-02 -2.89666429E-02 -1.94103589E-02  3.99436409E-04 -8.93610756E-02
  8.38260713E-04  1.61619124E-03 -2.85601206E-02 -1.31699250E-02  5.39282611E-03
 -5.49389756E-05  9.04442631E-04  9.23628441E-03 -5.96701368E-05  2.08143845E+00
 -2.89666455E-02  3.93563743E-02  7.32615016E-02 -1.05738972E-03  1.90783896E-01
  3.74391491E-03  1.28775075E-03  7.39872208E-02  1.96494330E-02 -8.19357664E-03
 -4.64580783E-04 -2.61830700E-03 -1.43273378E-02  1.91515775E-04 -1.69299222E-01
  5.70357352E-01 -1.94104762E-02  7.32614129E-02  4.82162262E-03 -9.90544424E-05
  5.64366095E-02 -2.73388913E-02  5.22549016E-03  1.05883571E-02 -1.25595689E-02
 -4.54061126E-03  1.83675365E-03 -1.49818778E-03 -2.84374079E-03 -3.46706326E-04
 -1.05879125E-01  5.78582150E-02  4.49837430E-02 -3.99049463E-04  1.05620503E-03
  1.01947581E-04  3.33280911E-03 -1.89825011E-03  6.23228268E-03  2.90517422E-02
 -1.62640342E-03  1.14203118E-02 -1.57491150E-03 -4.90450453E-04  8.43792646E-04
  7.41598582E-04  1.44427373E-02 -3.55745737E-03  6.85915806E-03  8.08336251E-03
  4.38510185E-01  8.93610526E-02 -1.90783819E-01 -5.64368690E-02 -1.89721838E-03
 -3.52635936E-01  1.18993842E-02 -1.60657550E-03 -1.23172812E-01 -1.50895677E-03
  8.32743844E-03  1.40381782E-03 -2.08305596E-03  1.34875050E-02  2.53060668E-04
  8.40992606E-03 -2.10390732E-02 -6.78254123E-02  5.49114703E-03  4.23913313E-01
  8.38245631E-04  3.74385352E-03 -2.73381241E-02 -6.23233843E-03 -1.18992219E-02
  2.03493254E-02  2.16743464E-03 -2.15506348E-02  8.72947696E-03 -8.95615889E-04
 -7.27020370E-04  8.11598125E-03  3.22562563E-04  1.10698861E-03  1.59344575E-02
 -2.50666785E-02 -9.37975818E-03  2.63569372E-02 -3.41491641E-02  3.28100713E-01
 -1.61648527E-03 -1.28743859E-03 -5.22503763E-03  2.90514962E-02 -1.60715534E-03
 -2.16743677E-03  1.71165281E-02 -2.47822740E-03 -2.01395051E-03  1.32180725E-04
 -9.03051834E-04  8.14343163E-04 -7.59046511E-05  3.94978346E-03 -9.17644084E-03
  8.02352162E-03  6.38246196E-03  1.40886629E-01  6.97930825E-03  1.07160809E-02
  5.27910642E-02  2.85601531E-02 -7.39871833E-02 -1.05881417E-02 -1.62711486E-03
 -1.23172769E-01  2.15510524E-02 -2.47824739E-03 -3.48926486E-02  3.69652192E-03
  5.12083695E-03 -2.30416661E-04 -5.48621467E-04  4.82139113E-03  6.67988227E-04
  1.06611202E-02 -8.22059164E-03 -3.61403773E-02  5.79928957E-03  1.62410620E-01
 -2.60786106E-02  2.11199593E-03  7.08304367E-02 -1.31700450E-02  1.96494568E-02
 -1.25595084E-02 -1.14190327E-02  1.50901484E-03  8.72928202E-03  2.01412162E-03
 -3.69626921E-03 -6.00354115E-03 -2.44597842E-04  2.25261066E-03  4.04290251E-03
  1.38485395E-03  8.39389119E-04  1.94877636E-02 -3.74746806E-02  1.12877185E-03
  9.44667744E-03 -1.98581525E-02  1.04442215E-01  4.92827080E-03 -1.06152672E-02
  4.55475567E-02  5.39281403E-03 -8.19354376E-03 -4.54067476E-03  1.57494499E-03
 -8.32745737E-03 -8.95615019E-04 -1.32168434E-04 -5.12084786E-03 -2.44638689E-04
 -8.46215373E-05 -1.52867074E-04  5.29675261E-04  1.56082141E-04 -3.66435644E-04
 -1.66522140E-03  3.61165129E-03 -1.46504679E-03 -9.05829774E-03  8.43685001E-03
  2.31831020E-02 -1.51372553E-03  1.10877592E-03  6.13165067E-03  2.69504398E-03
  5.49476994E-05  4.64577952E-04 -1.83688088E-03 -4.90489958E-04  1.40375027E-03
  7.27029111E-04 -9.03053192E-04 -2.30491898E-04 -2.25262836E-03  1.52862313E-04
  2.17858299E-04 -3.26584151E-04 -6.23617779E-05 -2.72604792E-04  8.30236356E-04
 -7.38547069E-04  2.89197394E-03 -7.87814406E-03  2.94156809E-04 -1.15806899E-02
 -4.21791353E-04 -3.81369993E-04 -2.37969713E-03 -3.65257004E-04  1.75160410E-03
 -9.04442503E-04  2.61831035E-03  1.49823242E-03  8.43835348E-04 -2.08309895E-03
 -8.11598551E-03  8.14345175E-04 -5.48612672E-04 -4.04289535E-03 -5.29671450E-04
 -3.26588932E-04  9.24211943E-05  1.51913364E-04  3.69573185E-05 -8.12625629E-04
 -1.33233672E-03  8.45424113E-04  5.99925191E-04  1.72957169E-03  7.31786608E-03
  3.70465140E-04  8.84598528E-04  3.35913228E-03  4.51813154E-04 -2.17470578E-04
  1.32904634E-03  9.23627970E-03 -1.43273265E-02 -2.84373758E-03 -7.41613402E-04
 -1.34874931E-02  3.22611106E-04  7.59571223E-05 -4.82139078E-03  1.38488213E-03
  1.56080285E-04  6.23646116E-05 -1.51910322E-04  5.46020841E-04  1.29492385E-04
  2.63095467E-03 -1.96480508E-03 -3.68333602E-03  4.11088490E-03  1.70234368E-02
 -3.46193894E-03  8.03262901E-04  6.38604365E-03 -2.25296581E-03  8.48687741E-05
 -2.86830491E-04 -2.77833540E-04  9.99277825E-04 -5.96649676E-05  1.91504257E-04
 -3.46502095E-04 -1.44427212E-02 -2.53019042E-04  1.10704439E-03 -3.94977367E-03
 -6.67897905E-04  8.39490379E-04 -3.66422323E-04  2.72610560E-04 -3.69540690E-05
  1.29475383E-04  7.13661680E-04  1.47054762E-04  2.88803268E-05  6.21863130E-04
  1.11898417E-02 -6.12045688E-04  1.00109157E-03  2.78922813E-03 -4.99876791E-04
  4.50596033E-04 -2.37571897E-04 -1.18111271E-04 -1.66487310E-04  1.37282047E-04
  8.10174264E-04 -1.05895979E-01  2.00187319E-01  4.45507052E-03  2.71822205E-01
 -1.48835302E-01 -1.94891445E-01  7.65695630E-02 -5.74312561E-02 -7.48858961E-02
 -3.26937434E-04 -1.31857664E-02  4.98644853E-03  3.65408279E-03 -7.92630943E-03
  1.86454976E-02 -5.17260235E-02  9.00986508E-03 -2.67769065E-02  4.48449388E-02
  3.11626960E-03  1.10683963E-02  8.27468171E-03 -5.28712321E-03  2.76539148E-03
 -1.27449224E-03  5.85918760E-03 -1.55270205E-03 -9.83688296E-03  3.90124101E-01
 -8.18078024E-03  4.35240417E-02  6.13178841E-06  1.12241325E-01 -6.45060390E-02
 -6.72085201E-02  2.58801520E-02 -2.30595822E-02 -2.09550951E-02  1.33277974E-03
 -7.14939080E-03  1.97022664E-03  1.01598904E-03 -3.89374019E-03  8.33467117E-03
 -2.32963898E-02 -8.94925114E-03 -3.29607077E-02  3.03161928E-02  8.81367412E-03
 -3.18981892E-03  9.85569546E-03 -6.42615690E-03  2.72000880E-03 -1.23716593E-03
  1.27522626E-03  3.98184424E-04 -4.55373356E-03  1.49159048E-01  6.66013997E-02
  1.19228896E-02 -1.60835594E-02 -9.96079700E-04 -1.24648896E-03  8.43778600E-03
  8.70844945E-03 -1.36402088E-04  3.38059235E-03  3.61349195E-03  2.09325565E-04
  2.80331472E-04 -1.78434008E-04 -3.18161582E-04  3.03357982E-05 -9.70041654E-05
  1.38194479E-03 -1.41045234E-03 -7.55511237E-04 -1.48535185E-03 -1.83205703E-04
 -3.12187587E-04 -4.63824541E-06 -2.48351886E-04  4.24671806E-05  1.19268774E-04
 -2.72343261E-04  1.29888856E-04  2.50288308E-05 -1.36620452E-02 -4.34465815E-03
  8.48754936E-04 -6.02791713E-03  9.23150771E-03  2.15700383E-03  8.71951949E-03
  5.16827120E-03 -4.75670580E-03  2.69391607E-03  1.99501384E-03 -1.73268231E-03
 -1.41244576E-04 -3.82123364E-04  7.16414835E-05 -3.02976027E-04 -1.79236909E-04
 -5.40829398E-04  2.41079786E-03  2.01218269E-03  1.26093351E-03 -7.74835045E-03
 -8.30498296E-04  8.72571996E-04 -2.93118401E-03 -3.22709882E-04 -2.71664882E-04
 -3.18395277E-05  1.68592843E-04 -4.05030195E-04 -2.63485814E-04  9.16727401E-03
  3.02789957E-03 -2.96644034E-04  4.60243562E-04 -8.54301512E-03  1.11168132E-02
  1.17560444E-04  8.43136800E-03 -4.98113591E-03 -1.38846355E-03  2.57133125E-03
 -1.85587344E-03 -1.37865591E-03  3.52199602E-04 -5.04703844E-05  3.57369292E-05
  1.19496881E-04 -2.78052697E-04  6.62192288E-04 -1.28939005E-03  8.99589716E-04
 -1.43041665E-03  9.62609604E-04 -5.74523065E-04  1.35334284E-04  1.05914127E-04
  1.50792858E-04 -2.25439575E-05  5.33447312E-05  6.69062043E-05 -1.43718423E-04
 -3.17210941E-04  1.13048326E-02  3.74398215E-03 -4.68431604E-04  2.82953502E-04
  4.87834716E-04 -1.02638555E-01  1.98491162E-01 -4.06749654E-04 -3.30000057E-01
 -1.41650205E-01 -6.69105085E-02 -1.00028111E-01 -6.04865377E-02 -3.70540386E-02
 -8.58067374E-03  7.23089811E-03  2.67580700E-03  1.00127426E-02  9.38527888E-03
  1.85519906E-02 -5.03365702E-02  1.63006828E-02  3.64343725E-02  5.25464958E-02
  1.32902252E-02 -9.41396364E-03  1.13005800E-02  2.38513767E-02 -1.74320491E-03
 -1.13958030E-03  2.45854961E-03  4.76776694E-04  1.17980747E-02 -5.71876942E-02
 -4.67464676E-02 -9.26737104E-03 -4.33047993E-03 -4.01777873E-04  3.93854068E-01
 -2.69632126E-03  4.05825466E-02 -1.20526730E-02 -1.32647964E-01 -6.24481538E-02
 -1.92522371E-02 -3.19332690E-02 -2.79097763E-02 -1.16112908E-02 -4.08713412E-03
  5.76930029E-03  1.50660575E-03  5.16164694E-03  4.81219826E-03  9.84909372E-03
 -2.46263701E-02  5.31389297E-03  4.97941963E-02  3.99499112E-02  1.23994196E-02
  6.16574745E-03  9.60822214E-03  1.53791500E-02 -6.26788658E-04 -1.69177875E-03
  5.87607485E-04  1.95104325E-03  5.69458704E-03 -4.75671613E-02 -3.16290359E-02
 -2.53737031E-03 -2.69335703E-03 -8.86682022E-04  1.56655868E-01  7.54480698E-02
 -1.43786951E-02  1.94240365E-02  1.21262732E-03 -7.57762649E-03 -9.10508990E-03
 -5.79964979E-03 -2.79859437E-03 -3.61678329E-03 -2.97584803E-03 -1.54839615E-04
 -3.70262562E-06  1.27432947E-04  4.06210003E-04  1.67546200E-04  2.16821200E-04
 -1.62474030E-03  1.54323463E-03 -1.31336435E-04  1.29890555E-03  2.34543341E-04
 -5.00008415E-04  2.18724925E-05  6.55998328E-04 -9.86996900E-05 -5.53831861E-05
  1.96576485E-04 -1.82174441E-04  2.45679171E-04  8.39006185E-03  2.01475387E-03
 -8.72658460E-04  1.28752562E-04  3.82717582E-04  1.67355967E-02  5.32518308E-03
  1.11881584E-03 -5.23147192E-03  8.45131082E-03  1.57654420E-03 -9.65945637E-03
  5.37318371E-03 -7.49834403E-04 -2.85796527E-03  1.73749181E-03 -7.06156539E-04
 -3.98352817E-04  3.10919995E-04  1.11898097E-05 -1.07893523E-04  1.93666756E-04
 -6.77805622E-04  2.81047047E-03  2.30855798E-03 -1.29521243E-03 -7.24451384E-03
 -2.93520287E-04 -1.07917207E-03 -2.92784567E-03  6.97387611E-04 -2.42530707E-04
  9.09455329E-05  3.30818624E-05 -3.71274784E-04  2.92664825E-04 -4.65449311E-03
 -2.84250310E-03 -1.28977196E-04  1.17249026E-05 -6.90585157E-05  8.95496623E-03
  3.19386096E-03  3.57057306E-04  4.37535926E-04 -2.74723560E-03  3.88855770E-03
  4.69738226E-04 -5.65830580E-03 -7.18219072E-04  4.93483417E-03 -1.97492065E-03
 -7.09375708E-05  1.26437686E-03  2.95059677E-04  1.89222453E-04 -1.40596218E-04
  1.80834503E-05  1.82017332E-04  6.38132099E-04 -2.28297338E-04 -9.08930399E-05
  9.00281149E-04  3.84130887E-05  1.55768433E-04 -3.74871817E-05  3.79960330E-04
  2.86760918E-04 -1.05261389E-04  6.06530086E-05 -4.76289470E-05 -6.87385804E-05
  2.01160356E-04 -4.06562656E-03 -1.81903502E-03 -4.39922740E-07 -1.09713558E-04
 -2.25763389E-05  4.66173294E-03  1.51230805E-03  1.74977569E-04  1.39191613E-04
  1.93216736E-04  1.85520478E-02 -5.03367859E-02  1.63031729E-02 -3.64344327E-02
 -5.25460218E-02  1.32902797E-02  9.41461867E-03 -1.12995987E-02  2.38525128E-02
 -1.74321205E-03  1.13964076E-03 -2.45851918E-03  4.76701170E-04  1.17981837E-02
 -1.02638298E-01  1.98490952E-01 -4.09320367E-04  3.30001826E-01  1.41648588E-01
 -6.69093024E-02  1.00028237E-01  6.04871438E-02 -3.70553190E-02 -8.58084540E-03
 -7.23075726E-03 -2.67571473E-03  1.00129596E-02  9.38521814E-03 -5.01941820E-02
 -3.25119065E-02 -5.37727646E-04 -1.51516353E-03 -1.88162312E-03  5.57478280E-02
  5.50459235E-02  4.81949311E-04 -1.60039606E-03  8.88988856E-04  3.93854749E-01
  9.84931386E-03 -2.46268252E-02  5.31531071E-03 -4.97942692E-02 -3.99496393E-02
  1.23994916E-02 -6.16549161E-03 -9.60763337E-03  1.53797611E-02 -6.26774764E-04
  1.69184236E-03 -5.87625861E-04  1.95097799E-03  5.69464576E-03 -2.69638237E-03
  4.05828095E-02 -1.20537205E-02  1.32648718E-01  6.24477090E-02 -1.92524971E-02
  3.19334879E-02  2.79103317E-02 -1.16122047E-02 -4.08723794E-03 -5.76919234E-03
 -1.50655550E-03  5.16173267E-03  4.81216758E-03 -4.04857954E-02 -1.99608136E-02
 -2.65021947E-04 -1.63525909E-03 -1.32689715E-03  5.50457132E-02  3.84419601E-02
  9.66709608E-04 -1.68122494E-04  7.53706550E-04  1.56656424E-01  7.54482328E-02
 -2.16804505E-04  1.62470794E-03 -1.54329036E-03 -1.31299819E-04  1.29884730E-03
 -2.34494745E-04 -5.00045236E-04  2.18381778E-05 -6.56015959E-04  9.87083721E-05
 -5.53824640E-05  1.96571367E-04  1.82176005E-04 -2.45688485E-04  1.43787154E-02
 -1.94240920E-02 -1.21258589E-03 -7.57781198E-03 -9.10499711E-03  5.79954945E-03
 -2.79859015E-03 -3.61676834E-03  2.97586149E-03  1.54843132E-04 -3.69729449E-06
  1.27429769E-04 -4.06214456E-04 -1.67547220E-04  7.80175327E-04  7.23054283E-04
  3.82579952E-05  4.58386955E-05  4.53417427E-06 -4.82007729E-04 -9.66764493E-04
 -1.95150079E-05  6.89935838E-05 -8.87550282E-06 -1.67356847E-02 -5.32525880E-03
  1.11881845E-03  6.77811169E-04 -2.81051331E-03 -2.30861504E-03 -1.29524887E-03
 -7.24452560E-03  2.93520135E-04 -1.07919825E-03 -2.92786522E-03 -6.97409060E-04
  2.42529635E-04  9.09439128E-05  3.30797922E-05  3.71274057E-04 -2.92662082E-04
  5.23139806E-03 -8.45122471E-03 -1.57646939E-03 -9.65940763E-03  5.37327321E-03
  7.49751184E-04 -2.85792935E-03  1.73749289E-03  7.06169641E-04  3.98356170E-04
  3.10919814E-04  1.11888447E-05  1.07889031E-04 -1.93663255E-04  1.12199582E-03
  1.05857050E-03 -1.69458008E-05 -1.93721676E-04  4.81426914E-05  1.60042595E-03
  1.68133929E-04  6.89949398E-05 -6.98107642E-05  6.27477303E-06 -8.95490688E-03
 -3.19385273E-03  3.57056605E-04  4.37533683E-04  6.38128773E-04 -2.28277113E-04
 -9.08567830E-05 -9.00329032E-04 -3.83954889E-05  1.55766224E-04  3.74798561E-05
 -3.79942023E-04  2.86755604E-04 -1.05260790E-04 -6.06479696E-05  4.76275047E-05
 -6.87380698E-05  2.01156347E-04 -2.74707183E-03  3.88833656E-03  4.69676857E-04
  5.65819459E-03  7.18114076E-04  4.93485762E-03  1.97487292E-03  7.09151863E-05
  1.26438268E-03  2.95055188E-04 -1.89207932E-04  1.40603741E-04  1.80820866E-05
  1.82016434E-04 -7.83341078E-04 -4.20081722E-04 -9.25067314E-06 -1.34742071E-05
 -5.46436981E-05  8.89015077E-04  7.53706394E-04  8.87625994E-06 -6.27132035E-06
  2.39362628E-05  4.66154440E-03  1.51223207E-03 -1.74968355E-04 -1.39185677E-04
  1.93211755E-04  1.86454474E-02 -5.17257593E-02  9.00717327E-03  2.67768227E-02
 -4.48454601E-02  3.11637532E-03 -1.10681530E-02 -8.27576978E-03 -5.28806489E-03
  2.76534443E-03  1.27448304E-03 -5.85914469E-03 -1.55260137E-03 -9.83679356E-03
 -1.05896284E-01  2.00187628E-01  4.45793760E-03 -2.71820174E-01  1.48836694E-01
 -1.94891991E-01 -7.65694558E-02  5.74305344E-02 -7.48847738E-02 -3.26774474E-04
  1.31856425E-02 -4.98656565E-03  3.65389222E-03 -7.92629283E-03  2.22063388E-02
  2.11150161E-02  8.04303081E-04 -1.90519047E-03  1.67317014E-03 -5.01933976E-02
 -4.04849685E-02 -7.80152458E-04 -1.12205426E-03 -7.83306902E-04 -5.71877403E-02
 -4.75666259E-02 -8.38995892E-03  4.65453605E-03 -4.06566057E-03  3.90123552E-01
  8.33446369E-03 -2.32959544E-02 -8.95081708E-03  3.29604427E-02 -3.03163508E-02
  8.81366801E-03  3.18978125E-03 -9.85624573E-03 -6.42669980E-03  2.71996012E-03
  1.23715796E-03 -1.27518182E-03  3.98254605E-04 -4.55369920E-03 -8.18075183E-03
  4.35238090E-02  7.42998444E-06 -1.12240678E-01  6.45063208E-02 -6.72081498E-02
 -2.58800497E-02  2.30589613E-02 -2.09542158E-02  1.33288375E-03  7.14933365E-03
 -1.97026668E-03  1.01589902E-03 -3.89371474E-03  2.11150902E-02  1.17798928E-02
  4.67325425E-04 -7.84664318E-04  1.34776059E-03 -3.25111788E-02 -1.99602773E-02
 -7.23022638E-04 -1.05858131E-03 -4.20055967E-04 -4.67469464E-02 -3.16290098E-02
 -2.01466462E-03  2.84252546E-03 -1.81902144E-03  1.49158438E-01  6.66011400E-02
  9.70276438E-05 -1.38198645E-03  1.41042640E-03 -7.55524013E-04 -1.48540696E-03
  1.83178224E-04 -3.12157848E-04 -4.65136205E-06  2.48348363E-04 -4.24683565E-05
  1.19268393E-04 -2.72338734E-04 -1.29882704E-04 -2.50181803E-05 -1.19228009E-02
  1.60834171E-02  9.96073377E-04 -1.24626487E-03  8.43781516E-03 -8.70844599E-03
 -1.36379392E-04  3.38060114E-03 -3.61348345E-03 -2.09330820E-04  2.80323374E-04
 -1.78434061E-04  3.18164084E-04 -3.03343069E-05 -8.04316684E-04 -4.67342339E-04
 -1.72414123E-05 -8.02938782E-05  2.08880515E-05  5.37775864E-04  2.65080301E-04
  3.82564953E-05 -1.69486510E-05  9.25112053E-06  9.26744009E-03  2.53745310E-03
 -8.72654541E-04 -1.28974355E-04  4.32234472E-07  1.36619000E-02  4.34457084E-03
  8.48746374E-04  5.40830953E-04 -2.41075409E-03 -2.01213984E-03  1.26089852E-03
 -7.74832154E-03  8.30493524E-04  8.72561729E-04 -2.93116850E-03  3.22727219E-04
  2.71660110E-04 -3.18365145E-05  1.68597855E-04  4.05030961E-04  2.63488034E-04
  6.02799099E-03 -9.23158162E-03 -2.15706435E-03  8.71953083E-03  5.16817171E-03
  4.75679570E-03  2.69393401E-03  1.99500227E-03  1.73268434E-03  1.41243241E-04
 -3.82119402E-04  7.16451536E-05  3.02979428E-04  1.79238285E-04  1.90515970E-03
  7.84644372E-04 -8.02940193E-05 -9.19842571E-05  3.55353658E-05  1.51523359E-03
  1.63528010E-03  4.58422999E-05 -1.93717584E-04  1.34749263E-05  4.33044412E-03
  2.69333475E-03  1.28755305E-04  1.17242576E-05  1.09713819E-04 -9.16733806E-03
 -3.02791233E-03 -2.96642846E-04  4.60246095E-04  6.62195068E-04 -1.28939374E-03
  8.99526252E-04  1.43037735E-03 -9.62641808E-04 -5.74541224E-04 -1.35340129E-04
 -1.05947960E-04  1.50749575E-04 -2.25478755E-05 -5.33461689E-05 -6.69037577E-05
 -1.43716155E-04 -3.17209897E-04 -8.54314409E-03  1.11169716E-02  1.17657210E-04
 -8.43138453E-03  4.98126624E-03 -1.38853283E-03 -2.57135907E-03  1.85589466E-03
 -1.37865077E-03  3.52208812E-04  5.04760607E-05 -3.57394531E-05  1.19491301E-04
 -2.78053056E-04  1.67317180E-03  1.34776150E-03 -2.08905431E-05 -3.55376187E-05
  5.01517202E-05 -1.88156800E-03 -1.32687064E-03 -4.53072551E-06 -4.81448605E-05
 -5.46431905E-05 -4.01745840E-04 -8.86681392E-04 -3.82724183E-04  6.90601706E-05
 -2.25806951E-05  1.13049773E-02  3.74402732E-03  4.68434402E-04 -2.82959308E-04
  4.87845431E-04 -7.03167958E-03  1.44807861E-02  1.73959626E-02 -2.01963215E-04
  1.51009121E-02  1.91939908E-02 -5.72262724E-03  1.23868339E-02  1.58079005E-02
  3.09759280E-04  1.51078848E-03 -2.59220054E-03 -1.08271027E-03 -1.40573357E-04
 -7.03169777E-03  1.44808025E-02  1.73962186E-02  2.01884825E-04 -1.51008900E-02
  1.91939607E-02  5.72265181E-03 -1.23869503E-02  1.58079920E-02  3.09727074E-04
 -1.51076738E-03  2.59218712E-03 -1.08274505E-03 -1.40543665E-04 -1.43776625E-02
 -5.91901974E-03  1.71192975E-04 -6.41872006E-05 -2.41158443E-04 -5.30952127E-03
 -3.48281927E-03  2.01884559E-04 -2.12963175E-04 -1.70640963E-04 -5.30942756E-03
 -3.48280387E-03 -2.01885967E-04  2.12950500E-04 -1.70614862E-04 -1.43776824E-02
 -5.91895786E-03 -1.71202575E-04  6.41766931E-05 -2.41171696E-04  2.08386956E+00
  1.66648809E-02 -4.03279867E-02 -2.87288465E-02  1.04916424E-02 -4.75051441E-02
 -5.18725414E-02 -2.60717146E-03 -2.20456775E-02 -2.38463007E-02  1.23563726E-03
 -4.14126683E-03  7.81483438E-03  3.37178898E-03  2.72386585E-04  1.66649637E-02
 -4.03281998E-02 -2.87282523E-02 -1.04915955E-02  4.75050851E-02 -5.18724728E-02
  2.60722789E-03  2.20453643E-02 -2.38459805E-02  1.23572279E-03  4.14126241E-03
 -7.81479893E-03  3.37184392E-03  2.72301865E-04  4.91891541E-02  2.74642163E-02
 -9.89876485E-04 -7.76045723E-04  4.65692685E-04  4.82969494E-03  1.13531796E-03
  5.64554540E-04 -1.59478300E-03 -1.07178290E-03  4.82920357E-03  1.13517523E-03
 -5.64559450E-04  1.59481552E-03 -1.07182046E-03  4.91892646E-02  2.74642053E-02
  9.89879648E-04  7.76065138E-04  4.65733624E-04 -1.85701882E-01  6.32513127E-01
  2.02692826E-02 -1.81375208E-02 -4.96290481E-03 -1.42154072E-02 -3.34172985E-02
 -4.63597146E-02 -4.59058077E-03 -1.25451921E-02 -1.57951867E-02 -2.29135795E-03
 -1.44285902E-03  8.01366552E-04  2.12600523E-03  9.05371937E-04  2.02692313E-02
 -1.81375733E-02 -4.96288988E-03  1.42158193E-02  3.34171943E-02 -4.63596563E-02
  4.59077295E-03  1.25451235E-02 -1.57952473E-02 -2.29136326E-03  1.44283499E-03
 -8.01372340E-04  2.12602043E-03  9.05336560E-04  1.79694797E-02  6.31786164E-03
 -1.09081391E-03 -3.13872712E-04 -2.01030474E-04  2.55929296E-02  1.15066139E-02
  9.89769287E-04 -2.46589607E-04 -5.18293191E-04  2.55929572E-02  1.15067102E-02
 -9.89769736E-04  2.46599724E-04 -5.18299052E-04  1.79694178E-02  6.31776079E-03
  1.09082786E-03  3.13873946E-04 -2.01019245E-04 -4.44807128E-02  8.20194966E-02
  2.45689266E-02 -1.60087319E-03  6.81719392E-03 -1.39181705E-02 -2.24840625E-02
  4.26993673E-03 -1.33643330E-02 -1.04084587E-02 -6.93783934E-03 -1.43993591E-02
 -2.00566765E-03  4.43266227E-03  2.84680857E-03  1.48730326E-03  6.74114041E-04
  1.60086106E-03 -6.81709728E-03  1.39183860E-02 -2.24843862E-02  4.26957437E-03
  1.33644023E-02 -1.04085217E-02 -6.93798907E-03  1.43995556E-02  2.00560714E-03
  4.43276897E-03  2.84684255E-03 -1.48735086E-03 -6.74055544E-04 -1.08277175E-02
 -8.80418699E-03 -1.23264040E-04 -2.59502891E-04 -9.06571999E-05  2.95887787E-02
  1.09516734E-02  7.41241183E-04  1.03483688E-03  2.85532213E-04 -2.95891692E-02
 -1.09519963E-02  7.41297585E-04  1.03478233E-03 -2.85494074E-04  1.08275838E-02
  8.80413993E-03 -1.23299354E-04 -2.59479963E-04  9.06517782E-05  7.16014431E-09
 -6.83294877E-09 -1.03830004E-07  3.43216902E-01 -3.09526322E-03  3.62301113E-03
 -1.07197003E-02 -3.63271953E-03 -1.76910837E-02  4.56478709E-02 -1.34954751E-03
 -2.03221008E-02  2.97165078E-02 -1.23662493E-06  5.35720093E-03 -8.06887047E-03
 -1.18486072E-03 -2.02212514E-03  3.09526268E-03 -3.62295795E-03  1.07196442E-02
 -3.63262584E-03 -1.76912617E-02 -4.56477971E-02 -1.34963400E-03 -2.03222288E-02
 -2.97163442E-02  1.22393521E-06  5.35719249E-03 -8.06886828E-03  1.18486443E-03
  2.02207066E-03 -3.33803361E-02 -1.46444194E-02  6.31172371E-04 -8.55983529E-04
  5.82401891E-05 -1.45301756E-03  2.49317978E-03 -1.27011348E-04  5.19745790E-04
  4.63751187E-04  1.45299204E-03 -2.49304653E-03 -1.26972007E-04  5.19710628E-04
 -4.63748533E-04  3.33801607E-02  1.46442773E-02  6.31101558E-04 -8.55959089E-04
 -5.82576967E-05  2.24536585E-08 -5.96606673E-08 -2.23633506E-08 -2.34555879E-03
  3.62628229E-01 -1.80563506E-02  4.68142780E-02  3.00685700E-02  1.42525668E-03
  2.91244360E-02  4.21413682E-02  1.75107179E-02  6.42935695E-03  1.92829449E-02
 -3.89329748E-03  3.22789184E-03 -8.33847690E-03 -2.52630390E-03 -9.45508461E-04
 -1.80563796E-02  4.68144585E-02  3.00672035E-02 -1.42533456E-03 -2.91243899E-02
  4.21413243E-02 -1.75110200E-02 -6.42870584E-03  1.92824750E-02 -3.89324931E-03
 -3.22792552E-03  8.33848504E-03 -2.52624443E-03 -9.45463653E-04 -3.14909545E-02
 -2.90396187E-02  7.64625628E-04  7.57131756E-04  5.12467067E-04 -5.56841914E-03
 -4.37583813E-04 -5.88087003E-04  1.51222092E-03  1.73014879E-03 -5.56791087E-03
 -4.37203618E-04  5.88043489E-04 -1.51221762E-03  1.73020596E-03 -3.14911689E-02
 -2.90397974E-02 -7.64616707E-04 -7.57133228E-04  5.12429303E-04 -1.66157200E-02
  3.63766659E-02 -2.05997960E-02  1.83648488E-07  3.49465595E-08  4.62372848E-01
 -1.51329521E-03  2.66179596E-03 -1.19235949E-02 -1.85891718E-02 -2.69815887E-03
 -4.70093846E-04 -7.61595442E-03 -1.04155769E-02 -1.21356736E-03 -1.52591207E-03
  2.87509705E-03 -1.98385646E-04  4.42373499E-04 -1.61439940E-04  1.51316760E-03
 -2.66167210E-03  1.19236912E-02 -1.85893052E-02 -2.69849763E-03  4.70233040E-04
 -7.61596376E-03 -1.04157404E-02  1.21371264E-03  1.52588845E-03  2.87514818E-03
 -1.98389230E-04 -4.42402446E-04  1.61463778E-04 -1.41783266E-02 -7.99470526E-03
  1.03310870E-04 -4.68350625E-04 -6.99397007E-05  1.85205424E-02  6.83303761E-03
  4.31017653E-04  7.19964145E-04  2.81036889E-04 -1.85208318E-02 -6.83322294E-03
  4.31056940E-04  7.19937389E-04 -2.81016083E-04  1.41781642E-02  7.99466501E-03
  1.03275632E-04 -4.68335996E-04  6.99344287E-05  6.91769983E-08 -1.08031419E-07
 -7.38789968E-08  1.56155388E-01  3.01660894E-02  1.59680192E-08  7.88317165E-02
  1.46780274E-03 -4.02028168E-03  1.62428040E-02 -3.84635063E-03  1.22728806E-02
  1.45223771E-02 -3.18825341E-03  1.88056797E-02 -1.35695777E-03  2.49078204E-03
  6.84800613E-04  9.33924083E-04  2.63746909E-04  5.42505727E-04 -1.46785435E-03
  4.02035764E-03 -1.62426321E-02 -3.84593318E-03  1.22728873E-02 -1.45223284E-02
 -3.18823940E-03  1.88057434E-02  1.35701133E-03 -2.49077337E-03  6.84766073E-04
  9.33988983E-04 -2.63773197E-04 -5.42492351E-04 -1.05765501E-02 -1.77856657E-03
  3.98439744E-04 -6.35719653E-05 -5.70711220E-04 -3.75307008E-03 -1.53052537E-03
 -3.14315097E-04  6.07688616E-05  1.36318532E-04  3.75349198E-03  1.53076390E-03
 -3.14331671E-04  6.07434091E-05 -1.36309668E-04  1.05762211E-02  1.77829839E-03
  3.98450082E-04 -6.35771124E-05  5.70709180E-04 -2.18236234E-08 -3.11131077E-08
 -2.97855173E-08  2.34792600E-02  6.35978402E-02  2.89133928E-08 -1.36300859E-03
  7.86680833E-02 -2.33871522E-02  7.41643308E-03  1.47826400E-02  1.82935425E-02
  3.79874383E-02 -9.43608813E-03  5.83792960E-03  1.57550572E-02 -1.71974151E-03
 -1.44137865E-03 -1.55831783E-04 -3.19619479E-03 -2.13431067E-03 -1.39073491E-03
 -2.33871000E-02  7.41635646E-03  1.47827040E-02 -1.82939499E-02 -3.79874230E-02
 -9.43619700E-03 -5.83816392E-03 -1.57550715E-02 -1.71967386E-03 -1.44138069E-03
  1.55715933E-04  3.19616308E-03 -2.13432185E-03 -1.39071441E-03  1.14647226E-03
 -2.27277008E-03  2.85962988E-04  1.33602715E-03 -1.72726728E-05 -2.61294255E-02
 -1.39660441E-02 -7.80612963E-04  4.83614970E-04 -3.96465631E-04 -2.61295631E-02
 -1.39659189E-02  7.80635822E-04 -4.83597854E-04 -3.96439874E-04  1.14648344E-03
 -2.27287385E-03 -2.85950135E-04 -1.33606566E-03 -1.72779644E-05  4.92031830E-02
 -6.62928785E-02 -9.49362948E-03  5.55405457E-08 -4.51672146E-08  4.41460379E-02
  4.27957399E-08 -1.66823398E-08  3.89492346E-02 -2.03912562E-03  6.55771114E-03
 -1.53454216E-03  3.05128134E-03 -4.43963127E-04  1.56885624E-02  4.19829620E-04
 -3.07968469E-04  5.18085246E-03  1.13013730E-03  4.13655593E-04  6.11193794E-04
 -1.41793727E-04 -1.18288877E-04 -2.03913691E-03  6.55772969E-03 -1.53446752E-03
 -3.05130938E-03  4.44008152E-04  1.56885630E-02 -4.19827592E-04  3.07972293E-04
  5.18092339E-03  1.13015247E-03 -4.13657050E-04 -6.11181981E-04 -1.41789017E-04
 -1.18286347E-04 -1.63449364E-03  4.58794030E-04  1.09446924E-04 -1.55025130E-04
  2.33189771E-04 -2.41398473E-03 -9.72173872E-04  8.13544046E-06 -9.09926960E-05
  2.10581856E-04 -2.41400296E-03 -9.72258169E-04 -8.13521887E-06  9.09937584E-05
  2.10578313E-04 -1.63443996E-03  4.58871886E-04 -1.09444915E-04  1.55025086E-04
  2.33195451E-04 -4.71894125E-03  2.12816517E-02 -2.37782243E-03  2.10378564E-08
 -3.97238020E-09  1.59888156E-02  5.51372624E-09  4.02457293E-09 -2.56389424E-03
  4.29869055E-03 -2.61139924E-04  1.27386228E-04  4.31504648E-03  9.19160365E-04
 -2.63699733E-03  2.80325195E-03 -2.73161801E-03 -5.20089989E-04  6.76552004E-03
  3.18441420E-04 -1.25080504E-03 -6.72803611E-04 -4.50129232E-04  2.09149197E-06
  2.61111352E-04 -1.27328238E-04 -4.31492010E-03  9.19147156E-04 -2.63697251E-03
 -2.80314544E-03 -2.73160830E-03 -5.20018516E-04 -6.76552997E-03 -3.18431794E-04
 -1.25079940E-03 -6.72807335E-04  4.50123226E-04 -2.09120210E-06  2.78036780E-03
  4.63677777E-03 -6.55121346E-05  1.22133158E-04 -7.01220404E-05 -4.72884311E-03
 -4.89041931E-03  2.90822765E-05 -2.66783844E-04  9.01528392E-05  4.72881880E-03
  4.89035237E-03  2.90774668E-05 -2.66786128E-04 -9.01620346E-05 -2.78036225E-03
 -4.63680630E-03 -6.55082701E-05  1.22133973E-04  7.01186411E-05 -1.65007769E-08
  5.87068837E-08  5.07161255E-09  1.06894527E-02  7.21147889E-03 -4.70489126E-09
  6.81164397E-03 -2.65159543E-03  1.43550139E-08 -6.57849796E-09  5.55401392E-03
  5.46364382E-04 -9.40401317E-04  6.70940984E-03 -7.30991938E-04  4.79064439E-03
 -8.30228101E-04 -1.48081512E-03  7.95117026E-03 -2.92683683E-03  1.01475820E-03
 -5.70629185E-04  9.95978867E-04  1.29390010E-04  3.40784073E-04 -5.46362956E-04
  9.40386038E-04 -6.70933804E-03 -7.30946477E-04  4.79067516E-03  8.30231234E-04
 -1.48082967E-03  7.95121744E-03  2.92682919E-03 -1.01475114E-03 -5.70643079E-04
  9.95999274E-04 -1.29399837E-04 -3.40781934E-04  1.84984863E-03  2.76275538E-03
 -5.55785199E-05  1.27795813E-04 -2.24698900E-04 -1.31499089E-03 -1.16736681E-03
  2.44914025E-06 -5.00072918E-05 -5.72973285E-05  1.31507924E-03  1.16739993E-03
  2.43796843E-06 -5.00116047E-05  5.72968184E-05 -1.84990341E-03 -2.76280864E-03
 -5.55656488E-05  1.27789411E-04  2.24699109E-04 -3.37060993E-09  4.39690261E-09
 -6.09475645E-09  7.42780994E-03 -1.83855967E-02 -2.43038956E-08 -4.39004466E-03
  2.07301678E-02  8.94070815E-09  9.38446570E-10 -1.25285124E-03  1.02345705E-02
 -1.86480224E-03  3.25568212E-03 -4.48173781E-04  3.22724187E-04 -2.85320966E-03
  7.70159277E-03  1.57415763E-03 -9.65449948E-04  3.44738960E-03  1.33681110E-04
  8.60824380E-04  2.11862224E-04  2.19059629E-04 -3.34011798E-05 -1.86481480E-03
  3.25571780E-03 -4.48180697E-04 -3.22744968E-04  2.85322312E-03  7.70160382E-03
 -1.57416748E-03  9.65493017E-04  3.44735275E-03  1.33688729E-04 -8.60820954E-04
 -2.11856899E-04  2.19058955E-04 -3.34020166E-05 -2.54144034E-03 -1.53576310E-03
 -2.05220313E-07 -1.70287204E-04  1.54625665E-04  2.77744596E-03  3.01165817E-03
  7.42142677E-05  2.36490646E-05  8.22728966E-05  2.77745286E-03  3.01162453E-03
 -7.42184413E-05 -2.36548431E-05  8.22690165E-05 -2.54141513E-03 -1.53575013E-03
  2.06808943E-07  1.70289617E-04  1.54626609E-04  2.26340457E-03 -1.26765437E-02
 -3.56938001E-03  2.25976675E-08  1.42761352E-08  1.17506298E-02  1.01603428E-08
  4.41325214E-09 -1.12017134E-03  1.30861461E-03  3.80554939E-09  7.51912978E-10
  2.15285021E-03 -1.71528324E-03  4.10444497E-03  9.13007485E-04  2.78934901E-03
  1.98324006E-04  5.55701189E-03 -1.21827420E-03 -3.37440727E-04  9.28658974E-04
  5.90299440E-04 -8.31480737E-04 -3.48868776E-04 -4.74343525E-04 -1.48342843E-04
 -1.71525803E-03  4.10439511E-03  9.12980269E-04 -2.78936085E-03 -1.98311259E-04
  5.55696794E-03  1.21825050E-03  3.37418471E-04  9.28711997E-04  5.90291864E-04
  8.31485251E-04  3.48869385E-04 -4.74342239E-04 -1.48333976E-04  2.69250399E-03
  2.11175448E-03  4.70059524E-05  9.55673101E-05  8.30535749E-05 -5.64028725E-03
 -5.51414228E-03 -3.95071909E-05 -1.35140895E-04  2.14360348E-04 -5.64028954E-03
 -5.51413963E-03  3.95152335E-05  1.35145222E-04  2.14362934E-04  2.69248345E-03
  2.11177233E-03 -4.70154465E-05 -9.55656693E-05  8.30554250E-05  1.49019272E-03
 -6.94201836E-03 -2.64997112E-03  2.73891004E-08 -2.19902740E-08  6.37457414E-03
  7.70943028E-09  1.65442492E-08  6.42688684E-04  6.02372190E-04 -1.70830236E-09
  4.96387650E-09 -3.64413812E-04  2.34853202E-03  1.68925476E-03 -3.71905862E-03
  3.09978586E-02  3.41874890E-03 -4.59872945E-03 -7.33582506E-03  3.12622907E-03
  9.42083330E-03  9.53040160E-05 -1.04073995E-03 -2.20043498E-04 -7.51731657E-04
  1.27026220E-05 -1.71053698E-04 -6.42456284E-03  3.18250383E-03 -4.94532582E-02
 -9.47669753E-03  7.21505934E-03  4.68786427E-02 -3.47331153E-04  7.19966040E-03
 -3.67560954E-04  8.76224467E-03 -4.59523739E-03  6.84560110E-03 -1.35350224E-03
 -1.47704013E-03  3.71267920E-03 -3.46994088E-03 -4.01894227E-04 -1.97464986E-04
 -2.29906422E-04 -1.66735327E-03 -7.09896512E-04  1.75066392E-04  4.34995608E-05
 -1.39876205E-04 -1.31589342E-02  3.18732643E-03 -1.48758409E-04 -6.29154043E-04
  7.14503385E-04 -1.79028772E-02 -1.68714834E-03 -2.81340381E-04 -5.08809564E-04
  1.00180749E-03 -1.34999291E-02  1.61814603E-02 -1.50006843E-02 -1.19038723E-02
  3.99672296E-02 -2.63433227E-02  3.20252564E-03 -1.35382967E-02  3.23168544E-02
 -4.83391020E-03  3.93750838E-03 -1.37162882E-02 -7.14949080E-03 -4.34102587E-03
  2.13534064E+00  4.74430399E-03 -5.24661137E-03  1.90480774E-02  6.02191660E-03
 -1.77138160E-02 -1.82047029E-02  6.99709170E-03 -8.82060857E-04 -1.16551733E-02
 -1.37761853E-03 -4.88027450E-04 -1.30665245E-03  7.47660936E-04 -4.49186542E-04
 -2.21159763E-03 -1.17358050E-02 -2.18780577E-02 -1.95683479E-02  1.77765808E-02
  9.95973474E-02 -7.46085987E-03  6.08103496E-03  2.13635403E-02  1.57587426E-02
 -8.05903863E-03  1.22272496E-02 -2.04710411E-03 -2.57822201E-03  1.03722249E-02
 -4.79359729E-03 -2.50828699E-04  4.23793710E-04  3.12699753E-04  2.47515189E-03
 -8.17646542E-05  9.54194851E-05 -1.42436009E-04  1.21272335E-04 -3.73272908E-02
 -2.14540497E-03  1.01421651E-03 -2.99566979E-04 -2.41573357E-04 -4.87167871E-02
 -1.38028848E-02 -1.14780227E-03  1.92346717E-04 -2.79593039E-04 -2.04789951E-02
  2.83727428E-02 -6.27268421E-04 -2.31096772E-02  8.19730545E-02 -5.29317441E-02
 -2.41632721E-03 -1.28317186E-03  4.10801409E-02 -8.39073361E-03  6.56276257E-03
 -2.36796410E-02 -1.25089013E-02 -7.79734421E-03  2.81357083E-01  7.51481895E-01
 -4.62911742E-03 -1.08122106E-03  2.35425710E-02  2.86789479E-02  1.31966286E-02
 -1.21238206E-02  1.12357535E-02  6.96962253E-03  2.11600062E-04 -1.74173444E-03
 -2.02787748E-03 -4.91242930E-03 -1.76813966E-03 -1.19654501E-03 -1.46228950E-02
 -6.78036958E-03 -4.04310730E-03 -1.18978677E-02 -1.97086440E-02  3.43963436E-02
 -6.36190218E-03 -1.11709985E-02 -2.83815687E-03  7.65638246E-03 -5.85115482E-03
  9.23736354E-03 -2.11082361E-03 -2.68748103E-03  1.04123498E-02 -2.90200783E-03
  3.79521016E-04  1.47220178E-03  3.99007208E-04 -3.26897931E-02 -1.91989115E-02
 -1.05245901E-03 -3.57432545E-04  7.07012158E-06 -2.76213340E-02 -3.17850019E-03
  8.30925958E-04 -1.22387584E-03 -7.53201608E-04 -3.10557618E-02 -1.23915297E-02
 -6.14198327E-04 -7.91079766E-04 -6.57969430E-04  2.05475078E-03 -4.85735105E-02
 -7.55483327E-03 -1.07212925E-02  1.30893284E-02 -1.19751561E-02  7.02919888E-03
 -4.49387424E-02  5.33163361E-02 -1.03627390E-02  1.14590925E-02 -2.67779265E-02
 -9.51738480E-03 -4.36736765E-03  3.27641352E-01  5.18217510E-01  4.20319347E-01
 -1.29759913E-03  1.21518182E-02 -6.21416680E-02 -4.95765839E-03 -8.71453187E-05
 -1.00608815E-02 -1.24581585E-02 -3.98413954E-02 -5.05729990E-02 -1.03463503E-03
 -7.09827025E-04 -6.54989712E-04 -2.51866229E-03 -1.23134484E-03 -1.92429571E-02
  4.21251983E-02  6.85253073E-02 -1.88963008E-02  7.00629454E-03  6.80437866E-02
  5.12680080E-02 -2.62398438E-02  3.67656830E-02  1.60002377E-02  2.75476774E-02
  4.25811978E-03 -8.20325012E-03  1.47493411E-03  7.18179258E-03 -1.02133934E-02
  7.41671616E-04 -3.71313344E-04  4.86865484E-04 -7.19081350E-03 -2.28415281E-02
 -1.24058427E-04  7.25135713E-04  1.33390950E-03 -9.97584317E-02 -1.11086474E-01
 -2.65865242E-04  4.23334054E-03  3.33143258E-03  6.91321502E-02  7.54956692E-02
  3.43279062E-04 -2.49487487E-03 -6.80317264E-04 -2.44303758E-02  5.43342880E-02
 -1.19393993E-03  1.13611846E-01  9.31818422E-02 -4.78782943E-02  6.77272963E-02
 -9.78747862E-03 -8.33481153E-03  2.73641757E-03 -2.73210606E-02 -1.81479935E-02
 -1.70025622E-02  2.76852260E-02 -1.77796802E-02 -3.39449758E-02 -5.64267578E-02
  7.69857047E-01 -2.64268362E-02  7.19218694E-02  6.24623419E-02 -3.29318839E-03
  7.05381119E-02  1.78590105E-02  9.44002311E-03  6.38916287E-02 -4.31974693E-02
  3.49818178E-03  1.53618359E-03 -3.56826387E-03  6.11831125E-04  2.86375540E-03
  2.43306002E-02 -5.86494459E-02  9.23945786E-03  1.74740878E-02 -6.92620734E-03
 -8.18976718E-02  5.67199494E-03  3.65360240E-02  2.24544181E-02 -1.46848965E-02
  6.06695503E-03  2.07153910E-02 -7.64997653E-03 -3.77201832E-03 -1.98462708E-02
 -3.78040218E-02  7.69547786E-04  2.57329368E-03  4.70205124E-04  1.73867014E-03
 -9.09515066E-03 -3.27519836E-04  2.01173421E-03  2.37521044E-03 -3.34763055E-02
 -2.33207660E-02  1.50246150E-03 -7.48209286E-04 -1.21374676E-03 -1.56226527E-02
 -1.93228999E-03 -1.67428365E-04 -1.37283925E-03 -2.87205640E-03  9.25713338E-02
 -2.02357555E-01 -1.88590456E-02  8.96641590E-02 -1.93119401E-01  1.83894526E-01
 -7.03022755E-04  6.42407434E-02  7.54496726E-02 -1.55600240E-02 -1.78774336E-02
  3.60721744E-02 -4.07387387E-03  7.73968135E-03  4.82997168E-02  1.00144573E-01
  1.09029603E-01  3.34305761E-02  6.78661385E-01 -1.04877600E-02  2.82608349E-02
  1.01716515E-02 -1.08647640E-02  5.58951342E-02  3.99375219E-03 -2.07437130E-03
  2.90503325E-02 -7.21502543E-03  2.16024218E-03  2.30152542E-03 -9.10219287E-03
  1.92337402E-04  2.12798799E-03  7.68003479E-02 -1.67659109E-01  1.32255531E-02
  7.08812507E-02 -8.90704700E-02 -3.31489773E-01  2.33047990E-02 -2.41072549E-02
 -9.64422343E-02 -2.73218212E-02  1.48294935E-02 -9.68194511E-03 -3.96332769E-04
  2.98630224E-03 -4.04504703E-02 -3.46335626E-02  1.34588420E-03  1.75621843E-03
 -1.24865617E-04 -2.63680055E-03 -4.63093645E-03 -8.07336929E-04  1.64737521E-03
  8.08866537E-04  2.64346436E-02  9.40497658E-03  1.64090476E-03 -1.21368141E-03
 -5.63319239E-03  4.14177472E-02  2.40755386E-02  9.92686121E-04 -1.93141513E-03
 -6.56383212E-03 -5.64456567E-02  1.24882303E-01  5.69152946E-02 -3.34607491E-02
  1.65743290E-01 -8.92376385E-02  2.94761786E-03  1.62128586E-02  1.01159513E-02
 -1.99034357E-02  2.95416763E-03 -1.61606205E-02 -1.65087812E-02 -7.42452139E-03
  1.86412888E-02  3.77636673E-02  5.52856232E-02  1.32828391E-02  5.77310169E-02
  5.47482210E-01 -1.59053367E-03  1.04330168E-02 -4.12455005E-02 -5.76279786E-03
  5.67404307E-03 -6.21277046E-03 -1.06194785E-02 -2.54908621E-02 -3.58045281E-02
 -7.13246004E-04 -9.85014947E-04 -1.16132091E-03 -2.21669799E-03 -1.37355556E-03
 -1.62091806E-02  3.01272084E-02  5.01096462E-02 -2.86223703E-02 -8.86754040E-04
  4.14227343E-02  3.17296878E-02 -2.00450822E-02  2.38651896E-02  1.08314774E-02
  2.00045207E-02  3.23924361E-03 -6.23458966E-03  7.27967774E-04  3.18686948E-03
 -7.44913120E-03  6.78861828E-04 -2.05159684E-04  2.93883658E-04 -8.39465194E-03
 -2.00340476E-02 -1.82046793E-04  6.65184510E-04  1.01569656E-03 -8.33316059E-02
 -8.48508596E-02  1.32524902E-04  3.22887576E-03  2.15194653E-03  5.89900050E-02
  5.69437162E-02  2.93972702E-04 -2.28442342E-03 -2.96167547E-04 -1.66050459E-02
  2.79767053E-02 -2.41490869E-03  5.96863546E-02  5.50706922E-02 -2.58318079E-02
  3.85194460E-02 -1.20583228E-02 -1.97053560E-03  1.38310248E-03 -2.03105092E-02
 -1.32867709E-02 -1.22654652E-02  2.05077132E-02 -1.16455740E-02 -3.27117224E-02
 -4.01387582E-02  5.44698349E-01  3.48518370E-02  1.11873315E-02  3.88692153E-01
 -1.76255476E-02  5.30463673E-02  4.19269270E-02 -5.11179930E-03  5.45370143E-02
  5.62216394E-03  4.93553373E-03  4.61029842E-02 -3.31148688E-02  2.29708047E-03
  8.02623639E-04 -1.67983396E-03  4.44538515E-04  2.15186303E-03  2.62380180E-02
 -4.60203535E-02  4.61313808E-03  1.45147110E-02 -1.44345160E-02 -6.47376219E-02
  6.13359512E-03  2.18778892E-02  1.23429806E-02 -1.02116472E-02  5.01127520E-03
  1.30405839E-02 -5.48685934E-03 -2.22484090E-03 -1.19162516E-02 -2.52769186E-02
  3.95649469E-04  1.90350092E-03  2.57933176E-04  4.44136423E-03 -5.28400776E-03
 -4.68887169E-05  1.58276494E-03  1.52126248E-03 -2.50329677E-02 -1.75002177E-02
  1.22963764E-03 -5.13020370E-04 -1.02934993E-03 -1.08757422E-02  2.30144015E-04
 -2.64735913E-04 -1.03423952E-03 -2.26103703E-03  5.44054737E-02 -9.86128462E-02
 -6.21662627E-03  5.02990096E-02 -1.06160262E-01  9.94662277E-02 -4.69604131E-03
  5.25650259E-02  4.48057807E-02 -1.09390045E-02 -1.30812361E-02  2.44630188E-02
 -4.88716904E-03  4.36543196E-03  2.93882297E-02  9.10747628E-02  7.69941152E-02
  3.63753878E-02  4.38266607E-01  7.23346814E-02  3.19753974E-02  2.90175732E-01
 -1.32192271E-02  3.02186621E-02  5.40578332E-03 -1.56431956E-02  4.55795872E-02
  9.56165655E-03 -1.50777587E-03  1.91527561E-02 -4.54167536E-03  6.28628295E-04
  2.58369763E-03 -5.36105101E-03 -2.48397100E-04  1.37631392E-03  4.71609361E-02
 -9.09155262E-02  1.60937070E-02  3.88985495E-02 -6.64428522E-02 -1.71617099E-01
  1.25281572E-02 -2.17532532E-02 -4.56158831E-02 -1.48655981E-02  8.42800549E-03
 -4.11740668E-03 -1.43106006E-03  1.84981278E-03 -3.49872880E-02 -2.84428425E-02
  9.51209409E-04  1.04562081E-03 -4.90396556E-05  6.67490215E-03  1.33852316E-03
 -3.28966133E-04  1.64409442E-03  8.06729121E-04  4.98496192E-03  1.13267752E-03
  1.40296444E-03 -7.99821286E-04 -2.98395588E-03  1.20629809E-02  1.02222678E-02
  1.08047230E-04 -1.32522494E-03 -4.04326855E-03 -2.39651433E-02  4.10652420E-02
  2.52284787E-02 -8.50629354E-03  7.03057744E-02 -3.21205225E-02  6.92628528E-03
 -3.38124518E-03  1.07277390E-02 -1.14380681E-02  8.17367532E-05 -1.15875900E-02
 -8.38596172E-03 -3.58644757E-03  8.00105210E-03  2.79259998E-02  4.52064576E-02
  2.08674522E-02  6.28120659E-02  2.90849154E-01  1.70605815E-02  5.69801643E-02
  1.61521411E-01  1.34495880E-04 -2.92103748E-04  2.05113314E-03  3.72894849E-04
 -2.09213254E-04  4.35776348E-04  3.34502564E-04  6.93914905E-04 -3.71565583E-05
 -4.47027000E-05  2.93820731E-05 -1.36570506E-04 -8.02922511E-05 -1.17191040E-04
 -6.25123744E-03  7.55257830E-03 -1.40619265E-04 -3.91027057E-03  3.89118789E-03
  3.45226345E-03 -1.64830999E-03  2.11277398E-03  1.04869866E-03  3.41034269E-04
 -2.98018567E-04  6.07796677E-04 -2.68706182E-05 -2.22377333E-04  4.72536846E-05
 -6.44068823E-05  1.57563089E-06 -9.11167038E-06  6.31116112E-06 -6.68485779E-04
 -3.87632881E-04 -1.41393070E-05 -1.93795205E-06  1.31118080E-05  1.32969753E-04
 -6.99503979E-05 -2.18456282E-04 -1.83120735E-05  7.39829645E-05  3.49935887E-03
  5.33188064E-04  2.17920182E-04 -1.20506769E-04  2.90906958E-04  2.11016223E-03
 -5.10361787E-03 -1.38628416E-03  3.76485453E-04 -2.63006553E-03  8.51789573E-03
 -6.60856162E-04  2.00589991E-03  1.88442518E-03  1.01682154E-04 -1.69602658E-04
  8.55548327E-04  2.87625519E-04  1.36487690E-04  3.99979115E-03  7.64040073E-03
  5.07718951E-03 -3.51551135E-03  1.04758225E-02 -9.73287523E-03 -2.29599868E-03
  6.23709658E-03 -4.96912505E-03  6.25312831E-04 -1.09131345E-04  3.05597169E-04
  4.82602956E-04  1.33786863E-04  4.44108060E-04 -1.48322441E-04 -5.81762368E-04
  5.99582917E-04  5.23249697E-06  1.08845371E-04  4.22154797E-05 -1.41933755E-04
  4.33363759E-05 -2.55906816E-04  3.23694244E-03 -4.74256818E-03 -7.34374716E-04
 -7.80444894E-03 -1.59967150E-03 -6.85460139E-03 -3.05831279E-03 -2.91996903E-04
 -2.18579179E-03 -4.33111936E-04  2.29128058E-04 -2.27630092E-04 -1.56763390E-05
 -2.09356572E-04  3.46448236E-04  5.05812539E-04  1.96684314E-05  1.40109882E-05
  3.15263293E-05 -8.62905906E-04 -1.07289206E-03 -3.80711520E-06  3.12206807E-05
 -1.80927791E-05 -6.12724803E-03 -1.79813676E-03  2.41957338E-04  1.68949311E-04
 -2.52847759E-04  5.43871260E-03  2.03547762E-03 -4.67804146E-06 -1.63836051E-04
  4.64654717E-05 -1.64729417E-03  2.96958166E-03  8.58907055E-04  2.81276585E-03
  2.98779751E-03 -9.92884803E-04  1.62357982E-03  1.11338595E-03  4.22216778E-04
 -2.65265466E-04  5.04972126E-04  7.22843606E-05 -1.51246538E-04 -2.81513786E-04
 -1.52563339E-04  7.28286321E-05  6.03295750E-04 -4.98767694E-03  4.32212842E-04
  8.14769691E-03 -3.46507026E-03  6.78985563E-04  4.08124451E-03 -8.91915752E-05
  4.03393140E-04 -9.47897825E-04  2.40670450E-03  4.28225083E-04 -1.54158340E-04
  5.52870894E-03  9.13233005E-04 -2.37829207E-04  1.28584339E-03  1.22773384E-03
 -2.41295755E-04 -7.13275518E-05  3.41317977E-04 -3.52523068E-04 -8.50836781E-05
 -4.77932758E-03  8.40151820E-03  1.27655594E-03 -2.74851486E-03 -5.67722808E-03
  1.32137911E-02 -1.02297519E-03 -2.91052874E-03  3.72271971E-03  8.80595726E-04
 -5.68307450E-04  1.36791417E-04 -2.90616889E-04 -4.88469571E-05 -6.70033639E-04
  4.21197079E-04  2.50144897E-05  5.54933472E-05 -3.99124444E-05 -1.15215356E-03
 -6.99861115E-04 -2.24561064E-05  8.68175597E-05 -1.92545249E-05 -3.06646162E-03
 -1.31861469E-03  6.63409520E-05 -8.14128942E-05  2.09166902E-04 -3.95577488E-03
 -2.08904197E-03 -1.63588114E-04 -5.22926332E-05  1.75434364E-04  6.38671215E-03
 -8.83783723E-03 -3.35157442E-03  1.96386645E-03 -5.74472078E-03  2.17622173E-03
  7.03209265E-04 -2.06607674E-03  1.79035401E-04  7.78022738E-04  1.84209005E-04
  1.51420324E-04  7.21757388E-04  3.39105312E-04 -2.54030294E-03 -5.86308245E-03
 -3.62482403E-03 -6.53428109E-04 -5.83510430E-03 -2.00771311E-02 -4.02507191E-04
 -5.37440265E-03 -1.01793103E-02  1.96649113E-04 -2.93468767E-04  1.02707529E-03
 -4.74377355E-04  1.28725410E-03  7.68774104E-04 -4.69865449E-04  3.61096529E-04
 -1.74531584E-04  3.89509033E-04  4.63695708E-04 -1.86766042E-03 -4.54810896E-05
  1.35712607E-04 -2.62519112E-04  5.34763214E-05  1.23881781E-04  9.68762529E-04
 -9.82973595E-04  1.67228977E-03  2.48178943E-03  1.71618766E-03 -2.27548912E-03
  1.29017252E-03  1.16038013E-03  9.27150192E-04 -3.51049851E-04  5.16801500E-04
  7.36511832E-04 -2.14843452E-04 -2.80109222E-05 -8.14005423E-04 -1.68725051E-03
  1.72045854E-05  4.35906622E-05  1.16264611E-05  8.42947277E-04  2.11035234E-04
 -3.38265229E-06  5.57554994E-05  8.74214481E-05  2.54131685E-04 -1.00726256E-03
 -4.05543344E-05  1.00804323E-07  3.92179496E-05 -7.70487391E-05  4.67322149E-04
  4.40552402E-05 -2.32567852E-05 -1.12918567E-04  5.95775309E-03 -8.38765018E-03
 -6.40441790E-04  6.49691243E-03 -4.12260048E-03  7.90734337E-03  2.09315802E-03
  1.44876163E-03  2.46359766E-03 -5.81817956E-04 -7.70223131E-04  7.25863746E-04
 -1.59541740E-04  5.73296639E-04 -4.97099404E-04 -5.20255029E-04  1.17936687E-03
  1.04652434E-02  2.21113554E-02  1.41052127E-03  7.62134378E-03  1.39642547E-02
  2.11036045E-03  3.00183874E-04 -7.59561788E-05 -1.67757970E-04  9.43431687E-04
 -6.86275881E-05  1.54455471E-05  2.89972583E-03 -1.62175265E-04 -3.14327721E-04
  3.83639901E-04  3.78514682E-04  1.64431754E-03  1.32853876E-03  7.02604563E-05
 -5.77942957E-05 -1.43238755E-04  9.06667080E-05  4.68249605E-05  1.61758426E-03
 -2.10510778E-03 -2.21841679E-03  4.27334859E-04  5.76360340E-04 -3.87799344E-03
 -1.77043195E-03  1.66263094E-03 -1.38841497E-03 -7.55440807E-04 -8.55900740E-04
  9.73730835E-05  2.36291688E-04 -8.16010427E-05 -2.46136776E-04  1.05553728E-04
 -2.63766269E-05  2.50571990E-05 -1.43137689E-05  3.18739016E-04  5.27967548E-04
  1.12627639E-05 -1.87064961E-05 -1.03817884E-05  3.08885345E-03  3.43588759E-03
  1.57286716E-05 -1.31184270E-04 -1.21508929E-04 -1.77102253E-03 -2.41603307E-03
  7.78542726E-06  6.11930418E-05  5.81441061E-06  3.82435410E-03 -5.43988232E-03
 -2.13122420E-04 -7.10087968E-03 -6.25025872E-03  5.05485140E-03 -4.17880306E-03
  1.89410465E-04  1.31352258E-03 -3.40403525E-04  6.04749091E-04  8.78291405E-04
  5.42775359E-04 -7.18973124E-04 -8.21418653E-05  2.77380207E-04  2.27834317E-03
 -2.61292552E-02  6.43169059E-03  1.10759834E-05 -1.79265575E-02  3.46807955E-03
 -7.61839687E-05  2.48578403E-04  1.33470830E-04 -4.62938818E-05 -1.08599421E-04
  1.05702310E-03 -6.42457386E-03  3.18250130E-03 -4.94529145E-02  9.47649423E-03
 -7.21500918E-03  4.68787153E-02  3.46840577E-04 -7.19950868E-03 -3.67440085E-04
  8.76223617E-03  4.59532476E-03 -6.84558989E-03 -1.35347110E-03 -1.47709941E-03
  1.68925789E-03 -3.71901880E-03  3.09975506E-02 -3.41872711E-03  4.59875354E-03
 -7.33581094E-03 -3.12615478E-03 -9.42059347E-03  9.54039316E-05 -1.04077262E-03
  2.20023743E-04  7.51673975E-04  1.26743123E-05 -1.71107685E-04 -1.79030135E-02
 -1.68709291E-03  2.81341090E-04  5.08807890E-04  1.00178268E-03 -1.31587849E-02
  3.18722773E-03  1.48771416E-04  6.29148835E-04  7.14543306E-04 -1.66732408E-03
 -7.09723339E-04 -1.75071724E-04 -4.35304493E-05 -1.39851918E-04  3.71259778E-03
 -3.47001481E-03  4.01851346E-04  1.97289844E-04 -2.30063900E-04 -1.34999164E-02
  1.61814411E-02 -1.50007070E-02  1.19039106E-02 -3.99672024E-02 -2.63433221E-02
 -3.20240483E-03  1.35382980E-02  3.23169144E-02 -4.83387915E-03 -3.93753515E-03
  1.37162995E-02 -7.14948068E-03 -4.34101524E-03 -1.83960124E-03 -2.87237594E-03
 -5.14893170E-04 -5.62035383E-03  2.40435874E-02  3.43454432E-03 -3.40250907E-03
  1.42324259E-02  2.38719234E-03  8.32048164E-05  3.03845412E-04 -6.94454742E-04
  4.41913048E-04  3.73137736E-04  2.13534065E+00 -2.21161016E-03 -1.17357369E-02
 -2.18780237E-02  1.95676950E-02 -1.77764826E-02  9.95975573E-02  7.46063338E-03
 -6.08093011E-03  2.13636557E-02  1.57587148E-02  8.05920650E-03 -1.22272251E-02
 -2.04703481E-03 -2.57827698E-03  4.74435376E-03 -5.24670490E-03  1.90478790E-02
 -6.02163137E-03  1.77137993E-02 -1.82045828E-02 -6.99726420E-03  8.82127922E-04
 -1.16550550E-02 -1.37766485E-03  4.87987480E-04  1.30657767E-03  7.47628048E-04
 -4.49177090E-04 -4.87173074E-02 -1.38030986E-02  1.14781730E-03 -1.92382601E-04
 -2.79568079E-04 -3.73267084E-02 -2.14515363E-03 -1.01422545E-03  2.99601524E-04
 -2.41585199E-04  2.47534055E-03 -8.12314266E-05 -9.54397265E-05  1.42454303E-04
  1.21311976E-04  1.03718992E-02 -4.79389828E-03  2.50873778E-04 -4.23915044E-04
  3.12614696E-04 -2.04789447E-02  2.83726084E-02 -6.27303096E-04  2.31097386E-02
 -8.19730001E-02 -5.29316918E-02  2.41648848E-03  1.28318542E-03  4.10801170E-02
 -8.39068462E-03 -6.56281400E-03  2.36796664E-02 -1.25088736E-02 -7.79734166E-03
 -2.87237385E-03 -1.00641324E-02  1.07647780E-02 -1.87005812E-02  5.13898502E-02
  7.46129708E-03 -1.09897303E-02  3.10585743E-02  8.81255028E-03  1.24019067E-03
  5.66463465E-04 -1.36065919E-03  1.26507143E-03  1.06219434E-03  2.81357116E-01
  7.51481976E-01 -1.46230043E-02 -6.78036198E-03 -4.04325641E-03  1.18977130E-02
  1.97086051E-02  3.43963293E-02  6.36176130E-03  1.11710244E-02 -2.83815828E-03
  7.65639025E-03  5.85122077E-03 -9.23739832E-03 -2.11078294E-03 -2.68759446E-03
 -4.62919756E-03 -1.08115430E-03  2.35424292E-02 -2.86800164E-02 -1.31964748E-02
 -1.21240204E-02 -1.12362977E-02 -6.96964199E-03  2.11713540E-04 -1.74172691E-03
  2.02781939E-03  4.91237185E-03 -1.76819818E-03 -1.19657737E-03 -3.10557302E-02
 -1.23913477E-02  6.14213062E-04  7.91036797E-04 -6.57926733E-04 -2.76211734E-02
 -3.17862310E-03 -8.30912817E-04  1.22391012E-03 -7.53225069E-04 -3.26903427E-02
 -1.91987663E-02  1.05245483E-03  3.57464379E-04  7.11980219E-06  1.04129206E-02
 -2.90184170E-03 -3.79480367E-04 -1.47233067E-03  3.98965636E-04  2.05478228E-03
 -4.85733351E-02 -7.55490121E-03  1.07215599E-02 -1.30892650E-02 -1.19754181E-02
 -7.02891711E-03  4.49386416E-02  5.33163241E-02 -1.03626355E-02 -1.14591557E-02
  2.67779022E-02 -9.51736927E-03 -4.36734139E-03 -5.14894686E-04  1.07647443E-02
  2.96040660E-03  1.78687009E-02  1.17803070E-01  8.12582291E-03  1.57669145E-02
  7.95139136E-02  5.77997237E-03  3.18630100E-03  6.36997073E-04 -1.50455945E-03
  3.78056971E-03  6.20717119E-04  3.27641313E-01  5.18217479E-01  4.20319211E-01
  1.92436700E-02 -4.21265210E-02 -6.85266474E-02 -1.88964981E-02  7.00712866E-03
 -6.80458661E-02  5.12682012E-02 -2.62384257E-02 -3.67651135E-02 -1.60005501E-02
  2.75474856E-02  4.25820715E-03  8.20334302E-03 -1.47482223E-03  1.29736843E-03
 -1.21512040E-02  6.21409730E-02 -4.95783846E-03 -8.77762925E-05  1.00610088E-02
 -1.24581522E-02 -3.98416201E-02  5.05726479E-02  1.03465490E-03 -7.09802269E-04
 -6.54959754E-04  2.51865006E-03  1.23126840E-03 -6.91322350E-02 -7.54949920E-02
  3.43484446E-04 -2.49491779E-03  6.80343155E-04  9.97583748E-02  1.11086871E-01
 -2.66057676E-04  4.23328046E-03 -3.33134236E-03  7.19062915E-03  2.28415332E-02
 -1.24076046E-04  7.25032961E-04 -1.33384846E-03 -7.18177558E-03  1.02133873E-02
  7.41673374E-04 -3.71299886E-04 -4.86883588E-04  2.44303310E-02 -5.43341641E-02
  1.19398446E-03  1.13611648E-01  9.31816730E-02  4.78780700E-02  6.77271135E-02
 -9.78749956E-03  8.33446123E-03 -2.73630368E-03 -2.73210985E-02 -1.81478783E-02
  1.70024826E-02 -2.76852266E-02  5.62029503E-03  1.87003687E-02 -1.78685111E-02
 -7.69606917E-02 -5.83991466E-02 -3.40051960E-03 -7.05931830E-02 -4.25131959E-02
  1.82896978E-02  2.36112871E-04  7.11123187E-04  2.98912154E-04  4.39647261E-04
 -6.16033510E-04  1.77800708E-02  3.39458267E-02  5.64277008E-02  7.69856319E-01
 -2.43304782E-02  5.86492472E-02 -9.24077855E-03  1.74741784E-02 -6.92595342E-03
  8.18972142E-02  5.67198945E-03  3.65358501E-02 -2.24546539E-02  1.46847919E-02
  6.06711178E-03  2.07154093E-02  7.64998827E-03  3.77216010E-03  2.64268748E-02
 -7.19221179E-02 -6.24611638E-02 -3.29322957E-03  7.05379911E-02 -1.78589596E-02
  9.44051946E-03  6.38911897E-02  4.31979827E-02 -3.49811384E-03  1.53614042E-03
 -3.56813772E-03 -6.11843251E-04 -2.86374053E-03  1.56224025E-02  1.93182723E-03
 -1.67491711E-04 -1.37277806E-03  2.87203276E-03  3.34767560E-02  2.33217981E-02
  1.50241599E-03 -7.48242448E-04  1.21388437E-03 -1.73908475E-03  9.09477602E-03
 -3.27484989E-04  2.01169752E-03 -2.37524316E-03  1.98464359E-02  3.78041637E-02
  7.69593681E-04  2.57332241E-03 -4.70129053E-04 -9.25713025E-02  2.02357482E-01
  1.88589103E-02  8.96637896E-02 -1.93119276E-01 -1.83894699E-01 -7.03198684E-04
  6.42406796E-02 -7.54496872E-02  1.55601218E-02 -1.78773880E-02  3.60721812E-02
  4.07387918E-03 -7.73962249E-03 -2.40435654E-02 -5.13897122E-02 -1.17803539E-01
 -5.83992529E-02  1.31319487E-01 -1.11015377E-02 -5.44207061E-02  1.05210192E-01
 -1.29708283E-02 -1.96332154E-03  1.19616662E-03 -2.65680944E-03 -4.25350724E-04
  2.85154630E-04 -4.82996350E-02 -1.00144433E-01 -1.09029223E-01  3.34306571E-02
  6.78661700E-01  7.68003082E-02 -1.67659055E-01  1.32262047E-02 -7.08808525E-02
  8.90700449E-02 -3.31489559E-01 -2.33043624E-02  2.41071189E-02 -9.64421283E-02
 -2.73216355E-02 -1.48298960E-02  9.68177936E-03 -3.96475143E-04  2.98636484E-03
 -1.04878089E-02  2.82609877E-02  1.01712473E-02  1.08645243E-02 -5.58952031E-02
  3.99361894E-03  2.07409785E-03 -2.90501840E-02 -7.21566505E-03  2.16020863E-03
 -2.30150777E-03  9.10218799E-03  1.92299766E-04  2.12792921E-03  4.14181110E-02
  2.40764888E-02 -9.92644692E-04  1.93140870E-03 -6.56380492E-03  2.64340659E-02
  9.40344680E-03 -1.64082278E-03  1.21369364E-03 -5.63325309E-03 -2.63673172E-03
 -4.63102052E-03  8.07241055E-04 -1.64733607E-03  8.08878124E-04 -4.04503649E-02
 -3.46335974E-02 -1.34581927E-03 -1.75622693E-03 -1.24845189E-04 -5.64457888E-02
  1.24882636E-01  5.69152813E-02  3.34599753E-02 -1.65743681E-01 -8.92380080E-02
 -2.94808815E-03 -1.62128142E-02  1.01159798E-02 -1.99034391E-02 -2.95407156E-03
  1.61607147E-02 -1.65088782E-02 -7.42437684E-03  3.43452862E-03  7.46121745E-03
  8.12614019E-03  3.40071774E-03  1.11016006E-02 -3.59324006E-02  3.45258750E-03
  1.54992231E-02 -2.60312647E-02 -5.57562129E-04 -6.69406784E-04  9.63194439E-04
  1.06591271E-05 -1.30353147E-04  1.86412094E-02  3.77635256E-02  5.52853201E-02
 -1.32847944E-02 -5.77315066E-02  5.47482609E-01  1.62096587E-02 -3.01279915E-02
 -5.01104944E-02 -2.86224440E-02 -8.86132146E-04 -4.14237595E-02  3.17298500E-02
 -2.00439951E-02 -2.38645759E-02 -1.08316542E-02  2.00044182E-02  3.23929716E-03
  6.23463775E-03 -7.27883899E-04  1.59042017E-03 -1.04326070E-02  4.12449391E-02
 -5.76277461E-03  5.67350744E-03  6.21289357E-03 -1.06194202E-02 -2.54909970E-02
  3.58042353E-02  7.13256917E-04 -9.85007582E-04 -1.16130806E-03  2.21668586E-03
  1.37349506E-03 -5.89902957E-02 -5.69433260E-02  2.94130965E-04 -2.28445012E-03
  2.96189307E-04  8.33314140E-02  8.48511176E-02  1.32378001E-04  3.22882611E-03
 -2.15186729E-03  8.39454955E-03  2.00340761E-02 -1.82060617E-04  6.65112218E-04
 -1.01565608E-03 -3.18697358E-03  7.44908849E-03  6.78862465E-04 -2.05147186E-04
 -2.93897657E-04  1.66050917E-02 -2.79768488E-02  2.41484582E-03  5.96860950E-02
  5.50707250E-02  2.58318980E-02  3.85192712E-02 -1.20582951E-02  1.97035067E-03
 -1.38300504E-03 -2.03105150E-02 -1.32866892E-02  1.22654194E-02 -2.05077042E-02
  3.40246400E-03  1.09896336E-02 -1.57666689E-02 -7.05933768E-02 -5.44204576E-02
 -3.45226699E-03 -6.01129331E-02 -3.82914015E-02  1.23031867E-02 -6.93406092E-05
  3.81939748E-04  1.68672788E-04 -5.22182856E-04  2.10005956E-04  1.16459304E-02
  3.27125380E-02  4.01395610E-02  5.44697626E-01  3.48517759E-02 -1.11893125E-02
  3.88691492E-01 -2.62379296E-02  4.60201819E-02 -4.61397095E-03  1.45148107E-02
 -1.44343675E-02  6.47373368E-02  6.13355487E-03  2.18778194E-02 -1.23430649E-02
  1.02115795E-02  5.01137021E-03  1.30405843E-02  5.48686576E-03  2.22492558E-03
  1.76255095E-02 -5.30463766E-02 -4.19262099E-02 -5.11181131E-03  5.45370245E-02
 -5.62223839E-03  4.93585444E-03  4.61027559E-02  3.31151385E-02 -2.29703327E-03
  8.02574260E-04 -1.67974706E-03 -4.44542961E-04 -2.15185260E-03  1.08755903E-02
 -2.30420601E-04 -2.64775880E-04 -1.03420388E-03  2.26102066E-03  2.50332271E-02
  1.75008989E-02  1.22960945E-03 -5.13044485E-04  1.02944365E-03 -4.44149183E-03
  5.28382233E-03 -4.68690727E-05  1.58273321E-03 -1.52127764E-03  1.19164598E-02
  2.52770239E-02  3.95687196E-04  1.90351674E-03 -2.57878888E-04 -5.44054480E-02
  9.86128072E-02  6.21654053E-03  5.02988148E-02 -1.06160143E-01 -9.94663217E-02
 -4.69612970E-03  5.25649868E-02 -4.48057971E-02  1.09390767E-02 -1.30811789E-02
  2.44630248E-02  4.88717147E-03 -4.36538931E-03 -1.42324536E-02 -3.10585298E-02
 -7.95142354E-02 -4.25134687E-02  1.05210078E-01 -1.54991664E-02 -3.82916970E-02
  8.03346972E-02 -1.30012191E-02 -4.21605824E-04  6.52031545E-04 -1.70556677E-03
  4.28930805E-04  6.63905900E-04 -2.93881773E-02 -9.10746149E-02 -7.69938753E-02
  3.63751293E-02  4.38266730E-01 -7.23351138E-02  3.19751687E-02  2.90175744E-01
  4.71609122E-02 -9.09154783E-02  1.60944350E-02 -3.88984258E-02  6.64426822E-02
 -1.71616924E-01 -1.25279340E-02  2.17532661E-02 -4.56157351E-02 -1.48654779E-02
 -8.42824137E-03  4.11729288E-03 -1.43115585E-03  1.84984680E-03 -1.32192532E-02
  3.02188279E-02  5.40539754E-03  1.56434976E-02 -4.55796906E-02  9.56163242E-03
  1.50768569E-03 -1.91525276E-02 -4.54216601E-03  6.28591465E-04 -2.58369040E-03
  5.36106840E-03 -2.48418825E-04  1.37629431E-03  1.20631990E-02  1.02227667E-02
 -1.08029808E-04  1.32523297E-03 -4.04325069E-03  4.98453292E-03  1.13173842E-03
 -1.40291964E-03  7.99824367E-04 -2.98400059E-03  6.67538715E-03  1.33863675E-03
  3.28890668E-04 -1.64409037E-03  8.06738850E-04 -3.49875777E-02 -2.84430736E-02
 -9.51174060E-04 -1.04561961E-03 -4.90466965E-05 -2.39652522E-02  4.10653256E-02
  2.52284764E-02  8.50583718E-03 -7.03059882E-02 -3.21206224E-02 -6.92657347E-03
  3.38136062E-03  1.07277511E-02 -1.14381023E-02 -8.16569890E-05  1.15876734E-02
 -8.38602907E-03 -3.58634388E-03  2.38716037E-03  8.81246782E-03  5.78016813E-03
 -1.82896234E-02  1.29711286E-02 -2.60310478E-02 -1.23030218E-02  1.30014152E-02
 -1.90774347E-02  5.23072510E-04 -5.37911739E-04  1.00677622E-03  5.89556191E-05
  7.60466408E-04  8.00100422E-03  2.79258963E-02  4.52061962E-02 -2.08692081E-02
 -6.28125658E-02  2.90849540E-01 -1.70621233E-02 -5.69805476E-02  1.61521826E-01
 -6.25122074E-03  7.55254685E-03 -1.40626970E-04  3.91038272E-03 -3.89116921E-03
  3.45218702E-03  1.64831825E-03 -2.11276180E-03  1.04868008E-03  3.41025041E-04
  2.98019461E-04 -6.07792473E-04 -2.68662159E-05 -2.22383454E-04  1.34457498E-04
 -2.92020237E-04  2.05113393E-03 -3.72909414E-04  2.09241856E-04  4.35730922E-04
 -3.34495799E-04 -6.93906394E-04 -3.71735553E-05 -4.47029147E-05 -2.93796084E-05
  1.36567692E-04 -8.02905504E-05 -1.17194040E-04  3.49945255E-03  5.33231498E-04
 -2.17922849E-04  1.20506392E-04  2.90907070E-04  1.32904636E-04 -6.99779504E-05
  2.18453313E-04  1.83107896E-05  7.39812304E-05 -6.68459525E-04 -3.87632811E-04
  1.41361852E-05  1.93610864E-06  1.31131333E-05  4.73257505E-05 -6.43792721E-05
 -1.57334781E-06  9.10863072E-06  6.31103528E-06  2.11014197E-03 -5.10357115E-03
 -1.38626575E-03 -3.76462506E-04  2.63004667E-03  8.51789138E-03  6.60865281E-04
 -2.00590983E-03  1.88442707E-03  1.01681450E-04  1.69599834E-04 -8.55550497E-04
  2.87624485E-04  1.36484384E-04  8.31952054E-05  1.24016392E-03  3.18629119E-03
 -2.36104252E-04  1.96328959E-03 -5.57568093E-04  6.93491200E-05  4.21584752E-04
  5.23062163E-04  1.45633071E-04 -9.78885104E-06  3.24032213E-05  1.67709272E-04
  8.21969837E-05  3.99978229E-03  7.64038448E-03  5.07717578E-03  3.51553186E-03
 -1.04758214E-02 -9.73282022E-03  2.29602351E-03 -6.23709965E-03 -4.96910326E-03
  6.25311829E-04 -3.23700335E-03  4.74263461E-03  7.34477393E-04 -7.80437743E-03
 -1.59965324E-03  6.85473820E-03 -3.05830217E-03 -2.91960919E-04  2.18586126E-03
  4.33128875E-04  2.29143777E-04 -2.27632848E-04  1.56658774E-05  2.09352541E-04
  1.09101081E-04 -3.05534586E-04 -4.82644262E-04  1.33748185E-04  4.44095779E-04
  1.48279555E-04 -5.81762276E-04  5.99609210E-04 -5.26211650E-06 -1.08849427E-04
  4.22197603E-05 -1.41936420E-04 -4.33371640E-05  2.55904857E-04 -5.43876136E-03
 -2.03551470E-03 -4.67495218E-06 -1.63834821E-04 -4.64634952E-05  6.12715155E-03
  1.79810608E-03  2.41952246E-04  1.68950782E-04  2.52852214E-04  8.62897361E-04
  1.07287884E-03 -3.80795970E-06  3.12205913E-05  1.80920826E-05 -3.46376412E-04
 -5.05775911E-04  1.96703033E-05  1.40101469E-05 -3.15244839E-05  1.64730216E-03
 -2.96960947E-03 -8.58934891E-04  2.81278248E-03  2.98783547E-03  9.92923463E-04
  1.62359325E-03  1.11340546E-03 -4.22190392E-04  2.65269261E-04  5.04972102E-04
  7.22834370E-05  1.51250971E-04  2.81514542E-04 -3.03836005E-04 -5.66448894E-04
 -6.36955073E-04  7.11115810E-04  1.19621942E-03  6.69446893E-04  3.81935135E-04
  6.52061591E-04  5.37932238E-04  9.79066819E-06  4.08316013E-05  1.51063737E-05
  6.29415144E-05 -3.29200151E-05  1.52614362E-04 -7.27144118E-05 -6.03229369E-04
 -4.98766512E-03  4.32237413E-04 -8.14786759E-03 -3.46505197E-03  6.79011550E-04
 -4.08132829E-03  8.91923242E-05  4.03396999E-04  4.77930629E-03 -8.40149350E-03
 -1.27653014E-03 -2.74849400E-03 -5.67725964E-03 -1.32137498E-02 -1.02296147E-03
 -2.91053631E-03 -3.72270858E-03 -8.80587267E-04 -5.68318742E-04  1.36787004E-04
  2.90613102E-04  4.88508370E-05  9.47888680E-04 -2.40668746E-03 -4.28239968E-04
 -1.54154103E-04  5.52872949E-03 -9.13263425E-04 -2.37835426E-04  1.28586142E-03
 -1.22776402E-03  2.41293428E-04 -7.13243205E-05  3.41315212E-04  3.52521976E-04
  8.50799753E-05  3.95575950E-03  2.08907210E-03 -1.63585229E-04 -5.22956253E-05
 -1.75434639E-04  3.06647756E-03  1.31856482E-03  6.63460632E-05 -8.14104471E-05
 -2.09167833E-04  1.15215031E-03  6.99861344E-04 -2.24593486E-05  8.68203430E-05
  1.92541227E-05  6.70077756E-04 -4.21187475E-04  2.50190816E-05  5.54913682E-05
  3.99141838E-05 -6.38672642E-03  8.83785992E-03  3.35157709E-03  1.96382361E-03
 -5.74473630E-03 -2.17624982E-03  7.03178900E-04 -2.06606624E-03 -1.79040582E-04
 -7.78023824E-04  1.84210804E-04  1.51426932E-04 -7.21759760E-04 -3.39102346E-04
  6.94456335E-04  1.36065040E-03  1.50455997E-03  2.98890859E-04 -2.65680508E-03
 -9.63180184E-04  1.68661853E-04 -1.70556126E-03 -1.00677841E-03 -3.24033453E-05
  1.51079268E-05 -1.44892615E-04 -3.37010299E-05 -1.97227260E-05  2.54030896E-03
  5.86309412E-03  3.62482519E-03 -6.53496214E-04 -5.83508302E-03  2.00771133E-02
 -4.02575651E-04 -5.37438924E-03  1.01793043E-02 -1.96646611E-04 -2.93474604E-04
  1.02707364E-03  9.68738829E-04 -9.82948979E-04  1.67239244E-03 -2.48179205E-03
 -1.71621268E-03 -2.27541166E-03 -1.29018582E-03 -1.16037382E-03  9.27178884E-04
 -3.51036240E-04 -5.16803823E-04 -7.36515016E-04 -2.14848084E-04 -2.80152874E-05
 -4.74401308E-04  1.28730593E-03  7.68712479E-04  4.69882641E-04 -3.61059465E-04
 -1.74553743E-04 -3.89517163E-04 -4.63647565E-04 -1.86769927E-03 -4.54838954E-05
 -1.35712273E-04  2.62514941E-04  5.34772905E-05  1.23881896E-04 -7.70611559E-05
  4.67329535E-04 -4.40547496E-05  2.32550236E-05 -1.12918079E-04  2.54105630E-04
 -1.00731545E-03  4.05577996E-05 -9.96099220E-08  3.92139309E-05  8.42999428E-04
  2.11061996E-04  3.37851734E-06 -5.57533449E-05  8.74224729E-05 -8.13978759E-04
 -1.68724982E-03 -1.72026131E-05 -4.35921641E-05  1.16257591E-05  5.95775193E-03
 -8.38764657E-03 -6.40440429E-04 -6.49690048E-03  4.12258024E-03  7.90734470E-03
 -2.09315773E-03 -1.44874582E-03  2.46360131E-03 -5.81821291E-04  7.70225118E-04
 -7.25859282E-04 -1.59542536E-04  5.73298485E-04  4.41910980E-04  1.26506399E-03
  3.78058606E-03 -4.39651268E-04  4.25378247E-04  1.06658684E-05  5.22184389E-04
 -4.28918110E-04  5.89469700E-05  1.67710837E-04 -6.29403149E-05  3.36997927E-05
  1.12811903E-04  2.01638237E-04 -4.97100281E-04 -5.20252793E-04  1.17933964E-03
 -1.04653450E-02 -2.21113375E-02  1.41053174E-03 -7.62140767E-03 -1.39642384E-02
  2.11038687E-03  3.00182369E-04  7.59560673E-05  1.67757237E-04  9.43432903E-04
  1.61761987E-03 -2.10516801E-03 -2.21844749E-03 -4.27360427E-04 -5.76386311E-04
 -3.87807511E-03  1.77042999E-03 -1.66260411E-03 -1.38839153E-03 -7.55451743E-04
  8.55889791E-04 -9.73743426E-05  2.36296321E-04 -8.15979917E-05 -6.86159509E-05
  1.54301437E-05  2.89968078E-03  1.62176249E-04  3.14338989E-04  3.83631448E-04
 -3.78522621E-04 -1.64431195E-03  1.32851272E-03  7.02589464E-05  5.77967356E-05
  1.43239638E-04  9.06684896E-05  4.68244552E-05 -1.77101762E-03 -2.41600069E-03
 -7.77871870E-06 -6.11965765E-05  5.81495777E-06  3.08887345E-03  3.43589473E-03
 -1.57335251E-05  1.31183453E-04 -1.21507377E-04  3.18745195E-04  5.27981149E-04
 -1.12623477E-05  1.87036735E-05 -1.03787037E-05 -2.46142497E-04  1.05545002E-04
  2.63754707E-05 -2.50558690E-05 -1.43155971E-05  3.82435098E-03 -5.43988441E-03
 -2.13113519E-04  7.10086111E-03  6.25026948E-03  5.05485214E-03  4.17879540E-03
 -1.89419092E-04  1.31351287E-03 -3.40403904E-04 -6.04747896E-04 -8.78291933E-04
  5.42771548E-04 -7.18973217E-04  3.73144192E-04  1.06220177E-03  6.20749335E-04
  6.16027933E-04 -2.85170625E-04 -1.30343157E-04 -2.09998944E-04 -6.63912129E-04
  7.60464138E-04  8.21975619E-05  3.29205795E-05  1.97226367E-05  2.01637501E-04
 -1.16694725E-04 -8.21209378E-05  2.77424517E-04  2.27838085E-03  2.61292058E-02
 -6.43177017E-03  1.10259968E-05  1.79265171E-02 -3.46814086E-03 -7.62285972E-05
  2.48580363E-04 -1.33470404E-04  4.62931615E-05 -1.08599794E-04  1.05702235E-03
 -1.59448354E-03  3.32660054E-03 -2.51523974E-03  1.31891206E-03 -8.75100231E-04
  7.45241612E-03 -4.32181292E-04  1.02731269E-03  2.19301775E-03  5.04171201E-04
  4.11842987E-04 -1.16678417E-04 -6.45354169E-05 -2.49128614E-05 -1.59446170E-03
  3.32651817E-03 -2.51542614E-03 -1.31870064E-03  8.75109242E-04  7.45256180E-03
  4.32359859E-04 -1.02724056E-03  2.19347736E-03  5.04259238E-04 -4.12566915E-04
  1.16729224E-04 -6.44190119E-05 -2.48682906E-05 -1.18322669E-03  1.14400627E-03
  6.84574555E-05  1.53348611E-06  2.00452772E-04 -7.01206279E-04  6.29299095E-06
 -3.17761189E-05 -5.66897313E-06  1.95208028E-04 -7.01396206E-04  6.19570927E-06
  3.19078594E-05  5.79850952E-06  1.95248358E-04 -1.18268461E-03  1.14423334E-03
 -6.82091413E-05 -1.72217328E-06  2.00594472E-04 -2.42799955E-02  2.91361551E-02
 -1.26309803E-02  5.68359961E-08 -1.44418544E-08  6.85783740E-02 -3.52495211E-08
 -9.81855646E-08 -2.97814606E-03  1.88998303E-02  2.49143992E-08 -2.44914437E-09
  1.51853292E-03  6.80631903E-04 -3.47167386E-03 -7.05588682E-03 -4.01854088E-03
 -1.44351693E-03  2.02689972E-03 -1.47196935E-02 -8.82332870E-04  5.05184955E-04
 -8.34573863E-03  8.05101013E-04 -7.68979644E-05  5.24141270E-05  2.77966233E-04
  1.87532365E-04 -3.47166437E-03 -7.05590466E-03 -4.01833348E-03  1.44352905E-03
 -2.02687139E-03 -1.47197215E-02  8.82417229E-04 -5.05141783E-04 -8.34598487E-03
  8.05165741E-04  7.68890588E-05 -5.24477348E-05  2.77954105E-04  1.87540974E-04
  2.13699956E+00 -4.16895435E-03 -3.28541223E-04  6.23708518E-03  3.95635683E-03
 -7.56925183E-04  1.18734731E-02 -8.76693935E-03  6.59176712E-03  1.20834788E-02
  7.08161116E-04  4.41076539E-04  1.11210516E-04 -3.22867054E-04 -2.64304126E-04
 -4.16894572E-03 -3.28684479E-04  6.23795542E-03 -3.95632227E-03  7.56974157E-04
  1.18735624E-02  8.76711273E-03 -6.59204298E-03  1.20842054E-02  7.08288814E-04
 -4.41762954E-04 -1.11203828E-04 -3.22752460E-04 -2.64316516E-04 -6.78661492E-04
  6.07721759E-03 -2.20962332E-04 -1.10065024E-04  1.07174723E-04 -4.64836904E-03
 -4.18031162E-03  3.01940573E-04 -3.99422214E-04 -3.40409723E-04 -4.64866382E-03
 -4.18055057E-03 -3.01820698E-04  3.99534788E-04 -3.40372158E-04 -6.78220603E-04
  6.07750896E-03  2.21141860E-04  1.09919456E-04  1.07283765E-04 -4.00704627E-02
  5.84903903E-02  2.39076255E-03  1.05960455E-07 -1.53631250E-08  1.31731609E-01
  5.70812320E-08 -1.51390410E-07  8.65182038E-02  2.80086408E-02  3.05236574E-08
 -1.42735769E-08  3.14906235E-03  1.65938829E-03 -4.47036629E-03 -1.46550109E-02
  1.60079122E-02 -4.71543757E-03  1.17708933E-02 -2.87891411E-02 -1.07570900E-03
 -7.22783664E-03 -2.22306421E-02  6.46893357E-04 -3.25046519E-04  1.08929907E-03
 -1.61461090E-04  3.18812941E-05 -4.47034441E-03 -1.46550786E-02  1.60084396E-02
  4.71547340E-03 -1.17708488E-02 -2.87891822E-02  1.07579067E-03  7.22793843E-03
 -2.22310446E-02  6.46941690E-04  3.25062848E-04 -1.08932398E-03 -1.61467876E-04
  3.18800471E-05  2.81567053E-01  7.48014072E-01  1.01826079E-02 -4.60325196E-03
 -7.60959923E-03 -9.42829805E-03 -1.64029354E-02  2.69692596E-02 -1.40687993E-02
 -2.05000483E-04  1.37167892E-02  3.02261577E-03  6.62624323E-04  3.08198574E-03
  7.08620803E-04  8.26341612E-04  1.01826069E-02 -4.60327384E-03 -7.60880010E-03
  9.42866500E-03  1.64029948E-02  2.69694130E-02  1.40691765E-02  2.04733672E-04
  1.37173728E-02  3.02268270E-03 -6.63067154E-04 -3.08196136E-03  7.08690025E-04
  8.26332854E-04 -7.26596393E-03  7.13627219E-03 -8.06161510E-05 -1.00444874E-03
 -8.82963403E-05  9.28324370E-03  3.62242352E-03  5.75707708E-04 -6.58461291E-04
 -5.78287831E-05  9.28317926E-03  3.62208409E-03 -5.75620092E-04  6.58523255E-04
 -5.78236251E-05 -7.26565571E-03  7.13661587E-03  8.07416151E-05  1.00436207E-03
 -8.82069022E-05 -1.79219654E-02 -6.24977649E-02 -8.93411643E-03 -1.10048851E-07
  3.98110507E-08 -6.35558449E-02 -2.18464474E-08 -7.77549315E-08  3.66563820E-02
  1.53781094E-02 -1.50681305E-09 -4.07788702E-09  3.36269101E-03  1.25665020E-03
 -2.11910228E-02 -3.48590368E-02 -1.52479489E-02  8.10340860E-03 -5.43847405E-02
 -4.39915246E-02  4.77230362E-03 -4.54907251E-02 -3.03438271E-02 -1.93897775E-03
 -1.10609608E-03  2.73994436E-03 -2.32027690E-03 -1.31231553E-03 -2.11910753E-02
 -3.48590998E-02 -1.52474960E-02 -8.10322754E-03  5.43848629E-02 -4.39915274E-02
 -4.77216969E-03  4.54908691E-02 -3.03441017E-02 -1.93895497E-03  1.10608575E-03
 -2.73995961E-03 -2.32028234E-03 -1.31231793E-03  2.99174507E-01  4.45081628E-01
  3.44409687E-01 -2.92490734E-03  6.14986747E-03  2.19065462E-02  1.15686219E-02
 -1.36437748E-02  2.48688460E-02 -1.98968603E-02 -5.97009956E-03  4.32730431E-02
  2.60937791E-03 -5.98149729E-03 -3.27678693E-03 -2.51333982E-03  7.64663209E-04
  2.92480822E-03 -6.14975811E-03 -2.19055345E-02  1.15686957E-02 -1.36435044E-02
 -2.48685908E-02 -1.98967367E-02 -5.96956141E-03 -4.32731558E-02 -2.60940806E-03
 -5.98139439E-03 -3.27679885E-03  2.51331462E-03 -7.64594003E-04  1.64315435E-02
  2.83214356E-02 -2.65223176E-04  1.05822483E-03 -1.97938697E-04 -3.13339412E-02
 -3.39140338E-02  1.20607282E-04 -1.79470227E-03  9.15746686E-04  3.13340241E-02
  3.39136711E-02  1.20601589E-04 -1.79475724E-03 -9.15804293E-04 -1.64315560E-02
 -2.83217529E-02 -2.65198444E-04  1.05824853E-03  1.97898048E-04  6.13326354E-08
 -1.37244023E-07  3.60645013E-08  3.28301816E-01  3.21591600E-02 -5.60603341E-07
  1.62426414E-01 -8.84572094E-03  1.42640376E-07 -1.10478176E-07  4.91247350E-02
 -4.05007699E-03  3.83362800E-08 -3.09092220E-08  1.17450095E-02  2.00534404E-02
  7.70550368E-02 -1.28695651E-01 -5.02537248E-02  1.08232826E-02 -1.13152824E-01
 -5.06302656E-02  3.16773782E-03 -1.31659550E-03  5.62279642E-03  2.33453471E-03
 -4.72068417E-04 -1.55228039E-04 -1.17451073E-02 -2.00536717E-02 -7.70551829E-02
 -1.28695351E-01 -5.02536774E-02 -1.08224683E-02 -1.13152496E-01 -5.06299987E-02
 -3.16711479E-03  1.31657675E-03  5.62281154E-03  2.33454418E-03  4.72094009E-04
  1.55245159E-04  1.11343627E-08  3.51351483E-08 -2.16433287E-08  6.09139783E-01
  1.03658149E-02 -3.47557738E-02  4.39871813E-02 -8.10323724E-03  1.80064242E-02
 -5.23954865E-02 -1.18663681E-02  3.55638167E-02 -1.54328171E-02  1.30995439E-04
 -4.13118026E-03  3.98573307E-03 -1.50348605E-04  6.70458575E-04 -1.03658618E-02
  3.47558057E-02 -4.39866362E-02 -8.10344781E-03  1.80065916E-02  5.23955595E-02
 -1.18668361E-02  3.55641473E-02  1.54327435E-02 -1.30910502E-04 -4.13117791E-03
  3.98595417E-03  1.50236667E-04 -6.70537839E-04  2.30971784E-02  2.84798181E-02
 -1.30604011E-03  8.06678497E-04 -2.62545625E-03 -5.45819106E-03 -3.69764457E-03
  2.98027886E-04 -1.91404968E-04 -1.73639614E-03  5.45842232E-03  3.69740922E-03
  2.97932287E-04 -1.91464244E-04  1.73637682E-03 -2.30972588E-02 -2.84799471E-02
 -1.30599755E-03  8.06652476E-04  2.62545629E-03 -5.88559374E-08  1.19355207E-07
 -6.92889130E-08  3.09847026E-02  1.91116451E-01  2.43667375E-08 -2.07198509E-02
  2.23890949E-01  4.28027570E-08  1.08272938E-08 -3.85350308E-03  6.52672044E-02
 -2.10821867E-09  6.48326061E-08 -3.56092458E-02 -7.07617446E-02 -1.87734405E-01
 -5.25973430E-02  4.26426715E-02 -8.13921810E-02 -5.20604453E-02  5.32939090E-02
 -8.99494576E-02  5.90075470E-03  1.15939481E-03 -3.68251074E-04 -1.43311058E-04
  4.82837637E-04  3.56091856E-02  7.07616537E-02  1.87734074E-01 -5.25974317E-02
  4.26425718E-02  8.13924932E-02 -5.20605511E-02  5.32938828E-02  8.99498831E-02
 -5.90076906E-03  1.15936213E-03 -3.68226989E-04  1.43329557E-04 -4.82845695E-04
 -2.13790060E-08 -5.15727470E-08 -2.44847389E-09 -3.68131836E-02  7.68286640E-01
  1.00689969E-02 -3.16357899E-02 -5.73609815E-03 -7.65665821E-03  2.42768639E-03
 -3.92945822E-02 -1.79508525E-02  9.98947813E-03 -1.09906249E-02  7.74732784E-04
 -1.65427691E-03  2.43193401E-03  5.05670788E-04  6.61728470E-04  1.00689947E-02
 -3.16358841E-02 -5.73493120E-03  7.65680202E-03 -2.42772242E-03 -3.92945272E-02
  1.79512042E-02 -9.98999813E-03 -1.09901226E-02  7.74676367E-04  1.65401554E-03
 -2.43197661E-03  5.05631054E-04  6.61723107E-04  9.19453366E-03  1.47527066E-02
 -5.15165966E-04  1.27016831E-04 -1.01905120E-03  2.31615775E-03 -1.97956433E-03
  3.18255820E-04 -5.26781312E-04 -1.59795581E-03  2.31588214E-03 -1.97979216E-03
 -3.18166660E-04  5.26810973E-04 -1.59796040E-03  9.19476285E-03  1.47528643E-02
  5.15231416E-04 -1.27089449E-04 -1.01899933E-03  1.51524031E-01 -3.41282366E-01
 -1.57198605E-02 -5.73321078E-07  4.78285193E-08 -3.91039099E-01 -1.60386907E-07
 -2.68965872E-08  3.43154190E-02 -2.00953831E-02 -4.35333946E-08  2.68309736E-08
 -5.65290527E-03 -2.59428396E-03  1.82484892E-02  4.07100116E-02  5.83590463E-02
  1.07873520E-02 -2.78987566E-02  4.66140334E-02  7.70101828E-03 -2.02790394E-02
  2.21987817E-02 -4.89754183E-03 -9.75732418E-05  1.30881292E-03 -1.73755309E-03
 -1.15653150E-03  1.82484997E-02  4.07099942E-02  5.83594635E-02 -1.07873194E-02
  2.78987577E-02  4.66141796E-02 -7.70106551E-03  2.02790852E-02  2.21987515E-02
 -4.89753978E-03  9.75409753E-05 -1.30881569E-03 -1.73754703E-03 -1.15653742E-03
  5.91940092E-02  1.16612823E-01  2.41646130E-01  1.11651560E-07  1.08155949E-07
  5.85006539E-01 -2.10675779E-03  4.44198407E-03  1.97962974E-02  1.36861691E-02
 -9.83719359E-03  1.88678650E-02 -1.26638150E-02 -1.61951570E-03  3.27748184E-02
  2.39974587E-03 -5.30340738E-03 -2.46781561E-03 -2.00406662E-03  5.82857411E-04
  2.10670363E-03 -4.44190116E-03 -1.97955642E-02  1.36862302E-02 -9.83687797E-03
 -1.88677405E-02 -1.26637297E-02 -1.61906215E-03 -3.27749542E-02 -2.39976158E-03
 -5.30334636E-03 -2.46782169E-03  2.00405591E-03 -5.82816612E-04  1.64053007E-02
  2.34389177E-02 -2.49743156E-04  9.18325052E-04 -1.17265834E-04 -2.82983368E-02
 -2.70880645E-02 -2.50594022E-06 -1.53009818E-03  6.04862578E-04  2.82984746E-02
  2.70878407E-02 -2.52321872E-06 -1.53013074E-03 -6.04911546E-04 -1.64052155E-02
 -2.34391258E-02 -2.49712887E-04  9.18337021E-04  1.17238729E-04  5.32251323E-09
  4.45300026E-09  5.62661909E-08  1.93267017E-01  1.74907070E-02 -3.33460782E-07
  9.56091985E-02 -6.21412087E-03  1.01321569E-07 -7.88614025E-08  3.43851042E-02
 -1.97587362E-03  2.52094155E-08 -2.47237825E-08  7.72526769E-03  1.62321540E-02
  5.52088456E-02 -1.16274507E-01 -3.99776233E-02  8.66184797E-03 -9.56746662E-02
 -3.78533951E-02  9.02803845E-04 -8.19700200E-04  3.69272615E-03  1.47319561E-03
 -1.09234352E-03  1.16261913E-03 -7.72537156E-03 -1.62323740E-02 -5.52090363E-02
 -1.16274241E-01 -3.99775713E-02 -8.66109726E-03 -9.56743785E-02 -3.78531933E-02
 -9.02254180E-04  8.19685796E-04  3.69273241E-03  1.47321373E-03  1.09236370E-03
 -1.16260330E-03  3.37495807E-08  6.86980179E-08 -1.11625618E-08  4.00347056E-01
 -2.06099912E-02  4.16217310E-08  2.66657479E-01  7.92201183E-03 -2.46660336E-02
  2.84901363E-02 -5.16094890E-03  1.09039434E-02 -4.34834586E-02 -7.96534319E-03
  2.20888694E-02 -1.20219420E-02 -5.44178325E-04 -3.38515436E-03  3.00545926E-03
 -1.28098742E-04  4.41405028E-04 -7.92201953E-03  2.46660199E-02 -2.84897800E-02
 -5.16119718E-03  1.09040472E-02  4.34835168E-02 -7.96568185E-03  2.20890909E-02
  1.20218765E-02  5.44239125E-04 -3.38514423E-03  3.00560359E-03  1.28022793E-04
 -4.41462438E-04  2.04093064E-02  2.16341760E-02 -1.05854600E-03  6.25160867E-04
 -1.78357242E-03 -2.88351750E-03 -2.43127782E-03  2.91439651E-04 -1.72644915E-04
 -1.30871618E-03  2.88357425E-03  2.43104220E-03  2.91374185E-04 -1.72680701E-04
  1.30869987E-03 -2.04093089E-02 -2.16342104E-02 -1.05851642E-03  6.25142903E-04
  1.78357290E-03 -3.15125838E-08  7.50557837E-08 -4.64892602E-08  1.86084862E-02
  1.08844351E-01 -1.17149841E-08 -1.50798948E-02  1.40869465E-01  3.70386235E-08
  5.63335543E-09 -2.29404469E-03  4.30353518E-02 -3.04143279E-09  4.33827470E-08
 -2.28421032E-02 -5.34611450E-02 -1.25068140E-01 -3.94686096E-02  2.33477776E-02
 -6.99035454E-02 -3.71240251E-02  3.02868350E-02 -6.73855269E-02  3.91721709E-03
  4.72083013E-04  4.77452365E-04 -2.73886047E-04  5.32484174E-04  2.28420630E-02
  5.34610923E-02  1.25067936E-01 -3.94686513E-02  2.33477197E-02  6.99037740E-02
 -3.71241021E-02  3.02868232E-02  6.73858169E-02 -3.91722491E-03  4.72053214E-04
  4.77466943E-04  2.73896050E-04 -5.32488297E-04  6.98236229E-09 -1.66932764E-08
  1.37581089E-08 -2.35455654E-02  4.95374857E-01  1.04136441E-07 -1.27017437E-02
  3.20818264E-01  4.90426257E-03 -1.87533182E-02 -2.01394752E-04 -2.70526937E-03
  4.82588356E-03 -2.95821922E-02 -9.22367739E-03  7.00628621E-03 -7.86632041E-03
 -3.83866842E-04 -1.13496666E-03  7.48445822E-04  1.40919200E-04  2.19346689E-04
  4.90426626E-03 -1.87534059E-02 -2.00727742E-04  2.70527563E-03 -4.82591914E-03
 -2.95821490E-02  9.22383764E-03 -7.00658813E-03 -7.86599185E-03 -3.83880235E-04
  1.13475350E-03 -7.48473068E-04  1.40911723E-04  2.19340782E-04  6.98746613E-03
  8.01578316E-03 -3.39450285E-04  2.76099649E-04 -5.95225323E-04 -6.31856023E-04
 -2.29978914E-03  1.20581758E-04 -2.22626028E-04 -1.00531732E-03 -6.32086572E-04
 -2.29989513E-03 -1.20523053E-04  2.22658660E-04 -1.00531075E-03  6.98763054E-03
  8.01585907E-03  3.39503936E-04 -2.76156372E-04 -5.95189753E-04  7.93195744E-02
 -1.44625735E-01 -3.27599422E-03 -2.89254463E-07  1.65122738E-08 -1.68143179E-01
 -8.39306186E-08 -3.48331101E-08  3.02811686E-02 -7.79129461E-03 -2.09948749E-08
  1.22352138E-08 -3.70452971E-03 -1.63435964E-03  1.41350679E-02  2.83280523E-02
  3.95462548E-02  3.54419524E-03 -1.82291796E-03  3.67480272E-02  3.12854956E-03
 -2.54347398E-03  1.75733083E-02 -2.25819367E-03  2.44520382E-04 -4.58322800E-05
 -5.38582899E-04 -3.82098286E-04  1.41351018E-02  2.83280735E-02  3.95465433E-02
 -3.54412905E-03  1.82287214E-03  3.67481221E-02 -3.12853462E-03  2.54347381E-03
  1.75732700E-02 -2.25818383E-03 -2.44535674E-04  4.58287248E-05 -5.38580372E-04
 -3.82098303E-04  5.16414824E-02  1.43697428E-01  1.60210957E-01  1.47906260E-08
  5.86840709E-08  2.88295991E-01  3.74994501E-09  5.76384677E-08  1.54296092E-01
 -3.89693388E-04  7.69260623E-04  2.71424451E-04  2.27079817E-05 -6.14569266E-04
  3.81266127E-04  7.06584302E-04 -6.44282568E-04  6.37251382E-05 -1.26126952E-04
  2.41473332E-05 -1.17023310E-04  1.56800871E-05 -1.12009766E-05 -3.89689697E-04
  7.69256369E-04  2.71362733E-04 -2.27084100E-05  6.14572255E-04  3.81268849E-04
 -7.06598240E-04  6.44311922E-04  6.37093964E-05 -1.26123333E-04 -2.41423861E-05
  1.17026913E-04  1.56832241E-05 -1.12024242E-05 -3.94150052E-05 -5.65495269E-04
  2.44199574E-06 -5.09952913E-06  3.48834451E-05  3.32831355E-04  2.64526394E-04
 -5.34875756E-07  2.15560050E-05  5.63501859E-05  3.32839020E-04  2.64541926E-04
  5.31631824E-07 -2.15559615E-05  5.63506879E-05 -3.94291814E-05 -5.65506117E-04
 -2.44320426E-06  5.10182516E-06  3.48818660E-05 -1.12226884E-02  2.14480408E-02
  1.73116727E-03  4.18396030E-08 -1.47467170E-08  2.07431997E-02  1.05278727E-08
  3.98767225E-09 -1.09347016E-03  1.17090980E-03  3.27054524E-09  3.45048570E-10
  1.20850207E-04  4.90443743E-05 -3.97041765E-04 -1.40775432E-03 -2.36756708E-03
 -3.90162685E-04  1.33452933E-03 -1.88794866E-05 -2.90388680E-04  1.12150305E-03
 -8.35801031E-05  2.10848994E-04  4.30945877E-05 -1.97840587E-04  7.29997508E-05
  4.51191321E-05 -3.97061386E-04 -1.40779478E-03 -2.36761204E-03  3.90149435E-04
 -1.33447920E-03 -1.88786830E-05  2.90378545E-04 -1.12147108E-03 -8.35779147E-05
  2.10848856E-04 -4.30933034E-05  1.97840347E-04  7.29981323E-05  4.51192102E-05
 -1.86109115E-04  1.09962652E-03 -8.81183683E-03  1.04910013E-08 -3.33895245E-09
 -2.98024309E-02  9.84626249E-09 -4.03852063E-09 -1.36558944E-02  1.62550924E-03
  1.51495219E-04 -4.70372423E-04 -4.46914997E-04  1.02822510E-04  3.90376804E-04
 -6.50338790E-04  9.48819746E-04  3.74215942E-04 -1.20238589E-03 -5.05175655E-05
  9.53435385E-05  5.09022292E-05  5.11170809E-05 -4.39522591E-05 -1.51494669E-04
  4.70368382E-04  4.46874439E-04  1.02827446E-04  3.90375124E-04  6.50331577E-04
  9.48815579E-04  3.74200869E-04  1.20238597E-03  5.05200595E-05  9.53372523E-05
  5.09018715E-05 -5.11151428E-05  4.39483541E-05 -3.09769579E-04 -7.71840626E-04
  1.24741050E-05 -3.19750913E-05  6.68444727E-06  3.89453546E-04  9.36168738E-04
 -2.32401939E-05  3.81092297E-05 -4.16938523E-05 -3.89447860E-04 -9.36148589E-04
 -2.32413843E-05  3.81125582E-05  4.16950650E-05  3.09772025E-04  7.71852075E-04
  1.24740582E-05 -3.19765178E-05 -6.68277913E-06 -1.07473002E-08  2.16540594E-08
  2.11720696E-09 -2.02022598E-02 -1.55592511E-03  3.41744085E-08 -9.66977031E-03
 -4.39607668E-04 -7.09788791E-09  4.62709965E-09 -2.01446809E-03 -3.80708343E-05
 -1.68767900E-09  6.28254780E-10 -1.49576410E-05 -4.10759165E-04 -2.55156317E-03
  1.68095710E-03 -4.48404197E-04  1.37195266E-04  2.50916965E-03  4.98740908E-04
 -4.01678474E-05  3.77051919E-05 -2.74861528E-04 -1.17498807E-04 -1.44830439E-04
  1.86839108E-04  1.49573245E-05  4.10759513E-04  2.55155539E-03  1.68095084E-03
 -4.48399115E-04 -1.37208326E-04  2.50916364E-03  4.98734734E-04  4.01551739E-05
 -3.77046741E-05 -2.74862559E-04 -1.17497986E-04  1.44829381E-04 -1.86839203E-04
 -1.70788336E-09 -8.13327069E-10 -2.49993950E-09 -2.98147810E-02  1.58999212E-04
 -1.49662716E-08 -1.90345429E-02  1.59182914E-04 -4.79413872E-09 -5.11418403E-11
  1.56299912E-03 -3.84417989E-04  1.42043383E-03 -1.14713332E-03  4.87293646E-04
 -2.28712099E-04  1.26269391E-03  4.72314396E-04 -6.55797978E-04 -1.22552179E-05
  4.25782748E-05  2.84897792E-05  2.76954375E-05  3.35843094E-05  2.59894512E-05
  3.84418791E-04 -1.42043525E-03  1.14711688E-03  4.87300178E-04 -2.28714026E-04
 -1.26269949E-03  4.72334481E-04 -6.55806270E-04  1.22536416E-05 -4.25808387E-05
  2.84893998E-05  2.76879397E-05 -3.35804612E-05 -2.59855244E-05 -9.70878875E-05
 -6.97194382E-04  3.41572531E-05 -6.18410303E-06  9.84257375E-05  1.27652759E-04
  6.42608060E-06 -7.23299022E-06 -7.83727353E-06  6.04499158E-05 -1.27658987E-04
 -6.41945556E-06 -7.23052292E-06 -7.83446614E-06 -6.04493112E-05  9.70955167E-05
  6.97201025E-04  3.41575175E-05 -6.18387132E-06 -9.84254098E-05  4.01471580E-09
 -8.70987304E-09  2.65734414E-09 -1.54935593E-03 -1.40391837E-02 -7.08606098E-09
 -2.06304591E-04 -8.84911257E-03 -3.42267468E-10 -9.36313138E-10 -2.03856417E-05
 -1.84464653E-03 -3.93651096E-10 -1.75831103E-09 -8.63828881E-05  1.38821765E-03
  6.56783707E-03 -6.72988769E-04  3.22415945E-03  5.22277011E-05  2.82584130E-04
  8.90775691E-04  1.99512296E-03 -1.43909883E-04 -9.36202872E-05  9.67765889E-05
  9.50740761E-05  1.42361114E-04  8.63860348E-05 -1.38821247E-03 -6.56782492E-03
 -6.72985883E-04  3.22415857E-03 -5.22262997E-05  2.82585445E-04  8.90772829E-04
 -1.99513015E-03  1.43910563E-04 -9.36197167E-05  9.67762716E-05 -9.50740667E-05
 -1.42361207E-04 -1.33783519E-09 -3.23647595E-09 -1.87665822E-09  2.38147573E-04
 -3.04340604E-02  2.32858954E-09  1.70603925E-04 -1.93742174E-02  3.14507737E-10
  5.65049548E-11  5.16742484E-05  1.34377380E-03  9.42050561E-06 -2.88639376E-05
 -1.54526706E-04  1.80784941E-05 -4.03449919E-04  3.21351778E-04 -2.35064456E-06
 -1.28467156E-04  1.38789663E-04  2.96090429E-05  2.91605249E-05  4.24453246E-05
  2.41254626E-05  1.73585835E-06  9.41961128E-06 -2.88629709E-05 -1.54521117E-04
 -1.80779682E-05  4.03452363E-04  3.21353834E-04  2.35335808E-06  1.28468264E-04
  1.38794327E-04  2.96099024E-05 -2.91617947E-05 -4.24444948E-05  2.41255667E-05
  1.73550425E-06  1.34056331E-05  5.59590558E-05 -3.64501361E-06 -1.49801142E-05
  8.04388456E-06  1.67386794E-04  1.48131323E-04  7.68441387E-06 -8.01130796E-06
 -6.68734671E-08  1.67383924E-04  1.48126451E-04 -7.68429045E-06  8.01142523E-06
 -6.71544304E-08  1.34092155E-05  5.59629639E-05  3.64561187E-06  1.49798425E-05
  8.04431769E-06 -2.81663798E-04  7.11126913E-04  1.59337494E-05 -1.08798294E-08
 -5.99844714E-09  1.42466996E-05 -5.68108636E-09 -1.86659681E-09 -7.84427593E-05
  1.54635456E-04 -1.17150114E-09 -1.14243202E-10  6.41697613E-05 -3.25529369E-05
  1.41795494E-05 -4.48733951E-04 -4.77985779E-04 -5.28046712E-04 -9.77025000E-04
 -5.59559952E-04 -4.19236405E-04 -6.80542314E-04 -3.80901568E-04 -1.07485546E-05
 -3.60274504E-06  1.82619507E-05 -4.09236097E-05  1.57285214E-06  1.41771993E-05
 -4.48739605E-04 -4.77986120E-04  5.28047012E-04  9.77036883E-04 -5.59561605E-04
  4.19238268E-04  6.80550945E-04 -3.80905659E-04 -1.07485943E-05  3.60243033E-06
 -1.82621782E-05 -4.09237923E-05  1.57236219E-06  9.70246901E-04  1.90443777E-03
  1.34444957E-03 -1.72019749E-08 -6.83580781E-09  1.47170059E-04 -1.08967606E-08
 -4.36877430E-09  2.34586792E-04  7.92183857E-06  8.99909566E-10  3.63882051E-10
  9.64809426E-06 -2.59564305E-05  7.52277653E-05 -3.49786027E-05  1.33387094E-04
 -1.24171176E-04  2.03537961E-04 -7.69515436E-05 -5.47462734E-05  2.70605859E-05
  3.51108125E-05 -3.75744748E-05  4.57233003E-06 -1.14893752E-05 -5.33984723E-06
 -2.59554333E-05  7.52249476E-05 -3.49726840E-05 -1.33387158E-04  1.24169826E-04
  2.03533748E-04  7.69514070E-05  5.47406554E-05  2.70624658E-05  3.51107514E-05
  3.75742478E-05 -4.57279524E-06 -1.14890777E-05 -5.33948156E-06  1.85300879E-04
  1.52779386E-04  5.26401076E-08  3.73539042E-07  4.40797160E-06 -2.16302366E-04
 -2.16738109E-04  2.24907180E-07 -1.01877118E-05  6.18442268E-06 -2.16303635E-04
 -2.16739248E-04 -2.24422684E-07  1.01880412E-05  6.18441199E-06  1.85302892E-04
  1.52781850E-04 -5.27663230E-08 -3.73678064E-07  4.40817595E-06 -1.50646675E-04
  3.92314529E-04 -1.55324648E-05  2.56460277E-09 -4.09229063E-09 -2.41706525E-05
  2.27871744E-09 -5.74730597E-09 -9.54757252E-06  7.11533855E-05  3.99406638E-10
 -1.47420301E-09 -2.91586939E-05  8.34602840E-05 -2.91757269E-06 -2.84405131E-04
 -2.29791129E-04  1.19460126E-03 -1.30554091E-04 -2.05685365E-04  8.63103176E-04
 -8.14581765E-05 -1.47546867E-04 -7.20559703E-06 -8.89436923E-06  6.69514939E-06
  4.17171744E-06 -3.97911683E-05 -2.91176580E-06 -2.84395556E-04 -2.29789914E-04
 -1.19459586E-03  1.30543619E-04 -2.05681463E-04 -8.63098823E-04  8.14495459E-05
 -1.47546474E-04 -7.20511213E-06  8.89434717E-06 -6.69476277E-06  4.17195025E-06
 -3.97909484E-05  4.33350288E-04  8.46060994E-04  5.86299547E-04  3.68142545E-09
 -1.54232819E-08  6.11758810E-05  2.10765132E-09 -9.67201245E-09  1.05043212E-04
  4.10593368E-06 -1.70948746E-10  5.85675679E-10  1.99850249E-06  4.84426772E-06
