10
Coordinates from ORCA-job EC E -342.332118408198
  C      -0.000000     -0.765144     -1.300818
  C       0.000000      0.765144     -1.300818
  H       0.773228     -1.206414     -1.927573
  H      -0.974382     -1.186101     -1.560722
  H       0.974382      1.186101     -1.560722
  H      -0.773228      1.206414     -1.927573
  C       0.000000     -0.000000      0.851743
  O      -0.284872      1.079052      0.072345
  O       0.284872     -1.079052      0.072345
  O       0.000000      0.000000      2.039803
10
Coordinates from ORCA-job EC E -342.332113489524
  C       0.000015     -0.765315     -1.300930
  C      -0.000021      0.765314     -1.300931
  H       0.773527     -1.206708     -1.927721
  H      -0.974609     -1.186438     -1.561100
  H       0.974608      1.186432     -1.561091
  H      -0.773526      1.206712     -1.927727
  C       0.000002      0.000001      0.852120
  O      -0.284737      1.079250      0.072503
  O       0.284739     -1.079248      0.072502
  O       0.000002      0.000000      2.040385
