%chk=D:\Work\Gaussian\GaussianField\MY-DMA\EMC.chk
# opt freq b3lyp/6-311+g(d,p)

EMC

0 1
 C                 -2.84658461   -0.28480937    0.00038990
 H                 -3.03586402    0.31384680    0.89237718
 H                 -3.03445242    0.31994493   -0.88772243
 H                 -3.47342036   -1.17364710   -0.00300952
 C                  1.80039908    0.43504209   -0.00048785
 H                  1.75184428    1.07560703    0.88288001
 H                  1.75311999    1.07461455   -0.88466185
 C                  3.03371212   -0.44334110    0.00082400
 H                  3.06096759   -1.08142099   -0.88504946
 H                  3.92903840    0.18402941    0.00103253
 H                  3.05980901   -1.08031942    0.88753173
 O                 -1.49479499   -0.77672152   -0.00011628
 O                  0.64535228   -0.44174624   -0.00096212
 C                 -0.54418663    0.16679337   -0.00024759
 O                 -0.73444257    1.35912211    0.00029728

