 Entering Gaussian System, Link 0=g16
 Initial command:
 /home/hush/g16/l1.exe "/home/hush/g16/Scratch/Gau-62883.inp" -scrdir="/home/hush/g16/Scratch/"
 Default CPUs for threads: 0
 Entering Link 1 = /home/hush/g16/l1.exe PID=     62885.
  
 Copyright (c) 1988,1990,1992,1993,1995,1998,2003,2009,2016,
            Gaussian, Inc.  All Rights Reserved.
  
 This is part of the Gaussian(R) 16 program.  It is based on
 the Gaussian(R) 09 system (copyright 2009, Gaussian, Inc.),
 the Gaussian(R) 03 system (copyright 2003, Gaussian, Inc.),
 the Gaussian(R) 98 system (copyright 1998, Gaussian, Inc.),
 the Gaussian(R) 94 system (copyright 1995, Gaussian, Inc.),
 the Gaussian 92(TM) system (copyright 1992, Gaussian, Inc.),
 the Gaussian 90(TM) system (copyright 1990, Gaussian, Inc.),
 the Gaussian 88(TM) system (copyright 1988, Gaussian, Inc.),
 the Gaussian 86(TM) system (copyright 1986, Carnegie Mellon
 University), and the Gaussian 82(TM) system (copyright 1983,
 Carnegie Mellon University). Gaussian is a federally registered
 trademark of Gaussian, Inc.
  
 This software contains proprietary and confidential information,
 including trade secrets, belonging to Gaussian, Inc.
  
 This software is provided under written license and may be
 used, copied, transmitted, or stored only in accord with that
 written license.
  
 The following legend is applicable only to US Government
 contracts under FAR:
  
                    RESTRICTED RIGHTS LEGEND
  
 Use, reproduction and disclosure by the US Government is
 subject to restrictions as set forth in subparagraphs (a)
 and (c) of the Commercial Computer Software - Restricted
 Rights clause in FAR 52.227-19.
  
 Gaussian, Inc.
 340 Quinnipiac St., Bldg. 40, Wallingford CT 06492
  
  
 ---------------------------------------------------------------
 Warning -- This program may not be used in any manner that
 competes with the business of Gaussian, Inc. or will provide
 assistance to any competitor of Gaussian, Inc.  The licensee
 of this program is prohibited from giving any competitor of
 Gaussian, Inc. access to this program.  By using this program,
 the user acknowledges that Gaussian, Inc. is engaged in the
 business of creating and licensing software in the field of
 computational chemistry and represents and warrants to the
 licensee that it is not a competitor of Gaussian, Inc. and that
 it will not use this program in any manner prohibited above.
 ---------------------------------------------------------------
  

 Cite this work as:
 Gaussian 16, Revision A.03,
 M. J. Frisch, G. W. Trucks, H. B. Schlegel, G. E. Scuseria, 
 M. A. Robb, J. R. Cheeseman, G. Scalmani, V. Barone, 
 G. A. Petersson, H. Nakatsuji, X. Li, M. Caricato, A. V. Marenich, 
 J. Bloino, B. G. Janesko, R. Gomperts, B. Mennucci, H. P. Hratchian, 
 J. V. Ortiz, A. F. Izmaylov, J. L. Sonnenberg, D. Williams-Young, 
 F. Ding, F. Lipparini, F. Egidi, J. Goings, B. Peng, A. Petrone, 
 T. Henderson, D. Ranasinghe, V. G. Zakrzewski, J. Gao, N. Rega, 
 G. Zheng, W. Liang, M. Hada, M. Ehara, K. Toyota, R. Fukuda, 
 J. Hasegawa, M. Ishida, T. Nakajima, Y. Honda, O. Kitao, H. Nakai, 
 T. Vreven, K. Throssell, J. A. Montgomery, Jr., J. E. Peralta, 
 F. Ogliaro, M. J. Bearpark, J. J. Heyd, E. N. Brothers, K. N. Kudin, 
 V. N. Staroverov, T. A. Keith, R. Kobayashi, J. Normand, 
 K. Raghavachari, A. P. Rendell, J. C. Burant, S. S. Iyengar, 
 J. Tomasi, M. Cossi, J. M. Millam, M. Klene, C. Adamo, R. Cammi, 
 J. W. Ochterski, R. L. Martin, K. Morokuma, O. Farkas, 
 J. B. Foresman, and D. J. Fox, Gaussian, Inc., Wallingford CT, 2016.
 
 ******************************************
 Gaussian 16:  ES64L-G16RevA.03 25-Dec-2016
                29-Jul-2026 
 ******************************************
 %mem=5GB
 %nprocshared=8
 Will use up to    8 processors via shared memory.
 %chk=FEC.chk
 -----------------------------
 # opt freq b3lyp/6-311+g(d,p)
 -----------------------------
 1/18=20,19=15,26=3,38=1/1,3;
 2/9=110,12=2,17=6,18=5,40=1/2;
 3/5=4,6=6,7=111,11=2,25=1,30=1,71=1,74=-5/1,2,3;
 4//1;
 5/5=2,38=5/2;
 6/7=2,8=2,9=2,10=2,28=1/1;
 7//1,2,3,16;
 1/18=20,19=15,26=3/3(2);
 2/9=110/2;
 99//99;
 2/9=110/2;
 3/5=4,6=6,7=111,11=2,25=1,30=1,71=1,74=-5/1,2,3;
 4/5=5,16=3,69=1/1;
 5/5=2,38=5/2;
 7//1,2,3,16;
 1/18=20,19=15,26=3/3(-5);
 2/9=110/2;
 6/7=2,8=2,9=2,10=2,19=2,28=1/1;
 99/9=1/99;
 ---
 FEC
 ---
 Symbolic Z-matrix:
 Charge =  0 Multiplicity = 1
 C                    -0.81945   0.61012   0.14283 
 C                     0.56495   0.86692  -0.42166 
 C                    -0.40975   2.74573   0.0809 
 H                    -1.29092  -0.25341  -0.27782 
 H                    -0.76727   0.48262   1.20392 
 H                     0.51778   0.9588   -1.48667 
 O                    -1.49364   1.81929  -0.18194 
 O                     0.89312   2.11625   0.17296 
 O                    -0.5841    3.98455   0.21688 
 F                     1.45005  -0.10594  -0.11731 
 

 GradGradGradGradGradGradGradGradGradGradGradGradGradGradGradGradGradGrad
 Berny optimization.
 Initialization pass.
                           ----------------------------
                           !    Initial Parameters    !
                           ! (Angstroms and Degrees)  !
 --------------------------                            --------------------------
 ! Name  Definition              Value          Derivative Info.                !
 --------------------------------------------------------------------------------
 ! R1    R(1,2)                  1.517          estimate D2E/DX2                !
 ! R2    R(1,4)                  1.07           estimate D2E/DX2                !
 ! R3    R(1,5)                  1.07           estimate D2E/DX2                !
 ! R4    R(1,7)                  1.422          estimate D2E/DX2                !
 ! R5    R(2,6)                  1.07           estimate D2E/DX2                !
 ! R6    R(2,8)                  1.422          estimate D2E/DX2                !
 ! R7    R(2,10)                 1.35           estimate D2E/DX2                !
 ! R8    R(3,7)                  1.4499         estimate D2E/DX2                !
 ! R9    R(3,8)                  1.4499         estimate D2E/DX2                !
 ! R10   R(3,9)                  1.2584         estimate D2E/DX2                !
 ! A1    A(2,1,4)              113.1072         estimate D2E/DX2                !
 ! A2    A(2,1,5)              110.1627         estimate D2E/DX2                !
 ! A3    A(2,1,7)              101.7556         estimate D2E/DX2                !
 ! A4    A(4,1,5)              108.3716         estimate D2E/DX2                !
 ! A5    A(4,1,7)              112.8026         estimate D2E/DX2                !
 ! A6    A(5,1,7)              110.5445         estimate D2E/DX2                !
 ! A7    A(1,2,6)              110.1627         estimate D2E/DX2                !
 ! A8    A(1,2,8)              101.7556         estimate D2E/DX2                !
 ! A9    A(1,2,10)             113.1072         estimate D2E/DX2                !
 ! A10   A(6,2,8)              110.5445         estimate D2E/DX2                !
 ! A11   A(6,2,10)             108.3716         estimate D2E/DX2                !
 ! A12   A(8,2,10)             112.8026         estimate D2E/DX2                !
 ! A13   A(7,3,8)              113.9448         estimate D2E/DX2                !
 ! A14   A(7,3,9)              123.0276         estimate D2E/DX2                !
 ! A15   A(8,3,9)              123.0276         estimate D2E/DX2                !
 ! A16   A(1,7,3)               98.4826         estimate D2E/DX2                !
 ! A17   A(2,8,3)               98.4826         estimate D2E/DX2                !
 ! D1    D(4,1,2,6)             56.4889         estimate D2E/DX2                !
 ! D2    D(4,1,2,8)            173.7642         estimate D2E/DX2                !
 ! D3    D(4,1,2,10)           -64.9584         estimate D2E/DX2                !
 ! D4    D(5,1,2,6)            177.9361         estimate D2E/DX2                !
 ! D5    D(5,1,2,8)            -64.7886         estimate D2E/DX2                !
 ! D6    D(5,1,2,10)            56.4889         estimate D2E/DX2                !
 ! D7    D(7,1,2,6)            -64.7886         estimate D2E/DX2                !
 ! D8    D(7,1,2,8)             52.4867         estimate D2E/DX2                !
 ! D9    D(7,1,2,10)           173.7642         estimate D2E/DX2                !
 ! D10   D(2,1,7,3)            -38.9548         estimate D2E/DX2                !
 ! D11   D(4,1,7,3)           -160.4438         estimate D2E/DX2                !
 ! D12   D(5,1,7,3)             78.0441         estimate D2E/DX2                !
 ! D13   D(1,2,8,3)            -38.9548         estimate D2E/DX2                !
 ! D14   D(6,2,8,3)             78.0441         estimate D2E/DX2                !
 ! D15   D(10,2,8,3)          -160.4438         estimate D2E/DX2                !
 ! D16   D(8,3,7,1)             15.8491         estimate D2E/DX2                !
 ! D17   D(9,3,7,1)           -164.1509         estimate D2E/DX2                !
 ! D18   D(7,3,8,2)             15.8491         estimate D2E/DX2                !
 ! D19   D(9,3,8,2)           -164.1509         estimate D2E/DX2                !
 --------------------------------------------------------------------------------
 Trust Radius=3.00D-01 FncErr=1.00D-07 GrdErr=1.00D-06 EigMax=2.50D+02 EigMin=1.00D-04
 Number of steps in this run=     56 maximum allowed number of steps=    100.
 GradGradGradGradGradGradGradGradGradGradGradGradGradGradGradGradGradGrad

                          Input orientation:                          
 ---------------------------------------------------------------------
 Center     Atomic      Atomic             Coordinates (Angstroms)
 Number     Number       Type             X           Y           Z
 ---------------------------------------------------------------------
      1          6           0       -0.819454    0.610115    0.142829
      2          6           0        0.564952    0.866919   -0.421663
      3          6           0       -0.409750    2.745730    0.080901
      4          1           0       -1.290922   -0.253410   -0.277816
      5          1           0       -0.767271    0.482616    1.203923
      6          1           0        0.517782    0.958803   -1.486666
      7          8           0       -1.493635    1.819291   -0.181942
      8          8           0        0.893118    2.116252    0.172961
      9          8           0       -0.584104    3.984553    0.216877
     10          9           0        1.450054   -0.105945   -0.117313
 ---------------------------------------------------------------------
                    Distance matrix (angstroms):
                    1          2          3          4          5
     1  C    0.000000
     2  C    1.516964   0.000000
     3  C    2.175441   2.175441   0.000000
     4  H    1.070000   2.172578   3.146424   0.000000
     5  H    1.070000   2.136595   2.551605   1.735366   0.000000
     6  H    2.136595   1.070000   2.551605   2.490419   3.019501
     7  O    1.422006   2.280846   1.449891   2.084796   2.057894
     8  O    2.280846   1.422006   1.449891   3.254002   2.547262
     9  O    3.383445   3.383445   1.258400   4.324886   3.642990
    10  F    2.393968   1.350000   3.410309   2.749629   2.647376
                    6          7          8          9         10
     6  H    0.000000
     7  O    2.547262   0.000000
     8  O    2.057894   2.431200   0.000000
     9  O    3.642990   2.382155   2.382155   0.000000
    10  F    1.969251   3.517957   2.309241   4.580574   0.000000
 Stoichiometry    C3H3FO3
 Framework group  C1[X(C3H3FO3)]
 Deg. of freedom    24
 Full point group                 C1      NOp   1
 Largest Abelian subgroup         C1      NOp   1
 Largest concise Abelian subgroup C1      NOp   1
                         Standard orientation:                         
 ---------------------------------------------------------------------
 Center     Atomic      Atomic             Coordinates (Angstroms)
 Number     Number       Type             X           Y           Z
 ---------------------------------------------------------------------
      1          6           0        0.539388    1.167105   -0.249516
      2          6           0        0.998642   -0.158169    0.328337
      3          6           0       -1.151093   -0.180013   -0.004385
      4          1           0        1.116596    1.998821    0.096866
      5          1           0        0.592036    1.141661   -1.317917
      6          1           0        0.980064   -0.120580    1.397515
      7          8           0       -0.814507    1.217853    0.182337
      8          8           0        0.000717   -1.047294   -0.157158
      9          8           0       -2.336157   -0.602465   -0.031415
     10          9           0        2.243250   -0.504244   -0.063687
 ---------------------------------------------------------------------
 Rotational constants (GHZ):           6.2498918           2.1569721           1.6753467
 Standard basis: 6-311+G(d,p) (5D, 7F)
 There are   179 symmetry adapted cartesian basis functions of A   symmetry.
 There are   172 symmetry adapted basis functions of A   symmetry.
   172 basis functions,   276 primitive gaussians,   179 cartesian basis functions
    27 alpha electrons       27 beta electrons
       nuclear repulsion energy       315.3503456422 Hartrees.
 NAtoms=   10 NActive=   10 NUniq=   10 SFac= 1.00D+00 NAtFMM=   60 NAOKFM=F Big=F
 Integral buffers will be    131072 words long.
 Raffenetti 2 integral format.
 Two-electron integral symmetry is turned on.
 One-electron integrals computed using PRISM.
 NBasis=   172 RedAO= T EigKep=  7.32D-05  NBF=   172
 NBsUse=   172 1.00D-06 EigRej= -1.00D+00 NBFU=   172
 ExpMin= 4.38D-02 ExpMax= 1.14D+04 ExpMxC= 1.72D+03 IAcc=3 IRadAn=         5 AccDes= 0.00D+00
 Harris functional with IExCor=  402 and IRadAn=       5 diagonalized for initial guess.
 HarFok:  IExCor=  402 AccDes= 0.00D+00 IRadAn=         5 IDoV= 1 UseB2=F ITyADJ=14
 ICtDFT=  3500011 ScaDFX=  1.000000  1.000000  1.000000  1.000000
 FoFCou: FMM=F IPFlag=           0 FMFlag=      100000 FMFlg1=           0
         NFxFlg=           0 DoJE=T BraDBF=F KetDBF=T FulRan=T
         wScrn=  0.000000 ICntrl=       500 IOpCl=  0 I1Cent=   200000004 NGrid=           0
         NMat0=    1 NMatS0=      1 NMatT0=    0 NMatD0=    1 NMtDS0=    0 NMtDT0=    0
 Petite list used in FoFCou.
 Keep R1 ints in memory in canonical form, NReq=118719167.
 Requested convergence on RMS density matrix=1.00D-08 within 128 cycles.
 Requested convergence on MAX density matrix=1.00D-06.
 Requested convergence on             energy=1.00D-06.
 No special actions if energy rises.
 SCF Done:  E(RB3LYP) =  -441.736746904     A.U. after   13 cycles
            NFock= 13  Conv=0.74D-08     -V/T= 2.0038

 **********************************************************************

            Population analysis using the SCF density.

 **********************************************************************

 Orbital symmetries:
       Occupied  (A) (A) (A) (A) (A) (A) (A) (A) (A) (A) (A) (A)
                 (A) (A) (A) (A) (A) (A) (A) (A) (A) (A) (A) (A)
                 (A) (A) (A)
       Virtual   (A) (A) (A) (A) (A) (A) (A) (A) (A) (A) (A) (A)
                 (A) (A) (A) (A) (A) (A) (A) (A) (A) (A) (A) (A)
                 (A) (A) (A) (A) (A) (A) (A) (A) (A) (A) (A) (A)
                 (A) (A) (A) (A) (A) (A) (A) (A) (A) (A) (A) (A)
                 (A) (A) (A) (A) (A) (A) (A) (A) (A) (A) (A) (A)
                 (A) (A) (A) (A) (A) (A) (A) (A) (A) (A) (A) (A)
                 (A) (A) (A) (A) (A) (A) (A) (A) (A) (A) (A) (A)
                 (A) (A) (A) (A) (A) (A) (A) (A) (A) (A) (A) (A)
                 (A) (A) (A) (A) (A) (A) (A) (A) (A) (A) (A) (A)
                 (A) (A) (A) (A) (A) (A) (A) (A) (A) (A) (A) (A)
                 (A) (A) (A) (A) (A) (A) (A) (A) (A) (A) (A) (A)
                 (A) (A) (A) (A) (A) (A) (A) (A) (A) (A) (A) (A)
                 (A)
 The electronic state is 1-A.
 Alpha  occ. eigenvalues --  -24.72668 -19.22785 -19.22599 -19.16019 -10.39915
 Alpha  occ. eigenvalues --  -10.35244 -10.27154  -1.27560  -1.17235  -1.08486
 Alpha  occ. eigenvalues --   -1.05229  -0.79744  -0.70127  -0.65522  -0.61082
 Alpha  occ. eigenvalues --   -0.58400  -0.53929  -0.52619  -0.49332  -0.47051
 Alpha  occ. eigenvalues --   -0.45817  -0.43968  -0.42937  -0.41742  -0.34827
 Alpha  occ. eigenvalues --   -0.34687  -0.32773
 Alpha virt. eigenvalues --   -0.05182  -0.01000  -0.00064   0.00998   0.02096
 Alpha virt. eigenvalues --    0.05131   0.05945   0.06530   0.07038   0.07519
 Alpha virt. eigenvalues --    0.08829   0.09791   0.10494   0.12301   0.13993
 Alpha virt. eigenvalues --    0.14812   0.17256   0.17936   0.18406   0.19456
 Alpha virt. eigenvalues --    0.20466   0.21485   0.21715   0.22292   0.25495
 Alpha virt. eigenvalues --    0.25794   0.26930   0.27879   0.28670   0.29344
 Alpha virt. eigenvalues --    0.30523   0.30702   0.31928   0.32719   0.33541
 Alpha virt. eigenvalues --    0.33839   0.35454   0.40496   0.42520   0.43806
 Alpha virt. eigenvalues --    0.47301   0.51845   0.56147   0.57134   0.59290
 Alpha virt. eigenvalues --    0.63711   0.64209   0.66206   0.71033   0.73956
 Alpha virt. eigenvalues --    0.79148   0.86566   0.89730   0.93126   0.95416
 Alpha virt. eigenvalues --    0.95745   1.03803   1.09456   1.09959   1.11184
 Alpha virt. eigenvalues --    1.12659   1.14977   1.16605   1.17896   1.24994
 Alpha virt. eigenvalues --    1.28489   1.30685   1.32753   1.36179   1.38512
 Alpha virt. eigenvalues --    1.41361   1.45774   1.49198   1.54129   1.56745
 Alpha virt. eigenvalues --    1.58755   1.59898   1.61725   1.64184   1.66949
 Alpha virt. eigenvalues --    1.69409   1.73241   1.76842   1.80268   1.85827
 Alpha virt. eigenvalues --    1.91512   1.95771   2.05409   2.08430   2.12636
 Alpha virt. eigenvalues --    2.20093   2.40437   2.46618   2.48609   2.51900
 Alpha virt. eigenvalues --    2.63842   2.67728   2.70081   2.75872   2.77839
 Alpha virt. eigenvalues --    2.78925   2.82850   2.83427   2.93436   2.94600
 Alpha virt. eigenvalues --    3.00764   3.05458   3.05858   3.11047   3.14171
 Alpha virt. eigenvalues --    3.27356   3.29654   3.33206   3.42832   3.51636
 Alpha virt. eigenvalues --    3.72959   3.75291   3.76550   3.82903   3.89602
 Alpha virt. eigenvalues --    3.95107   4.00297   4.03676   4.08526   4.21422
 Alpha virt. eigenvalues --    4.79124   4.94190   4.98677   5.01191   5.06948
 Alpha virt. eigenvalues --    5.10827   5.40262   5.43887   5.56730   5.74111
 Alpha virt. eigenvalues --    6.30809   6.31446   6.65775  23.61073  23.68181
 Alpha virt. eigenvalues --   23.84170  49.80860  49.82874  49.93737  66.75094
          Condensed to atoms (all electrons):
               1          2          3          4          5          6
     1  C    5.676994  -0.100146  -0.144749   0.384594   0.424145  -0.064940
     2  C   -0.100146   5.538975  -0.167675  -0.014127  -0.046186   0.432506
     3  C   -0.144749  -0.167675   5.314692   0.022792  -0.019159  -0.012789
     4  H    0.384594  -0.014127   0.022792   0.510341  -0.034019  -0.004235
     5  H    0.424145  -0.046186  -0.019159  -0.034019   0.510236   0.007165
     6  H   -0.064940   0.432506  -0.012789  -0.004235   0.007165   0.542254
     7  O    0.163852  -0.069997   0.120894  -0.049445  -0.034224   0.010194
     8  O   -0.102058   0.177419   0.145528   0.009331  -0.001839  -0.050727
     9  O    0.017841   0.009695   0.461008  -0.000749   0.003516   0.002756
    10  F   -0.065291   0.191254  -0.004067  -0.003898   0.002229  -0.047199
               7          8          9         10
     1  C    0.163852  -0.102058   0.017841  -0.065291
     2  C   -0.069997   0.177419   0.009695   0.191254
     3  C    0.120894   0.145528   0.461008  -0.004067
     4  H   -0.049445   0.009331  -0.000749  -0.003898
     5  H   -0.034224  -0.001839   0.003516   0.002229
     6  H    0.010194  -0.050727   0.002756  -0.047199
     7  O    8.124370  -0.089764  -0.083233   0.010427
     8  O   -0.089764   8.141448  -0.080638  -0.023244
     9  O   -0.083233  -0.080638   7.979064   0.000196
    10  F    0.010427  -0.023244   0.000196   9.095742
 Mulliken charges:
               1
     1  C   -0.190241
     2  C    0.048282
     3  C    0.283526
     4  H    0.179416
     5  H    0.188135
     6  H    0.185016
     7  O   -0.103074
     8  O   -0.125456
     9  O   -0.309455
    10  F   -0.156150
 Sum of Mulliken charges =  -0.00000
 Mulliken charges with hydrogens summed into heavy atoms:
               1
     1  C    0.177310
     2  C    0.233298
     3  C    0.283526
     7  O   -0.103074
     8  O   -0.125456
     9  O   -0.309455
    10  F   -0.156150
 Electronic spatial extent (au):  <R**2>=            655.8442
 Charge=             -0.0000 electrons
 Dipole moment (field-independent basis, Debye):
    X=              3.0367    Y=              2.2754    Z=              0.4779  Tot=              3.8246
 Quadrupole moment (field-independent basis, Debye-Ang):
   XX=            -49.3292   YY=            -40.4444   ZZ=            -36.4045
   XY=              1.6006   XZ=              1.1878   YZ=             -1.6063
 Traceless Quadrupole moment (field-independent basis, Debye-Ang):
   XX=             -7.2699   YY=              1.6150   ZZ=              5.6549
   XY=              1.6006   XZ=              1.1878   YZ=             -1.6063
 Octapole moment (field-independent basis, Debye-Ang**2):
  XXX=             19.5593  YYY=              1.4406  ZZZ=              0.1354  XYY=              9.1871
  XXY=              5.6769  XXZ=              1.3191  XZZ=              3.6630  YZZ=             -0.8574
  YYZ=             -0.5359  XYZ=              0.0593
 Hexadecapole moment (field-independent basis, Debye-Ang**3):
 XXXX=           -556.1550 YYYY=           -200.2395 ZZZZ=            -51.8393 XXXY=            -10.9072
 XXXZ=             -0.0350 YYYX=             -0.0962 YYYZ=              0.3704 ZZZX=              0.5615
 ZZZY=             -1.2265 XXYY=           -118.4026 XXZZ=            -87.4322 YYZZ=            -43.1350
 XXYZ=             -0.1454 YYXZ=              0.6399 ZZXY=             -1.5546
 N-N= 3.153503456422D+02 E-N=-1.670911019150D+03  KE= 4.400518442693D+02
 Calling FoFJK, ICntrl=      2127 FMM=F ISym2X=0 I1Cent= 0 IOpClX= 0 NMat=1 NMatS=1 NMatT=0.
 ***** Axes restored to original set *****
 -------------------------------------------------------------------
 Center     Atomic                   Forces (Hartrees/Bohr)
 Number     Number              X              Y              Z
 -------------------------------------------------------------------
      1        6           0.005151589   -0.020336483   -0.011385992
      2        6          -0.008978577   -0.017713322    0.011115477
      3        6          -0.018807820    0.106379663    0.012486564
      4        1          -0.009662403   -0.006586768   -0.010359270
      5        1           0.001571224   -0.001825212    0.016982767
      6        1           0.004585629    0.002735259   -0.017214623
      7        8           0.059370905    0.034179996    0.017299644
      8        8          -0.057858292    0.013392254   -0.014465273
      9        8           0.016611117   -0.111475430   -0.012739518
     10        9           0.008016628    0.001250044    0.008280225
 -------------------------------------------------------------------
 Cartesian Forces:  Max     0.111475430 RMS     0.034402090

 GradGradGradGradGradGradGradGradGradGradGradGradGradGradGradGradGradGrad
 Berny optimization.
 FormGI is forming the generalized inverse of G from B-inverse, IUseBI=4.
 Internal  Forces:  Max     0.113419253 RMS     0.021044375
 Search for a local minimum.
 Step number   1 out of a maximum of   56
 All quantities printed in internal units (Hartrees-Bohrs-Radians)
 Mixed Optimization -- RFO/linear search
 Second derivative matrix not updated -- first step.
 ITU=  0
     Eigenvalues ---    0.01032   0.01169   0.01421   0.05381   0.06163
     Eigenvalues ---    0.06513   0.06727   0.10112   0.10738   0.11340
     Eigenvalues ---    0.15670   0.22203   0.22681   0.25000   0.29047
     Eigenvalues ---    0.35461   0.37018   0.37230   0.37230   0.37230
     Eigenvalues ---    0.40447   0.40999   0.55021   0.80209
 RFO step:  Lambda=-4.37009734D-02 EMin= 1.03181904D-02
 Linear search not attempted -- first point.
 Maximum step size (   0.300) exceeded in Quadratic search.
    -- Step size scaled by   0.995
 Iteration  1 RMS(Cart)=  0.05250827 RMS(Int)=  0.00234346
 Iteration  2 RMS(Cart)=  0.00244722 RMS(Int)=  0.00112636
 Iteration  3 RMS(Cart)=  0.00000181 RMS(Int)=  0.00112636
 Iteration  4 RMS(Cart)=  0.00000000 RMS(Int)=  0.00112636
 Variable       Old X    -DE/DX   Delta X   Delta X   Delta X     New X
                                 (Linear)    (Quad)   (Total)
    R1        2.86665  -0.00990   0.00000  -0.01720  -0.01721   2.84943
    R2        2.02201   0.01365   0.00000   0.03263   0.03263   2.05464
    R3        2.02201   0.01714   0.00000   0.04098   0.04098   2.06298
    R4        2.68720   0.01131   0.00000   0.03504   0.03620   2.72340
    R5        2.02201   0.01717   0.00000   0.04105   0.04105   2.06306
    R6        2.68720   0.00527   0.00000   0.02086   0.02159   2.70879
    R7        2.55113   0.00622   0.00000   0.01042   0.01042   2.56155
    R8        2.73990  -0.03679   0.00000  -0.10107  -0.10189   2.63801
    R9        2.73990  -0.03475   0.00000  -0.09716  -0.09827   2.64163
   R10        2.37803  -0.11342   0.00000  -0.13340  -0.13340   2.24463
    A1        1.97409   0.00422   0.00000   0.03186   0.03277   2.00687
    A2        1.92270   0.00535   0.00000  -0.00303  -0.00507   1.91763
    A3        1.77597  -0.01895   0.00000  -0.05087  -0.05138   1.72459
    A4        1.89144  -0.00017   0.00000   0.01993   0.01972   1.91116
    A5        1.96878   0.01268   0.00000   0.02451   0.02390   1.99267
    A6        1.92936  -0.00386   0.00000  -0.02730  -0.02692   1.90244
    A7        1.92270   0.01034   0.00000   0.03650   0.03451   1.95721
    A8        1.77597  -0.01081   0.00000  -0.01983  -0.01975   1.75622
    A9        1.97409   0.00262   0.00000   0.02158   0.02221   1.99630
   A10        1.92936  -0.00792   0.00000  -0.04240  -0.04081   1.88856
   A11        1.89144  -0.00093   0.00000   0.01383   0.01244   1.90388
   A12        1.96878   0.00641   0.00000  -0.01183  -0.01282   1.95596
   A13        1.98871  -0.01855   0.00000  -0.08377  -0.08557   1.90314
   A14        2.14724   0.01026   0.00000   0.04523   0.04610   2.19333
   A15        2.14724   0.00829   0.00000   0.03854   0.03940   2.18663
   A16        1.71885   0.02699   0.00000   0.11942   0.12026   1.83911
   A17        1.71885   0.02343   0.00000   0.10344   0.10358   1.82242
    D1        0.98592  -0.00249   0.00000  -0.06583  -0.06539   0.92053
    D2        3.03276  -0.01282   0.00000  -0.10930  -0.10852   2.92423
    D3       -1.13374  -0.01059   0.00000  -0.12502  -0.12539  -1.25913
    D4        3.10557   0.00409   0.00000  -0.02033  -0.01981   3.08576
    D5       -1.13077  -0.00624   0.00000  -0.06380  -0.06294  -1.19371
    D6        0.98592  -0.00401   0.00000  -0.07952  -0.07981   0.90611
    D7       -1.13077  -0.00794   0.00000  -0.07938  -0.07736  -1.20814
    D8        0.91607  -0.01827   0.00000  -0.12285  -0.12050   0.79557
    D9        3.03276  -0.01604   0.00000  -0.13857  -0.13736   2.89539
   D10       -0.67989  -0.00300   0.00000   0.03001   0.03103  -0.64886
   D11       -2.80027  -0.00264   0.00000   0.01120   0.01246  -2.78781
   D12        1.36213  -0.00847   0.00000  -0.01185  -0.00984   1.35228
   D13       -0.67989  -0.00557   0.00000   0.02081   0.02322  -0.65667
   D14        1.36213  -0.00274   0.00000   0.03431   0.03602   1.39815
   D15       -2.80027  -0.00521   0.00000   0.01325   0.01512  -2.78516
   D16        0.27662   0.00161   0.00000  -0.01045  -0.01036   0.26626
   D17       -2.86497   0.00051   0.00000  -0.02357  -0.02307  -2.88804
   D18        0.27662   0.00064   0.00000  -0.01409  -0.01310   0.26351
   D19       -2.86497   0.00174   0.00000  -0.00097  -0.00045  -2.86542
         Item               Value     Threshold  Converged?
 Maximum Force            0.113419     0.000450     NO 
 RMS     Force            0.021044     0.000300     NO 
 Maximum Displacement     0.139657     0.001800     NO 
 RMS     Displacement     0.052269     0.001200     NO 
 Predicted change in Energy=-2.551166D-02
 GradGradGradGradGradGradGradGradGradGradGradGradGradGradGradGradGradGrad

                          Input orientation:                          
 ---------------------------------------------------------------------
 Center     Atomic      Atomic             Coordinates (Angstroms)
 Number     Number       Type             X           Y           Z
 ---------------------------------------------------------------------
      1          6           0       -0.822855    0.578198    0.137079
      2          6           0        0.550322    0.843816   -0.426351
      3          6           0       -0.412360    2.796669    0.089610
      4          1           0       -1.348052   -0.262244   -0.310107
      5          1           0       -0.759358    0.435123    1.217482
      6          1           0        0.537753    0.937330   -1.513989
      7          8           0       -1.423655    1.860228   -0.131978
      8          8           0        0.819215    2.136681    0.131247
      9          8           0       -0.567427    3.968153    0.209899
     10          9           0        1.487187   -0.069030   -0.070801
 ---------------------------------------------------------------------
                    Distance matrix (angstroms):
                    1          2          3          4          5
     1  C    0.000000
     2  C    1.507854   0.000000
     3  C    2.256629   2.237545   0.000000
     4  H    1.087267   2.200161   3.223700   0.000000
     5  H    1.091683   2.141140   2.639963   1.779441   0.000000
     6  H    2.169391   1.091723   2.632752   2.538617   3.065231
     7  O    1.441164   2.239717   1.395972   2.131275   2.072018
     8  O    2.263912   1.433429   1.397890   3.262925   2.562635
     9  O    3.400345   3.378707   1.187809   4.333133   3.678908
    10  F    2.407990   1.355515   3.441837   2.851874   2.638334
                    6          7          8          9         10
     6  H    0.000000
     7  O    2.570762   0.000000
     8  O    2.055350   2.275121   0.000000
     9  O    3.657745   2.300729   2.298532   0.000000
    10  F    1.999244   3.492675   2.313476   4.538621   0.000000
 Stoichiometry    C3H3FO3
 Framework group  C1[X(C3H3FO3)]
 Deg. of freedom    24
 Full point group                 C1      NOp   1
 Largest Abelian subgroup         C1      NOp   1
 Largest concise Abelian subgroup C1      NOp   1
                         Standard orientation:                         
 ---------------------------------------------------------------------
 Center     Atomic      Atomic             Coordinates (Angstroms)
 Number     Number       Type             X           Y           Z
 ---------------------------------------------------------------------
      1          6           0        0.585043    1.194950   -0.213171
      2          6           0        1.017593   -0.139615    0.339513
      3          6           0       -1.191675   -0.181789   -0.012575
      4          1           0        1.124126    2.052337    0.182336
      5          1           0        0.660558    1.187687   -1.302216
      6          1           0        1.009794   -0.154944    1.431101
      7          8           0       -0.805907    1.148538    0.161070
      8          8           0       -0.047815   -0.977030   -0.127778
      9          8           0       -2.310264   -0.580122   -0.043870
     10          9           0        2.227961   -0.561939   -0.101023
 ---------------------------------------------------------------------
 Rotational constants (GHZ):           6.5124833           2.1677939           1.6985804
 Standard basis: 6-311+G(d,p) (5D, 7F)
 There are   179 symmetry adapted cartesian basis functions of A   symmetry.
 There are   172 symmetry adapted basis functions of A   symmetry.
   172 basis functions,   276 primitive gaussians,   179 cartesian basis functions
    27 alpha electrons       27 beta electrons
       nuclear repulsion energy       318.6239800998 Hartrees.
 NAtoms=   10 NActive=   10 NUniq=   10 SFac= 1.00D+00 NAtFMM=   60 NAOKFM=F Big=F
 Integral buffers will be    131072 words long.
 Raffenetti 2 integral format.
 Two-electron integral symmetry is turned on.
 One-electron integrals computed using PRISM.
 NBasis=   172 RedAO= T EigKep=  7.46D-05  NBF=   172
 NBsUse=   172 1.00D-06 EigRej= -1.00D+00 NBFU=   172
 Initial guess from the checkpoint file:  "FEC.chk"
 B after Tr=    -0.000000   -0.000000    0.000000
         Rot=    0.999968   -0.005491   -0.000007    0.005734 Ang=  -0.91 deg.
 ExpMin= 4.38D-02 ExpMax= 1.14D+04 ExpMxC= 1.72D+03 IAcc=2 IRadAn=         4 AccDes= 0.00D+00
 Harris functional with IExCor=  402 and IRadAn=       4 diagonalized for initial guess.
 HarFok:  IExCor=  402 AccDes= 0.00D+00 IRadAn=         4 IDoV= 1 UseB2=F ITyADJ=14
 ICtDFT=  3500011 ScaDFX=  1.000000  1.000000  1.000000  1.000000
 FoFCou: FMM=F IPFlag=           0 FMFlag=      100000 FMFlg1=           0
         NFxFlg=           0 DoJE=T BraDBF=F KetDBF=T FulRan=T
         wScrn=  0.000000 ICntrl=       500 IOpCl=  0 I1Cent=   200000004 NGrid=           0
         NMat0=    1 NMatS0=      1 NMatT0=    0 NMatD0=    1 NMtDS0=    0 NMtDT0=    0
 Petite list used in FoFCou.
 Keep R1 ints in memory in canonical form, NReq=118719167.
 Requested convergence on RMS density matrix=1.00D-08 within 128 cycles.
 Requested convergence on MAX density matrix=1.00D-06.
 Requested convergence on             energy=1.00D-06.
 No special actions if energy rises.
 SCF Done:  E(RB3LYP) =  -441.763934919     A.U. after   11 cycles
            NFock= 11  Conv=0.96D-08     -V/T= 2.0033
 Calling FoFJK, ICntrl=      2127 FMM=F ISym2X=0 I1Cent= 0 IOpClX= 0 NMat=1 NMatS=1 NMatT=0.
 ***** Axes restored to original set *****
 -------------------------------------------------------------------
 Center     Atomic                   Forces (Hartrees/Bohr)
 Number     Number              X              Y              Z
 -------------------------------------------------------------------
      1        6           0.003625813   -0.003503879    0.000451604
      2        6          -0.002333965   -0.002191838   -0.000380811
      3        6          -0.000190721   -0.001477894    0.000357728
      4        1          -0.004992776    0.005868907   -0.005331466
      5        1           0.000166750   -0.002380641    0.001529472
      6        1           0.003218412   -0.002711884   -0.001922478
      7        8           0.011389965    0.010390260    0.008498875
      8        8          -0.013959233    0.005254188   -0.007131102
      9        8           0.001162202   -0.014283972   -0.001443212
     10        9           0.001913553    0.005036753    0.005371389
 -------------------------------------------------------------------
 Cartesian Forces:  Max     0.014283972 RMS     0.005785611

 GradGradGradGradGradGradGradGradGradGradGradGradGradGradGradGradGradGrad
 Berny optimization.
 Using GEDIIS/GDIIS optimizer.
 FormGI is forming the generalized inverse of G from B-inverse, IUseBI=4.
 Internal  Forces:  Max     0.014385536 RMS     0.004142240
 Search for a local minimum.
 Step number   2 out of a maximum of   56
 All quantities printed in internal units (Hartrees-Bohrs-Radians)
 Mixed Optimization -- RFO/linear search
 Update second derivatives using D2CorX and points    1    2
 DE= -2.72D-02 DEPred=-2.55D-02 R= 1.07D+00
 TightC=F SS=  1.41D+00  RLast= 4.20D-01 DXNew= 5.0454D-01 1.2589D+00
 Trust test= 1.07D+00 RLast= 4.20D-01 DXMaxT set to 5.05D-01
 ITU=  1  0
 Use linear search instead of GDIIS.
     Eigenvalues ---    0.01033   0.01150   0.01401   0.05209   0.06067
     Eigenvalues ---    0.06225   0.06583   0.10279   0.10721   0.11243
     Eigenvalues ---    0.15726   0.22591   0.24449   0.25114   0.29306
     Eigenvalues ---    0.32829   0.36730   0.37222   0.37230   0.37546
     Eigenvalues ---    0.40331   0.41371   0.55069   0.77291
 RFO step:  Lambda=-5.48933990D-03 EMin= 1.03280747D-02
 Quartic linear search produced a step of  0.21474.
 Iteration  1 RMS(Cart)=  0.06484647 RMS(Int)=  0.00359606
 Iteration  2 RMS(Cart)=  0.00352437 RMS(Int)=  0.00108634
 Iteration  3 RMS(Cart)=  0.00001013 RMS(Int)=  0.00108631
 Iteration  4 RMS(Cart)=  0.00000000 RMS(Int)=  0.00108631
 Variable       Old X    -DE/DX   Delta X   Delta X   Delta X     New X
                                 (Linear)    (Quad)   (Total)
    R1        2.84943  -0.00047  -0.00370   0.01089   0.00663   2.85606
    R2        2.05464   0.00007   0.00701  -0.00698   0.00003   2.05467
    R3        2.06298   0.00184   0.00880  -0.00322   0.00558   2.06856
    R4        2.72340  -0.00148   0.00777  -0.00827  -0.00027   2.72313
    R5        2.06306   0.00165   0.00882  -0.00384   0.00498   2.06803
    R6        2.70879  -0.00337   0.00464  -0.00913  -0.00425   2.70454
    R7        2.56155  -0.00066   0.00224  -0.00357  -0.00133   2.56022
    R8        2.63801  -0.01356  -0.02188  -0.02837  -0.05020   2.58781
    R9        2.64163  -0.01163  -0.02110  -0.02237  -0.04339   2.59823
   R10        2.24463  -0.01439  -0.02865   0.00499  -0.02366   2.22098
    A1        2.00687   0.00285   0.00704   0.01302   0.02174   2.02861
    A2        1.91763   0.00002  -0.00109   0.00080  -0.00099   1.91664
    A3        1.72459  -0.00125  -0.01103   0.03677   0.02287   1.74745
    A4        1.91116   0.00081   0.00424   0.00996   0.01335   1.92451
    A5        1.99267  -0.00121   0.00513  -0.05878  -0.05341   1.93927
    A6        1.90244  -0.00157  -0.00578  -0.00037  -0.00491   1.89753
    A7        1.95721   0.00255   0.00741   0.01356   0.02048   1.97769
    A8        1.75622  -0.00319  -0.00424   0.01632   0.00911   1.76533
    A9        1.99630   0.00263   0.00477   0.00017   0.00607   2.00236
   A10        1.88856  -0.00105  -0.00876   0.00702  -0.00022   1.88834
   A11        1.90388  -0.00048   0.00267  -0.00056   0.00119   1.90507
   A12        1.95596  -0.00080  -0.00275  -0.03611  -0.03856   1.91739
   A13        1.90314   0.00212  -0.01838   0.02958   0.00971   1.91285
   A14        2.19333  -0.00186   0.00990  -0.01925  -0.00868   2.18465
   A15        2.18663  -0.00025   0.00846  -0.01009  -0.00096   2.18567
   A16        1.83911   0.00153   0.02582   0.00294   0.02750   1.86661
   A17        1.82242   0.00299   0.02224   0.01684   0.03773   1.86015
    D1        0.92053  -0.00341  -0.01404  -0.16369  -0.17756   0.74297
    D2        2.92423  -0.00532  -0.02330  -0.14154  -0.16438   2.75985
    D3       -1.25913  -0.00703  -0.02693  -0.17439  -0.20195  -1.46108
    D4        3.08576  -0.00018  -0.00425  -0.13997  -0.14342   2.94234
    D5       -1.19371  -0.00208  -0.01352  -0.11782  -0.13025  -1.32396
    D6        0.90611  -0.00379  -0.01714  -0.15068  -0.16781   0.73829
    D7       -1.20814  -0.00250  -0.01661  -0.12304  -0.13850  -1.34664
    D8        0.79557  -0.00441  -0.02588  -0.10088  -0.12533   0.67024
    D9        2.89539  -0.00612  -0.02950  -0.13374  -0.16290   2.73250
   D10       -0.64886   0.00153   0.00666   0.08066   0.08883  -0.56003
   D11       -2.78781  -0.00051   0.00268   0.06957   0.07437  -2.71344
   D12        1.35228   0.00047  -0.00211   0.09798   0.09643   1.44871
   D13       -0.65667   0.00154   0.00499   0.08917   0.09563  -0.56105
   D14        1.39815   0.00250   0.00774   0.11474   0.12294   1.52109
   D15       -2.78516   0.00072   0.00325   0.09637   0.10124  -2.68391
   D16        0.26626  -0.00054  -0.00222  -0.03085  -0.03351   0.23276
   D17       -2.88804  -0.00001  -0.00495  -0.01085  -0.01649  -2.90453
   D18        0.26351   0.00033  -0.00281  -0.03361  -0.03724   0.22627
   D19       -2.86542  -0.00020  -0.00010  -0.05342  -0.05421  -2.91963
         Item               Value     Threshold  Converged?
 Maximum Force            0.014386     0.000450     NO 
 RMS     Force            0.004142     0.000300     NO 
 Maximum Displacement     0.174619     0.001800     NO 
 RMS     Displacement     0.064933     0.001200     NO 
 Predicted change in Energy=-5.684155D-03
 GradGradGradGradGradGradGradGradGradGradGradGradGradGradGradGradGradGrad

                          Input orientation:                          
 ---------------------------------------------------------------------
 Center     Atomic      Atomic             Coordinates (Angstroms)
 Number     Number       Type             X           Y           Z
 ---------------------------------------------------------------------
      1          6           0       -0.823311    0.576395    0.132674
      2          6           0        0.552609    0.835185   -0.436608
      3          6           0       -0.414232    2.797456    0.089100
      4          1           0       -1.410682   -0.193804   -0.361262
      5          1           0       -0.748073    0.366943    1.204445
      6          1           0        0.571979    0.854975   -1.530613
      7          8           0       -1.419039    1.876592   -0.043774
      8          8           0        0.803749    2.161516    0.038843
      9          8           0       -0.569970    3.953908    0.229362
     10          9           0        1.517740   -0.004242    0.009926
 ---------------------------------------------------------------------
                    Distance matrix (angstroms):
                    1          2          3          4          5
     1  C    0.000000
     2  C    1.511360   0.000000
     3  C    2.258840   2.249812   0.000000
     4  H    1.087282   2.217883   3.184866   0.000000
     5  H    1.094634   2.145711   2.694965   1.790231   0.000000
     6  H    2.188827   1.094356   2.714648   2.529479   3.075915
     7  O    1.441020   2.264120   1.369409   2.094614   2.070577
     8  O    2.273486   1.431181   1.374926   3.257502   2.643345
     9  O    3.388381   3.380848   1.175291   4.273072   3.721401
    10  F    2.415104   1.354809   3.404158   2.957933   2.588157
                    6          7          8          9         10
     6  H    0.000000
     7  O    2.686735   0.000000
     8  O    2.055227   2.242497   0.000000
     9  O    3.742318   2.260700   2.266290   0.000000
    10  F    2.001494   3.487849   2.280597   4.480361   0.000000
 Stoichiometry    C3H3FO3
 Framework group  C1[X(C3H3FO3)]
 Deg. of freedom    24
 Full point group                 C1      NOp   1
 Largest Abelian subgroup         C1      NOp   1
 Largest concise Abelian subgroup C1      NOp   1
                         Standard orientation:                         
 ---------------------------------------------------------------------
 Center     Atomic      Atomic             Coordinates (Angstroms)
 Number     Number       Type             X           Y           Z
 ---------------------------------------------------------------------
      1          6           0        0.580140    1.217674   -0.164520
      2          6           0        1.038055   -0.123209    0.361367
      3          6           0       -1.180037   -0.189456   -0.009218
      4          1           0        1.017461    2.093933    0.307819
      5          1           0        0.724111    1.259830   -1.248826
      6          1           0        1.106998   -0.159720    1.452938
      7          8           0       -0.831432    1.129324    0.111520
      8          8           0       -0.045260   -0.964906   -0.046374
      9          8           0       -2.281021   -0.595330   -0.075629
     10          9           0        2.198244   -0.575201   -0.172649
 ---------------------------------------------------------------------
 Rotational constants (GHZ):           6.4778932           2.2043370           1.7178361
 Standard basis: 6-311+G(d,p) (5D, 7F)
 There are   179 symmetry adapted cartesian basis functions of A   symmetry.
 There are   172 symmetry adapted basis functions of A   symmetry.
   172 basis functions,   276 primitive gaussians,   179 cartesian basis functions
    27 alpha electrons       27 beta electrons
       nuclear repulsion energy       320.1930473696 Hartrees.
 NAtoms=   10 NActive=   10 NUniq=   10 SFac= 1.00D+00 NAtFMM=   60 NAOKFM=F Big=F
 Integral buffers will be    131072 words long.
 Raffenetti 2 integral format.
 Two-electron integral symmetry is turned on.
 One-electron integrals computed using PRISM.
 NBasis=   172 RedAO= T EigKep=  7.72D-05  NBF=   172
 NBsUse=   172 1.00D-06 EigRej= -1.00D+00 NBFU=   172
 Initial guess from the checkpoint file:  "FEC.chk"
 B after Tr=     0.000000    0.000000   -0.000000
         Rot=    0.999993   -0.001958   -0.000634   -0.003081 Ang=  -0.42 deg.
 ExpMin= 4.38D-02 ExpMax= 1.14D+04 ExpMxC= 1.72D+03 IAcc=2 IRadAn=         4 AccDes= 0.00D+00
 Harris functional with IExCor=  402 and IRadAn=       4 diagonalized for initial guess.
 HarFok:  IExCor=  402 AccDes= 0.00D+00 IRadAn=         4 IDoV= 1 UseB2=F ITyADJ=14
 ICtDFT=  3500011 ScaDFX=  1.000000  1.000000  1.000000  1.000000
 FoFCou: FMM=F IPFlag=           0 FMFlag=      100000 FMFlg1=           0
         NFxFlg=           0 DoJE=T BraDBF=F KetDBF=T FulRan=T
         wScrn=  0.000000 ICntrl=       500 IOpCl=  0 I1Cent=   200000004 NGrid=           0
         NMat0=    1 NMatS0=      1 NMatT0=    0 NMatD0=    1 NMtDS0=    0 NMtDT0=    0
 Petite list used in FoFCou.
 Keep R1 ints in memory in canonical form, NReq=118719167.
 Requested convergence on RMS density matrix=1.00D-08 within 128 cycles.
 Requested convergence on MAX density matrix=1.00D-06.
 Requested convergence on             energy=1.00D-06.
 No special actions if energy rises.
 SCF Done:  E(RB3LYP) =  -441.769641715     A.U. after   11 cycles
            NFock= 11  Conv=0.91D-08     -V/T= 2.0030
 Calling FoFJK, ICntrl=      2127 FMM=F ISym2X=0 I1Cent= 0 IOpClX= 0 NMat=1 NMatS=1 NMatT=0.
 ***** Axes restored to original set *****
 -------------------------------------------------------------------
 Center     Atomic                   Forces (Hartrees/Bohr)
 Number     Number              X              Y              Z
 -------------------------------------------------------------------
      1        6          -0.001270454   -0.001138117    0.003893762
      2        6           0.000735392    0.004462383   -0.003433946
      3        6           0.001151339   -0.012889001    0.001527076
      4        1          -0.000577843    0.002697318   -0.003081174
      5        1           0.000089285   -0.002471033   -0.000578926
      6        1           0.002502785   -0.002971113    0.000246398
      7        8           0.002140902   -0.001185345    0.002727573
      8        8          -0.002872647   -0.001562001   -0.005450294
      9        8          -0.001524301    0.014938968    0.000810433
     10        9          -0.000374459    0.000117940    0.003339098
 -------------------------------------------------------------------
 Cartesian Forces:  Max     0.014938968 RMS     0.004282084

 GradGradGradGradGradGradGradGradGradGradGradGradGradGradGradGradGradGrad
 Berny optimization.
 Using GEDIIS/GDIIS optimizer.
 FormGI is forming the generalized inverse of G from B-inverse, IUseBI=4.
 Internal  Forces:  Max     0.014998214 RMS     0.002565658
 Search for a local minimum.
 Step number   3 out of a maximum of   56
 All quantities printed in internal units (Hartrees-Bohrs-Radians)
 Mixed Optimization -- RFO/linear search
 Update second derivatives using D2CorX and points    2    3
 DE= -5.71D-03 DEPred=-5.68D-03 R= 1.00D+00
 TightC=F SS=  1.41D+00  RLast= 5.50D-01 DXNew= 8.4853D-01 1.6511D+00
 Trust test= 1.00D+00 RLast= 5.50D-01 DXMaxT set to 8.49D-01
 ITU=  1  1  0
 Use linear search instead of GDIIS.
     Eigenvalues ---    0.00764   0.01090   0.01367   0.04979   0.05907
     Eigenvalues ---    0.06102   0.06592   0.10620   0.10975   0.11424
     Eigenvalues ---    0.16315   0.22721   0.24417   0.25142   0.29437
     Eigenvalues ---    0.34869   0.36834   0.37223   0.37231   0.37558
     Eigenvalues ---    0.40283   0.41391   0.55105   0.90347
 RFO step:  Lambda=-4.00268354D-03 EMin= 7.63954706D-03
 Quartic linear search produced a step of  0.63527.
 Iteration  1 RMS(Cart)=  0.07907857 RMS(Int)=  0.00884512
 Iteration  2 RMS(Cart)=  0.00713892 RMS(Int)=  0.00209045
 Iteration  3 RMS(Cart)=  0.00004973 RMS(Int)=  0.00208997
 Iteration  4 RMS(Cart)=  0.00000002 RMS(Int)=  0.00208997
 Variable       Old X    -DE/DX   Delta X   Delta X   Delta X     New X
                                 (Linear)    (Quad)   (Total)
    R1        2.85606   0.00148   0.00421   0.01024   0.01284   2.86889
    R2        2.05467  -0.00020   0.00002  -0.00107  -0.00105   2.05361
    R3        2.06856  -0.00009   0.00354  -0.00268   0.00086   2.06942
    R4        2.72313  -0.00063  -0.00017  -0.00187  -0.00192   2.72121
    R5        2.06803  -0.00026   0.00316  -0.00313   0.00003   2.06806
    R6        2.70454  -0.00199  -0.00270  -0.00264  -0.00586   2.69868
    R7        2.56022   0.00076  -0.00085   0.00247   0.00162   2.56184
    R8        2.58781   0.00015  -0.03189   0.01417  -0.01645   2.57136
    R9        2.59823  -0.00004  -0.02757   0.01266  -0.01397   2.58427
   R10        2.22098   0.01500  -0.01503   0.03683   0.02180   2.24278
    A1        2.02861  -0.00062   0.01381  -0.02532  -0.00909   2.01952
    A2        1.91664   0.00012  -0.00063   0.00262   0.00185   1.91849
    A3        1.74745  -0.00018   0.01453   0.01505   0.02352   1.77098
    A4        1.92451   0.00059   0.00848   0.00129   0.00894   1.93346
    A5        1.93927  -0.00010  -0.03393  -0.00756  -0.04013   1.89914
    A6        1.89753   0.00015  -0.00312   0.01751   0.01663   1.91416
    A7        1.97769   0.00171   0.01301   0.00969   0.02286   2.00055
    A8        1.76533  -0.00064   0.00579   0.01952   0.01818   1.78351
    A9        2.00236  -0.00198   0.00385  -0.03086  -0.02488   1.97749
   A10        1.88834  -0.00006  -0.00014   0.01419   0.01626   1.90461
   A11        1.90507   0.00010   0.00075  -0.00868  -0.00863   1.89644
   A12        1.91739   0.00094  -0.02450   0.00075  -0.02215   1.89524
   A13        1.91285  -0.00194   0.00617  -0.00825  -0.00633   1.90652
   A14        2.18465   0.00147  -0.00551   0.00869   0.00066   2.18531
   A15        2.18567   0.00047  -0.00061   0.00016  -0.00267   2.18300
   A16        1.86661   0.00129   0.01747   0.01396   0.02939   1.89600
   A17        1.86015   0.00230   0.02397   0.02431   0.04438   1.90454
    D1        0.74297  -0.00221  -0.11280  -0.11993  -0.23273   0.51024
    D2        2.75985  -0.00193  -0.10443  -0.08807  -0.19211   2.56774
    D3       -1.46108  -0.00213  -0.12829  -0.08942  -0.21891  -1.67999
    D4        2.94234  -0.00180  -0.09111  -0.13622  -0.22616   2.71618
    D5       -1.32396  -0.00151  -0.08274  -0.10436  -0.18554  -1.50950
    D6        0.73829  -0.00172  -0.10661  -0.10571  -0.21233   0.52596
    D7       -1.34664  -0.00167  -0.08799  -0.10848  -0.19518  -1.54182
    D8        0.67024  -0.00138  -0.07962  -0.07662  -0.15455   0.51569
    D9        2.73250  -0.00159  -0.10348  -0.07797  -0.18135   2.55115
   D10       -0.56003   0.00053   0.05643   0.03432   0.09242  -0.46762
   D11       -2.71344   0.00141   0.04724   0.05874   0.10843  -2.60501
   D12        1.44871   0.00064   0.06126   0.05036   0.11203   1.56074
   D13       -0.56105   0.00079   0.06075   0.09043   0.15252  -0.40852
   D14        1.52109   0.00238   0.07810   0.11672   0.19514   1.71623
   D15       -2.68391   0.00300   0.06431   0.11512   0.18145  -2.50247
   D16        0.23276   0.00018  -0.02129   0.02291   0.00032   0.23308
   D17       -2.90453  -0.00095  -0.01047  -0.12512  -0.13702  -3.04154
   D18        0.22627  -0.00027  -0.02366  -0.07238  -0.09750   0.12878
   D19       -2.91963   0.00087  -0.03443   0.07578   0.03962  -2.88001
         Item               Value     Threshold  Converged?
 Maximum Force            0.014998     0.000450     NO 
 RMS     Force            0.002566     0.000300     NO 
 Maximum Displacement     0.229860     0.001800     NO 
 RMS     Displacement     0.081690     0.001200     NO 
 Predicted change in Energy=-3.201003D-03
 GradGradGradGradGradGradGradGradGradGradGradGradGradGradGradGradGradGrad

                          Input orientation:                          
 ---------------------------------------------------------------------
 Center     Atomic      Atomic             Coordinates (Angstroms)
 Number     Number       Type             X           Y           Z
 ---------------------------------------------------------------------
      1          6           0       -0.824759    0.572602    0.131904
      2          6           0        0.552874    0.833561   -0.450176
      3          6           0       -0.415194    2.810787    0.135025
      4          1           0       -1.451480   -0.114785   -0.429961
      5          1           0       -0.734426    0.251781    1.175042
      6          1           0        0.611561    0.746567   -1.539503
      7          8           0       -1.411993    1.886317    0.077862
      8          8           0        0.785890    2.191914   -0.076032
      9          8           0       -0.573994    3.984643    0.208521
     10          9           0        1.522291    0.061538    0.099410
 ---------------------------------------------------------------------
                    Distance matrix (angstroms):
                    1          2          3          4          5
     1  C    0.000000
     2  C    1.518153   0.000000
     3  C    2.275352   2.277946   0.000000
     4  H    1.086725   2.217477   3.154690   0.000000
     5  H    1.095091   2.153356   2.780657   1.795709   0.000000
     6  H    2.210629   1.094370   2.849434   2.495827   3.070057
     7  O    1.440004   2.290813   1.360706   2.064910   2.081972
     8  O    2.293382   1.428077   1.367535   3.232948   2.764175
     9  O    3.422102   3.410723   1.186827   4.240631   3.859295
    10  F    2.402267   1.355667   3.363552   3.025663   2.507179
                    6          7          8          9         10
     6  H    0.000000
     7  O    2.830137   0.000000
     8  O    2.064260   2.224357   0.000000
     9  O    3.866040   2.263247   2.268068   0.000000
    10  F    1.996178   3.455474   2.260878   4.449390   0.000000
 Stoichiometry    C3H3FO3
 Framework group  C1[X(C3H3FO3)]
 Deg. of freedom    24
 Full point group                 C1      NOp   1
 Largest Abelian subgroup         C1      NOp   1
 Largest concise Abelian subgroup C1      NOp   1
                         Standard orientation:                         
 ---------------------------------------------------------------------
 Center     Atomic      Atomic             Coordinates (Angstroms)
 Number     Number       Type             X           Y           Z
 ---------------------------------------------------------------------
      1          6           0        0.606934    1.231554   -0.096343
      2          6           0        1.056489   -0.134512    0.390025
      3          6           0       -1.176764   -0.180560   -0.056627
      4          1           0        0.956799    2.078568    0.487724
      5          1           0        0.865624    1.355058   -1.153249
      6          1           0        1.230044   -0.200131    1.468551
      7          8           0       -0.822553    1.129364    0.044135
      8          8           0       -0.057016   -0.959108    0.044263
      9          8           0       -2.291127   -0.588265   -0.079667
     10          9           0        2.154794   -0.598702   -0.255022
 ---------------------------------------------------------------------
 Rotational constants (GHZ):           6.3682105           2.2175423           1.7243680
 Standard basis: 6-311+G(d,p) (5D, 7F)
 There are   179 symmetry adapted cartesian basis functions of A   symmetry.
 There are   172 symmetry adapted basis functions of A   symmetry.
   172 basis functions,   276 primitive gaussians,   179 cartesian basis functions
    27 alpha electrons       27 beta electrons
       nuclear repulsion energy       319.9464977385 Hartrees.
 NAtoms=   10 NActive=   10 NUniq=   10 SFac= 1.00D+00 NAtFMM=   60 NAOKFM=F Big=F
 Integral buffers will be    131072 words long.
 Raffenetti 2 integral format.
 Two-electron integral symmetry is turned on.
 One-electron integrals computed using PRISM.
 NBasis=   172 RedAO= T EigKep=  7.96D-05  NBF=   172
 NBsUse=   172 1.00D-06 EigRej= -1.00D+00 NBFU=   172
 Initial guess from the checkpoint file:  "FEC.chk"
 B after Tr=     0.000000   -0.000000   -0.000000
         Rot=    0.999982   -0.004016   -0.000879    0.004458 Ang=  -0.69 deg.
 ExpMin= 4.38D-02 ExpMax= 1.14D+04 ExpMxC= 1.72D+03 IAcc=2 IRadAn=         4 AccDes= 0.00D+00
 Harris functional with IExCor=  402 and IRadAn=       4 diagonalized for initial guess.
 HarFok:  IExCor=  402 AccDes= 0.00D+00 IRadAn=         4 IDoV= 1 UseB2=F ITyADJ=14
 ICtDFT=  3500011 ScaDFX=  1.000000  1.000000  1.000000  1.000000
 FoFCou: FMM=F IPFlag=           0 FMFlag=      100000 FMFlg1=           0
         NFxFlg=           0 DoJE=T BraDBF=F KetDBF=T FulRan=T
         wScrn=  0.000000 ICntrl=       500 IOpCl=  0 I1Cent=   200000004 NGrid=           0
         NMat0=    1 NMatS0=      1 NMatT0=    0 NMatD0=    1 NMtDS0=    0 NMtDT0=    0
 Petite list used in FoFCou.
 Keep R1 ints in memory in canonical form, NReq=118719167.
 Requested convergence on RMS density matrix=1.00D-08 within 128 cycles.
 Requested convergence on MAX density matrix=1.00D-06.
 Requested convergence on             energy=1.00D-06.
 No special actions if energy rises.
 SCF Done:  E(RB3LYP) =  -441.772277165     A.U. after   11 cycles
            NFock= 11  Conv=0.84D-08     -V/T= 2.0031
 Calling FoFJK, ICntrl=      2127 FMM=F ISym2X=0 I1Cent= 0 IOpClX= 0 NMat=1 NMatS=1 NMatT=0.
 ***** Axes restored to original set *****
 -------------------------------------------------------------------
 Center     Atomic                   Forces (Hartrees/Bohr)
 Number     Number              X              Y              Z
 -------------------------------------------------------------------
      1        6          -0.002831421    0.002376285    0.002779550
      2        6           0.000151912    0.008314943   -0.001381690
      3        6          -0.003100482    0.004389679   -0.017745396
      4        1           0.000867993   -0.000131663   -0.001363686
      5        1          -0.000432401   -0.000888996   -0.001266755
      6        1           0.001892449   -0.000471724    0.001285272
      7        8          -0.002104026   -0.002327718    0.008265443
      8        8           0.002616815   -0.002986657   -0.000574162
      9        8           0.001489311   -0.004329960    0.007478866
     10        9           0.001449850   -0.003944188    0.002522558
 -------------------------------------------------------------------
 Cartesian Forces:  Max     0.017745396 RMS     0.004626344

 GradGradGradGradGradGradGradGradGradGradGradGradGradGradGradGradGradGrad
 Berny optimization.
 Using GEDIIS/GDIIS optimizer.
 FormGI is forming the generalized inverse of G from B-inverse, IUseBI=4.
 Internal  Forces:  Max     0.007531958 RMS     0.002468671
 Search for a local minimum.
 Step number   4 out of a maximum of   56
 All quantities printed in internal units (Hartrees-Bohrs-Radians)
 Mixed Optimization -- RFO/linear search
 Update second derivatives using D2CorX and points    3    4
 DE= -2.64D-03 DEPred=-3.20D-03 R= 8.23D-01
 TightC=F SS=  1.41D+00  RLast= 7.28D-01 DXNew= 1.4270D+00 2.1849D+00
 Trust test= 8.23D-01 RLast= 7.28D-01 DXMaxT set to 1.43D+00
 ITU=  1  1  1  0
 Use linear search instead of GDIIS.
     Eigenvalues ---    0.00241   0.01223   0.03900   0.05414   0.05891
     Eigenvalues ---    0.06002   0.06694   0.10699   0.11082   0.11597
     Eigenvalues ---    0.16661   0.22822   0.24607   0.25287   0.29719
     Eigenvalues ---    0.34882   0.36907   0.37230   0.37247   0.37585
     Eigenvalues ---    0.40309   0.41701   0.55317   0.92681
 RFO step:  Lambda=-5.78782326D-03 EMin= 2.41002605D-03
 Quartic linear search produced a step of  0.01382.
 Iteration  1 RMS(Cart)=  0.07307729 RMS(Int)=  0.00885915
 Iteration  2 RMS(Cart)=  0.00786212 RMS(Int)=  0.00325133
 Iteration  3 RMS(Cart)=  0.00011975 RMS(Int)=  0.00324886
 Iteration  4 RMS(Cart)=  0.00000062 RMS(Int)=  0.00324886
 Variable       Old X    -DE/DX   Delta X   Delta X   Delta X     New X
                                 (Linear)    (Quad)   (Total)
    R1        2.86889   0.00299   0.00018   0.01789   0.01549   2.88439
    R2        2.05361   0.00029  -0.00001  -0.00004  -0.00005   2.05356
    R3        2.06942  -0.00098   0.00001  -0.00122  -0.00121   2.06821
    R4        2.72121  -0.00192  -0.00003  -0.00290  -0.00417   2.71705
    R5        2.06806  -0.00114   0.00000  -0.00219  -0.00219   2.06587
    R6        2.69868  -0.00384  -0.00008  -0.01273  -0.01297   2.68571
    R7        2.56184   0.00431   0.00002   0.00692   0.00695   2.56879
    R8        2.57136   0.00101  -0.00023  -0.00501  -0.00338   2.56798
    R9        2.58427   0.00251  -0.00019  -0.00393  -0.00163   2.58264
   R10        2.24278  -0.00402   0.00030   0.02097   0.02128   2.26405
    A1        2.01952  -0.00014  -0.00013  -0.01194  -0.01112   2.00840
    A2        1.91849  -0.00160   0.00003  -0.00873  -0.00788   1.91061
    A3        1.77098   0.00175   0.00033   0.02776   0.02347   1.79444
    A4        1.93346   0.00041   0.00012   0.00528   0.00487   1.93833
    A5        1.89914  -0.00031  -0.00055  -0.01744  -0.01601   1.88312
    A6        1.91416   0.00000   0.00023   0.00730   0.00865   1.92281
    A7        2.00055   0.00215   0.00032   0.03177   0.03263   2.03317
    A8        1.78351   0.00018   0.00025   0.01095   0.00747   1.79098
    A9        1.97749  -0.00322  -0.00034  -0.03678  -0.03632   1.94117
   A10        1.90461  -0.00063   0.00022   0.00819   0.00879   1.91339
   A11        1.89644  -0.00002  -0.00012  -0.00915  -0.00935   1.88709
   A12        1.89524   0.00165  -0.00031  -0.00366  -0.00268   1.89256
   A13        1.90652   0.00191  -0.00009   0.00553  -0.00263   1.90389
   A14        2.18531   0.00012   0.00001   0.01765   0.00446   2.18977
   A15        2.18300  -0.00062  -0.00004   0.01103  -0.00214   2.18086
   A16        1.89600  -0.00180   0.00041   0.02179   0.02207   1.91808
   A17        1.90454  -0.00111   0.00061   0.02108   0.02392   1.92845
    D1        0.51024  -0.00008  -0.00322  -0.17112  -0.17471   0.33552
    D2        2.56774   0.00033  -0.00265  -0.13886  -0.14222   2.42552
    D3       -1.67999   0.00091  -0.00302  -0.15355  -0.15735  -1.83734
    D4        2.71618  -0.00102  -0.00313  -0.18104  -0.18356   2.53262
    D5       -1.50950  -0.00061  -0.00256  -0.14879  -0.15107  -1.66057
    D6        0.52596  -0.00003  -0.00293  -0.16347  -0.16620   0.35976
    D7       -1.54182  -0.00078  -0.00270  -0.16231  -0.16507  -1.70688
    D8        0.51569  -0.00037  -0.00214  -0.13006  -0.13257   0.38311
    D9        2.55115   0.00021  -0.00251  -0.14474  -0.14771   2.40344
   D10       -0.46762   0.00370   0.00128   0.14838   0.14941  -0.31821
   D11       -2.60501   0.00306   0.00150   0.15530   0.15725  -2.44776
   D12        1.56074   0.00275   0.00155   0.15523   0.15604   1.71678
   D13       -0.40852  -0.00099   0.00211   0.07006   0.07220  -0.33632
   D14        1.71623   0.00130   0.00270   0.11660   0.11885   1.83508
   D15       -2.50247   0.00187   0.00251   0.10816   0.11105  -2.39142
   D16        0.23308  -0.00436   0.00000  -0.11139  -0.11107   0.12201
   D17       -3.04154   0.00682  -0.00189   0.16012   0.15772  -2.88382
   D18        0.12878   0.00371  -0.00135   0.02452   0.02229   0.15107
   D19       -2.88001  -0.00753   0.00055  -0.24716  -0.24543  -3.12543
         Item               Value     Threshold  Converged?
 Maximum Force            0.007532     0.000450     NO 
 RMS     Force            0.002469     0.000300     NO 
 Maximum Displacement     0.226511     0.001800     NO 
 RMS     Displacement     0.075022     0.001200     NO 
 Predicted change in Energy=-4.179024D-03
 GradGradGradGradGradGradGradGradGradGradGradGradGradGradGradGradGradGrad

                          Input orientation:                          
 ---------------------------------------------------------------------
 Center     Atomic      Atomic             Coordinates (Angstroms)
 Number     Number       Type             X           Y           Z
 ---------------------------------------------------------------------
      1          6           0       -0.827436    0.575727    0.131484
      2          6           0        0.553777    0.831093   -0.465835
      3          6           0       -0.432768    2.830307    0.060914
      4          1           0       -1.475976   -0.061409   -0.463803
      5          1           0       -0.718726    0.185765    1.148311
      6          1           0        0.663273    0.646356   -1.537748
      7          8           0       -1.408732    1.890371    0.164221
      8          8           0        0.758346    2.211360   -0.195896
      9          8           0       -0.561960    3.996215    0.304585
     10          9           0        1.510973    0.119138    0.185861
 ---------------------------------------------------------------------
                    Distance matrix (angstroms):
                    1          2          3          4          5
     1  C    0.000000
     2  C    1.526352   0.000000
     3  C    2.289951   2.290762   0.000000
     4  H    1.086698   2.217309   3.118595   0.000000
     5  H    1.094452   2.154340   2.873640   1.798175   0.000000
     6  H    2.239093   1.093213   2.920046   2.496133   3.055647
     7  O    1.437799   2.317430   1.358918   2.051434   2.085718
     8  O    2.301560   1.421215   1.366674   3.198351   2.844586
     9  O    3.435139   3.443315   1.198085   4.229676   3.905891
    10  F    2.383188   1.359343   3.338290   3.062111   2.429466
                    6          7          8          9         10
     6  H    0.000000
     7  O    2.955922   0.000000
     8  O    2.063696   2.220123   0.000000
     9  O    4.014591   2.274051   2.275829   0.000000
    10  F    1.991829   3.415027   2.256010   4.398054   0.000000
 Stoichiometry    C3H3FO3
 Framework group  C1[X(C3H3FO3)]
 Deg. of freedom    24
 Full point group                 C1      NOp   1
 Largest Abelian subgroup         C1      NOp   1
 Largest concise Abelian subgroup C1      NOp   1
                         Standard orientation:                         
 ---------------------------------------------------------------------
 Center     Atomic      Atomic             Coordinates (Angstroms)
 Number     Number       Type             X           Y           Z
 ---------------------------------------------------------------------
      1          6           0        0.625661    1.232589   -0.059133
      2          6           0        1.077699   -0.148199    0.408667
      3          6           0       -1.181899   -0.170322    0.032741
      4          1           0        0.930773    2.057681    0.578866
      5          1           0        0.951327    1.392635   -1.091680
      6          1           0        1.364840   -0.237168    1.459737
      7          8           0       -0.807676    1.135623   -0.000775
      8          8           0       -0.067378   -0.951489    0.156917
      9          8           0       -2.289518   -0.581362   -0.166345
     10          9           0        2.104542   -0.613303   -0.350994
 ---------------------------------------------------------------------
 Rotational constants (GHZ):           6.2082165           2.2306172           1.7413407
 Standard basis: 6-311+G(d,p) (5D, 7F)
 There are   179 symmetry adapted cartesian basis functions of A   symmetry.
 There are   172 symmetry adapted basis functions of A   symmetry.
   172 basis functions,   276 primitive gaussians,   179 cartesian basis functions
    27 alpha electrons       27 beta electrons
       nuclear repulsion energy       319.5860409301 Hartrees.
 NAtoms=   10 NActive=   10 NUniq=   10 SFac= 1.00D+00 NAtFMM=   60 NAOKFM=F Big=F
 Integral buffers will be    131072 words long.
 Raffenetti 2 integral format.
 Two-electron integral symmetry is turned on.
 One-electron integrals computed using PRISM.
 NBasis=   172 RedAO= T EigKep=  8.09D-05  NBF=   172
 NBsUse=   172 1.00D-06 EigRej= -1.00D+00 NBFU=   172
 Initial guess from the checkpoint file:  "FEC.chk"
 B after Tr=    -0.000000    0.000000    0.000000
         Rot=    0.999986   -0.002260   -0.002264    0.004324 Ang=  -0.62 deg.
 ExpMin= 4.38D-02 ExpMax= 1.14D+04 ExpMxC= 1.72D+03 IAcc=2 IRadAn=         4 AccDes= 0.00D+00
 Harris functional with IExCor=  402 and IRadAn=       4 diagonalized for initial guess.
 HarFok:  IExCor=  402 AccDes= 0.00D+00 IRadAn=         4 IDoV= 1 UseB2=F ITyADJ=14
 ICtDFT=  3500011 ScaDFX=  1.000000  1.000000  1.000000  1.000000
 FoFCou: FMM=F IPFlag=           0 FMFlag=      100000 FMFlg1=           0
         NFxFlg=           0 DoJE=T BraDBF=F KetDBF=T FulRan=T
         wScrn=  0.000000 ICntrl=       500 IOpCl=  0 I1Cent=   200000004 NGrid=           0
         NMat0=    1 NMatS0=      1 NMatT0=    0 NMatD0=    1 NMtDS0=    0 NMtDT0=    0
 Petite list used in FoFCou.
 Keep R1 ints in memory in canonical form, NReq=118719167.
 Requested convergence on RMS density matrix=1.00D-08 within 128 cycles.
 Requested convergence on MAX density matrix=1.00D-06.
 Requested convergence on             energy=1.00D-06.
 No special actions if energy rises.
 SCF Done:  E(RB3LYP) =  -441.772930015     A.U. after   11 cycles
            NFock= 11  Conv=0.98D-08     -V/T= 2.0032
 Calling FoFJK, ICntrl=      2127 FMM=F ISym2X=0 I1Cent= 0 IOpClX= 0 NMat=1 NMatS=1 NMatT=0.
 ***** Axes restored to original set *****
 -------------------------------------------------------------------
 Center     Atomic                   Forces (Hartrees/Bohr)
 Number     Number              X              Y              Z
 -------------------------------------------------------------------
      1        6          -0.002828634    0.003562964   -0.002877561
      2        6          -0.002222865    0.007261303    0.000608359
      3        6           0.000527140    0.011855199    0.027222659
      4        1           0.001181337   -0.002044889   -0.000600770
      5        1          -0.001206855    0.000923967   -0.001022321
      6        1           0.000174859   -0.000408423    0.001283278
      7        8          -0.003455104    0.001784871   -0.001671084
      8        8           0.003080774    0.001139241   -0.010893288
      9        8           0.001059302   -0.020642787   -0.014004107
     10        9           0.003690047   -0.003431447    0.001954834
 -------------------------------------------------------------------
 Cartesian Forces:  Max     0.027222659 RMS     0.007702795

 GradGradGradGradGradGradGradGradGradGradGradGradGradGradGradGradGradGrad
 Berny optimization.
 Using GEDIIS/GDIIS optimizer.
 FormGI is forming the generalized inverse of G from B-inverse, IUseBI=4.
 Internal  Forces:  Max     0.023050854 RMS     0.004525586
 Search for a local minimum.
 Step number   5 out of a maximum of   56
 All quantities printed in internal units (Hartrees-Bohrs-Radians)
 Mixed Optimization -- RFO/linear search
 Update second derivatives using D2CorX and points    4    5
 DE= -6.53D-04 DEPred=-4.18D-03 R= 1.56D-01
 Trust test= 1.56D-01 RLast= 6.58D-01 DXMaxT set to 1.43D+00
 ITU=  0  1  1  1  0
 Use linear search instead of GDIIS.
     Eigenvalues ---    0.00402   0.01193   0.04761   0.05536   0.05980
     Eigenvalues ---    0.06585   0.08927   0.10625   0.11088   0.12515
     Eigenvalues ---    0.16359   0.22881   0.24608   0.24926   0.29638
     Eigenvalues ---    0.34622   0.36973   0.37224   0.37235   0.37607
     Eigenvalues ---    0.40168   0.41416   0.54782   0.95460
 RFO step:  Lambda=-1.66219158D-03 EMin= 4.02397226D-03
 Quartic linear search produced a step of -0.43731.
 Iteration  1 RMS(Cart)=  0.02149422 RMS(Int)=  0.00121084
 Iteration  2 RMS(Cart)=  0.00086509 RMS(Int)=  0.00066194
 Iteration  3 RMS(Cart)=  0.00000137 RMS(Int)=  0.00066194
 Iteration  4 RMS(Cart)=  0.00000000 RMS(Int)=  0.00066194
 Variable       Old X    -DE/DX   Delta X   Delta X   Delta X     New X
                                 (Linear)    (Quad)   (Total)
    R1        2.88439   0.00214  -0.00678   0.01363   0.00745   2.89184
    R2        2.05356   0.00082   0.00002   0.00129   0.00132   2.05488
    R3        2.06821  -0.00140   0.00053  -0.00403  -0.00351   2.06471
    R4        2.71705  -0.00197   0.00182  -0.00719  -0.00494   2.71211
    R5        2.06587  -0.00117   0.00096  -0.00426  -0.00330   2.06257
    R6        2.68571  -0.00369   0.00567  -0.01345  -0.00803   2.67767
    R7        2.56879   0.00533  -0.00304   0.01136   0.00832   2.57711
    R8        2.56798  -0.00085   0.00148  -0.00015   0.00112   2.56910
    R9        2.58264   0.00095   0.00071   0.00567   0.00576   2.58840
   R10        2.26405  -0.02305  -0.00930  -0.00990  -0.01921   2.24484
    A1        2.00840  -0.00222   0.00486  -0.01621  -0.01194   1.99646
    A2        1.91061   0.00135   0.00344  -0.00253   0.00083   1.91144
    A3        1.79444   0.00091  -0.01026   0.01848   0.00972   1.80416
    A4        1.93833  -0.00009  -0.00213  -0.00331  -0.00531   1.93302
    A5        1.88312   0.00128   0.00700   0.01157   0.01829   1.90141
    A6        1.92281  -0.00120  -0.00378  -0.00620  -0.01063   1.91219
    A7        2.03317  -0.00282  -0.01427   0.00706  -0.00709   2.02608
    A8        1.79098   0.00214  -0.00327   0.01493   0.01247   1.80345
    A9        1.94117   0.00189   0.01588  -0.01680  -0.00144   1.93972
   A10        1.91339  -0.00031  -0.00384  -0.00476  -0.00878   1.90461
   A11        1.88709  -0.00029   0.00409  -0.01064  -0.00661   1.88047
   A12        1.89256  -0.00045   0.00117   0.01250   0.01366   1.90623
   A13        1.90389   0.00516   0.00115   0.01725   0.01988   1.92376
   A14        2.18977  -0.00114  -0.00195  -0.00460  -0.00430   2.18547
   A15        2.18086  -0.00216   0.00094  -0.01010  -0.00691   2.17395
   A16        1.91808  -0.00380  -0.00965  -0.00442  -0.01346   1.90461
   A17        1.92845  -0.00354  -0.01046   0.00253  -0.00882   1.91963
    D1        0.33552   0.00055   0.07640  -0.09126  -0.01474   0.32079
    D2        2.42552   0.00014   0.06219  -0.08286  -0.02079   2.40472
    D3       -1.83734   0.00160   0.06881  -0.06766   0.00127  -1.83607
    D4        2.53262  -0.00016   0.08027  -0.11039  -0.03026   2.50236
    D5       -1.66057  -0.00057   0.06606  -0.10199  -0.03632  -1.69689
    D6        0.35976   0.00089   0.07268  -0.08678  -0.01426   0.34550
    D7       -1.70688  -0.00048   0.07218  -0.10911  -0.03710  -1.74398
    D8        0.38311  -0.00090   0.05798  -0.10071  -0.04316   0.33996
    D9        2.40344   0.00056   0.06459  -0.08550  -0.02110   2.38234
   D10       -0.31821  -0.00117  -0.06534   0.07934   0.01376  -0.30444
   D11       -2.44776   0.00030  -0.06877   0.08289   0.01355  -2.43421
   D12        1.71678   0.00034  -0.06824   0.08341   0.01509   1.73187
   D13       -0.33632   0.00513  -0.03157   0.09969   0.06774  -0.26858
   D14        1.83508   0.00290  -0.05197   0.11431   0.06208   1.89716
   D15       -2.39142   0.00211  -0.04856   0.10606   0.05699  -2.33442
   D16        0.12201   0.00465   0.04857  -0.02011   0.02877   0.15078
   D17       -2.88382  -0.00972  -0.06897  -0.03935  -0.10853  -2.99235
   D18        0.15107  -0.00610  -0.00975  -0.05310  -0.06277   0.08829
   D19       -3.12543   0.00827   0.10733  -0.03347   0.07366  -3.05177
         Item               Value     Threshold  Converged?
 Maximum Force            0.023051     0.000450     NO 
 RMS     Force            0.004526     0.000300     NO 
 Maximum Displacement     0.075935     0.001800     NO 
 RMS     Displacement     0.021530     0.001200     NO 
 Predicted change in Energy=-1.907693D-03
 GradGradGradGradGradGradGradGradGradGradGradGradGradGradGradGradGradGrad

                          Input orientation:                          
 ---------------------------------------------------------------------
 Center     Atomic      Atomic             Coordinates (Angstroms)
 Number     Number       Type             X           Y           Z
 ---------------------------------------------------------------------
      1          6           0       -0.832102    0.581307    0.129618
      2          6           0        0.554959    0.838995   -0.463218
      3          6           0       -0.425061    2.821868    0.101097
      4          1           0       -1.469605   -0.055068   -0.479517
      5          1           0       -0.728117    0.173556    1.137930
      6          1           0        0.664491    0.642469   -1.531242
      7          8           0       -1.412192    1.892206    0.198893
      8          8           0        0.762146    2.219746   -0.221582
      9          8           0       -0.564781    3.989634    0.268295
     10          9           0        1.511032    0.120211    0.191820
 ---------------------------------------------------------------------
                    Distance matrix (angstroms):
                    1          2          3          4          5
     1  C    0.000000
     2  C    1.530293   0.000000
     3  C    2.277413   2.282690   0.000000
     4  H    1.087395   2.213249   3.115276   0.000000
     5  H    1.092597   2.157028   2.860144   1.793937   0.000000
     6  H    2.236513   1.091465   2.932820   2.479324   3.046920
     7  O    1.435186   2.327516   1.359509   2.062864   2.074490
     8  O    2.312889   1.416964   1.369720   3.197189   2.873335
     9  O    3.421606   3.422785   1.187921   4.211596   3.917320
    10  F    2.388882   1.363745   3.325002   3.060329   2.431411
                    6          7          8          9         10
     6  H    0.000000
     7  O    2.977889   0.000000
     8  O    2.052449   2.238711   0.000000
     9  O    3.994116   2.263212   2.265661   0.000000
    10  F    1.989555   3.418371   2.267108   4.391730   0.000000
 Stoichiometry    C3H3FO3
 Framework group  C1[X(C3H3FO3)]
 Deg. of freedom    24
 Full point group                 C1      NOp   1
 Largest Abelian subgroup         C1      NOp   1
 Largest concise Abelian subgroup C1      NOp   1
                         Standard orientation:                         
 ---------------------------------------------------------------------
 Center     Atomic      Atomic             Coordinates (Angstroms)
 Number     Number       Type             X           Y           Z
 ---------------------------------------------------------------------
      1          6           0        0.616390    1.236954   -0.032403
      2          6           0        1.071335   -0.156289    0.407707
      3          6           0       -1.172102   -0.172850   -0.013468
      4          1           0        0.922697    2.040419    0.633216
      5          1           0        0.958655    1.427457   -1.052369
      6          1           0        1.365874   -0.256793    1.453862
      7          8           0       -0.815361    1.139016   -0.016427
      8          8           0       -0.068100   -0.963347    0.166599
      9          8           0       -2.279489   -0.581958   -0.145686
     10          9           0        2.106959   -0.600851   -0.360179
 ---------------------------------------------------------------------
 Rotational constants (GHZ):           6.1774643           2.2397801           1.7443307
 Standard basis: 6-311+G(d,p) (5D, 7F)
 There are   179 symmetry adapted cartesian basis functions of A   symmetry.
 There are   172 symmetry adapted basis functions of A   symmetry.
   172 basis functions,   276 primitive gaussians,   179 cartesian basis functions
    27 alpha electrons       27 beta electrons
       nuclear repulsion energy       319.6956215662 Hartrees.
 NAtoms=   10 NActive=   10 NUniq=   10 SFac= 1.00D+00 NAtFMM=   60 NAOKFM=F Big=F
 Integral buffers will be    131072 words long.
 Raffenetti 2 integral format.
 Two-electron integral symmetry is turned on.
 One-electron integrals computed using PRISM.
 NBasis=   172 RedAO= T EigKep=  8.06D-05  NBF=   172
 NBsUse=   172 1.00D-06 EigRej= -1.00D+00 NBFU=   172
 Initial guess from the checkpoint file:  "FEC.chk"
 B after Tr=     0.000000    0.000000   -0.000000
         Rot=    0.999993   -0.003338    0.000388   -0.001380 Ang=  -0.42 deg.
 ExpMin= 4.38D-02 ExpMax= 1.14D+04 ExpMxC= 1.72D+03 IAcc=2 IRadAn=         4 AccDes= 0.00D+00
 Harris functional with IExCor=  402 and IRadAn=       4 diagonalized for initial guess.
 HarFok:  IExCor=  402 AccDes= 0.00D+00 IRadAn=         4 IDoV= 1 UseB2=F ITyADJ=14
 ICtDFT=  3500011 ScaDFX=  1.000000  1.000000  1.000000  1.000000
 FoFCou: FMM=F IPFlag=           0 FMFlag=      100000 FMFlg1=           0
         NFxFlg=           0 DoJE=T BraDBF=F KetDBF=T FulRan=T
         wScrn=  0.000000 ICntrl=       500 IOpCl=  0 I1Cent=   200000004 NGrid=           0
         NMat0=    1 NMatS0=      1 NMatT0=    0 NMatD0=    1 NMtDS0=    0 NMtDT0=    0
 Petite list used in FoFCou.
 Keep R1 ints in memory in canonical form, NReq=118719167.
 Requested convergence on RMS density matrix=1.00D-08 within 128 cycles.
 Requested convergence on MAX density matrix=1.00D-06.
 Requested convergence on             energy=1.00D-06.
 No special actions if energy rises.
 SCF Done:  E(RB3LYP) =  -441.775149965     A.U. after   11 cycles
            NFock= 11  Conv=0.30D-08     -V/T= 2.0031
 Calling FoFJK, ICntrl=      2127 FMM=F ISym2X=0 I1Cent= 0 IOpClX= 0 NMat=1 NMatS=1 NMatT=0.
 ***** Axes restored to original set *****
 -------------------------------------------------------------------
 Center     Atomic                   Forces (Hartrees/Bohr)
 Number     Number              X              Y              Z
 -------------------------------------------------------------------
      1        6          -0.000904899    0.000973190   -0.000634250
      2        6          -0.001902006    0.004961897   -0.000617778
      3        6          -0.002305226    0.007214919    0.004364828
      4        1           0.000224007   -0.000360419   -0.000584561
      5        1          -0.000474411   -0.000630892   -0.000337342
      6        1           0.000382556   -0.000856579    0.000314155
      7        8           0.003127422   -0.000432157    0.000503630
      8        8          -0.001129254   -0.003237837   -0.003140265
      9        8           0.000797529   -0.006010454   -0.001956909
     10        9           0.002184282   -0.001621668    0.002088492
 -------------------------------------------------------------------
 Cartesian Forces:  Max     0.007214919 RMS     0.002540612

 GradGradGradGradGradGradGradGradGradGradGradGradGradGradGradGradGradGrad
 Berny optimization.
 Using GEDIIS/GDIIS optimizer.
 FormGI is forming the generalized inverse of G from B-inverse, IUseBI=4.
 Internal  Forces:  Max     0.006277710 RMS     0.001281257
 Search for a local minimum.
 Step number   6 out of a maximum of   56
 All quantities printed in internal units (Hartrees-Bohrs-Radians)
 Mixed Optimization -- RFO/linear search
 Update second derivatives using D2CorX and points    5    6
 DE= -2.22D-03 DEPred=-1.91D-03 R= 1.16D+00
 TightC=F SS=  1.41D+00  RLast= 2.09D-01 DXNew= 2.4000D+00 6.2662D-01
 Trust test= 1.16D+00 RLast= 2.09D-01 DXMaxT set to 1.43D+00
 ITU=  1  0  1  1  1  0
 Use linear search instead of GDIIS.
     Eigenvalues ---    0.00381   0.01188   0.04652   0.05492   0.06016
     Eigenvalues ---    0.06527   0.08572   0.10608   0.11083   0.12067
     Eigenvalues ---    0.16468   0.22912   0.24971   0.25992   0.30124
     Eigenvalues ---    0.34631   0.37048   0.37193   0.37232   0.37655
     Eigenvalues ---    0.39928   0.41190   0.54181   0.90427
 RFO step:  Lambda=-9.00591698D-04 EMin= 3.81240028D-03
 Quartic linear search produced a step of  0.22445.
 Iteration  1 RMS(Cart)=  0.04650071 RMS(Int)=  0.00202549
 Iteration  2 RMS(Cart)=  0.00185994 RMS(Int)=  0.00065500
 Iteration  3 RMS(Cart)=  0.00000315 RMS(Int)=  0.00065500
 Iteration  4 RMS(Cart)=  0.00000000 RMS(Int)=  0.00065500
 Variable       Old X    -DE/DX   Delta X   Delta X   Delta X     New X
                                 (Linear)    (Quad)   (Total)
    R1        2.89184  -0.00041   0.00167   0.00474   0.00586   2.89770
    R2        2.05488   0.00041   0.00030   0.00074   0.00103   2.05591
    R3        2.06471  -0.00012  -0.00079  -0.00113  -0.00192   2.06279
    R4        2.71211  -0.00077  -0.00111  -0.00379  -0.00488   2.70723
    R5        2.06257  -0.00011  -0.00074  -0.00150  -0.00224   2.06033
    R6        2.67767  -0.00253  -0.00180  -0.01157  -0.01369   2.66398
    R7        2.57711   0.00339   0.00187   0.00959   0.01145   2.58856
    R8        2.56910  -0.00112   0.00025  -0.00706  -0.00624   2.56286
    R9        2.58840   0.00074   0.00129   0.00006   0.00171   2.59010
   R10        2.24484  -0.00628  -0.00431  -0.00137  -0.00568   2.23917
    A1        1.99646  -0.00044  -0.00268  -0.00891  -0.01120   1.98526
    A2        1.91144   0.00048   0.00019   0.00071   0.00122   1.91266
    A3        1.80416  -0.00060   0.00218   0.00780   0.00810   1.81226
    A4        1.93302  -0.00022  -0.00119  -0.00186  -0.00328   1.92974
    A5        1.90141   0.00093   0.00410  -0.00020   0.00461   1.90602
    A6        1.91219  -0.00017  -0.00239   0.00352   0.00168   1.91387
    A7        2.02608  -0.00035  -0.00159   0.00746   0.00628   2.03237
    A8        1.80345   0.00029   0.00280   0.00709   0.00764   1.81109
    A9        1.93972  -0.00005  -0.00032  -0.01374  -0.01364   1.92608
   A10        1.90461  -0.00002  -0.00197   0.00695   0.00571   1.91032
   A11        1.88047   0.00003  -0.00148  -0.00622  -0.00795   1.87252
   A12        1.90623   0.00014   0.00307  -0.00086   0.00293   1.90916
   A13        1.92376  -0.00148   0.00446  -0.00609  -0.00285   1.92091
   A14        2.18547   0.00106  -0.00096   0.00542   0.00378   2.18925
   A15        2.17395   0.00042  -0.00155   0.00066  -0.00155   2.17239
   A16        1.90461   0.00114  -0.00302   0.01360   0.00962   1.91423
   A17        1.91963   0.00092  -0.00198   0.01673   0.01296   1.93259
    D1        0.32079  -0.00027  -0.00331  -0.11574  -0.11904   0.20175
    D2        2.40472  -0.00029  -0.00467  -0.09810  -0.10298   2.30174
    D3       -1.83607   0.00001   0.00028  -0.10154  -0.10170  -1.93777
    D4        2.50236  -0.00050  -0.00679  -0.12432  -0.13071   2.37165
    D5       -1.69689  -0.00052  -0.00815  -0.10668  -0.11465  -1.81154
    D6        0.34550  -0.00022  -0.00320  -0.11012  -0.11337   0.23213
    D7       -1.74398  -0.00079  -0.00833  -0.11593  -0.12400  -1.86798
    D8        0.33996  -0.00081  -0.00969  -0.09829  -0.10794   0.23201
    D9        2.38234  -0.00051  -0.00474  -0.10173  -0.10667   2.27568
   D10       -0.30444   0.00014   0.00309   0.07193   0.07509  -0.22935
   D11       -2.43421   0.00052   0.00304   0.07812   0.08138  -2.35282
   D12        1.73187   0.00031   0.00339   0.07835   0.08149   1.81336
   D13       -0.26858   0.00095   0.01520   0.09066   0.10589  -0.16270
   D14        1.89716   0.00069   0.01393   0.10719   0.12089   2.01806
   D15       -2.33442   0.00080   0.01279   0.10320   0.11628  -2.21815
   D16        0.15078   0.00058   0.00646  -0.01789  -0.01176   0.13902
   D17       -2.99235  -0.00116  -0.02436  -0.02241  -0.04713  -3.03948
   D18        0.08829  -0.00095  -0.01409  -0.04909  -0.06341   0.02488
   D19       -3.05177   0.00077   0.01653  -0.04461  -0.02846  -3.08024
         Item               Value     Threshold  Converged?
 Maximum Force            0.006278     0.000450     NO 
 RMS     Force            0.001281     0.000300     NO 
 Maximum Displacement     0.150320     0.001800     NO 
 RMS     Displacement     0.046409     0.001200     NO 
 Predicted change in Energy=-5.897014D-04
 GradGradGradGradGradGradGradGradGradGradGradGradGradGradGradGradGradGrad

                          Input orientation:                          
 ---------------------------------------------------------------------
 Center     Atomic      Atomic             Coordinates (Angstroms)
 Number     Number       Type             X           Y           Z
 ---------------------------------------------------------------------
      1          6           0       -0.835322    0.583675    0.126825
      2          6           0        0.553467    0.842369   -0.469535
      3          6           0       -0.423983    2.826605    0.114523
      4          1           0       -1.481648   -0.014987   -0.511519
      5          1           0       -0.731026    0.120072    1.109549
      6          1           0        0.686702    0.583260   -1.520162
      7          8           0       -1.396477    1.894081    0.269290
      8          8           0        0.737770    2.229804   -0.301128
      9          8           0       -0.559112    3.993012    0.273456
     10          9           0        1.510399    0.167031    0.240794
 ---------------------------------------------------------------------
                    Distance matrix (angstroms):
                    1          2          3          4          5
     1  C    0.000000
     2  C    1.533397   0.000000
     3  C    2.280370   2.287734   0.000000
     4  H    1.087942   2.208737   3.096003   0.000000
     5  H    1.091582   2.159894   2.899944   1.791517   0.000000
     6  H    2.242571   1.090278   2.989718   2.465158   3.023223
     7  O    1.432604   2.335432   1.356207   2.064330   2.072672
     8  O    2.316788   1.409718   1.370624   3.163728   2.932293
     9  O    3.423649   3.422926   1.184916   4.187042   3.965889
    10  F    2.385161   1.369806   3.291066   3.090543   2.404356
                    6          7          8          9         10
     6  H    0.000000
     7  O    3.043029   0.000000
     8  O    2.049331   2.234524   0.000000
     9  O    4.049139   2.259803   2.262953   0.000000
    10  F    1.988138   3.381338   2.268407   4.349952   0.000000
 Stoichiometry    C3H3FO3
 Framework group  C1[X(C3H3FO3)]
 Deg. of freedom    24
 Full point group                 C1      NOp   1
 Largest Abelian subgroup         C1      NOp   1
 Largest concise Abelian subgroup C1      NOp   1
                         Standard orientation:                         
 ---------------------------------------------------------------------
 Center     Atomic      Atomic             Coordinates (Angstroms)
 Number     Number       Type             X           Y           Z
 ---------------------------------------------------------------------
      1          6           0        0.626510    1.239890    0.007687
      2          6           0        1.076923   -0.167322    0.417794
      3          6           0       -1.167607   -0.167298   -0.024710
      4          1           0        0.899417    2.013042    0.722792
      5          1           0        1.021198    1.476511   -0.982153
      6          1           0        1.435713   -0.283454    1.440774
      7          8           0       -0.801122    1.138113   -0.054464
      8          8           0       -0.076645   -0.956142    0.232461
      9          8           0       -2.272348   -0.573942   -0.159672
     10          9           0        2.069959   -0.611328   -0.414738
 ---------------------------------------------------------------------
 Rotational constants (GHZ):           6.0775801           2.2597105           1.7648188
 Standard basis: 6-311+G(d,p) (5D, 7F)
 There are   179 symmetry adapted cartesian basis functions of A   symmetry.
 There are   172 symmetry adapted basis functions of A   symmetry.
   172 basis functions,   276 primitive gaussians,   179 cartesian basis functions
    27 alpha electrons       27 beta electrons
       nuclear repulsion energy       319.9909202938 Hartrees.
 NAtoms=   10 NActive=   10 NUniq=   10 SFac= 1.00D+00 NAtFMM=   60 NAOKFM=F Big=F
 Integral buffers will be    131072 words long.
 Raffenetti 2 integral format.
 Two-electron integral symmetry is turned on.
 One-electron integrals computed using PRISM.
 NBasis=   172 RedAO= T EigKep=  7.93D-05  NBF=   172
 NBsUse=   172 1.00D-06 EigRej= -1.00D+00 NBFU=   172
 Initial guess from the checkpoint file:  "FEC.chk"
 B after Tr=    -0.000000   -0.000000   -0.000000
         Rot=    0.999992   -0.002103   -0.001205    0.003095 Ang=  -0.45 deg.
 ExpMin= 4.38D-02 ExpMax= 1.14D+04 ExpMxC= 1.72D+03 IAcc=2 IRadAn=         4 AccDes= 0.00D+00
 Harris functional with IExCor=  402 and IRadAn=       4 diagonalized for initial guess.
 HarFok:  IExCor=  402 AccDes= 0.00D+00 IRadAn=         4 IDoV= 1 UseB2=F ITyADJ=14
 ICtDFT=  3500011 ScaDFX=  1.000000  1.000000  1.000000  1.000000
 FoFCou: FMM=F IPFlag=           0 FMFlag=      100000 FMFlg1=           0
         NFxFlg=           0 DoJE=T BraDBF=F KetDBF=T FulRan=T
         wScrn=  0.000000 ICntrl=       500 IOpCl=  0 I1Cent=   200000004 NGrid=           0
         NMat0=    1 NMatS0=      1 NMatT0=    0 NMatD0=    1 NMtDS0=    0 NMtDT0=    0
 Petite list used in FoFCou.
 Keep R1 ints in memory in canonical form, NReq=118719167.
 Requested convergence on RMS density matrix=1.00D-08 within 128 cycles.
 Requested convergence on MAX density matrix=1.00D-06.
 Requested convergence on             energy=1.00D-06.
 No special actions if energy rises.
 SCF Done:  E(RB3LYP) =  -441.776010059     A.U. after   11 cycles
            NFock= 11  Conv=0.42D-08     -V/T= 2.0031
 Calling FoFJK, ICntrl=      2127 FMM=F ISym2X=0 I1Cent= 0 IOpClX= 0 NMat=1 NMatS=1 NMatT=0.
 ***** Axes restored to original set *****
 -------------------------------------------------------------------
 Center     Atomic                   Forces (Hartrees/Bohr)
 Number     Number              X              Y              Z
 -------------------------------------------------------------------
      1        6          -0.000312215   -0.000031073   -0.001476090
      2        6          -0.001771669    0.003229759    0.001177648
      3        6          -0.002477929    0.003076637   -0.001290414
      4        1          -0.000441183    0.000171350   -0.000381346
      5        1          -0.000468091   -0.000427717   -0.000047379
      6        1           0.000136765   -0.000295647   -0.000031708
      7        8           0.001363413   -0.000971603    0.001888262
      8        8           0.001199648   -0.002524350   -0.002020842
      9        8           0.000638381   -0.001458459    0.000715309
     10        9           0.002132880   -0.000768896    0.001466560
 -------------------------------------------------------------------
 Cartesian Forces:  Max     0.003229759 RMS     0.001460449

 GradGradGradGradGradGradGradGradGradGradGradGradGradGradGradGradGradGrad
 Berny optimization.
 Using GEDIIS/GDIIS optimizer.
 FormGI is forming the generalized inverse of G from B-inverse, IUseBI=4.
 Internal  Forces:  Max     0.002629817 RMS     0.000729111
 Search for a local minimum.
 Step number   7 out of a maximum of   56
 All quantities printed in internal units (Hartrees-Bohrs-Radians)
 Mixed Optimization -- En-DIIS/RFO-DIIS
 Update second derivatives using D2CorX and points    5    6    7
 DE= -8.60D-04 DEPred=-5.90D-04 R= 1.46D+00
 TightC=F SS=  1.41D+00  RLast= 4.28D-01 DXNew= 2.4000D+00 1.2848D+00
 Trust test= 1.46D+00 RLast= 4.28D-01 DXMaxT set to 1.43D+00
 ITU=  1  1  0  1  1  1  0
 Use linear search instead of GDIIS.
     Eigenvalues ---    0.00121   0.01179   0.04466   0.05529   0.06128
     Eigenvalues ---    0.06691   0.10000   0.10817   0.11151   0.15091
     Eigenvalues ---    0.16553   0.23105   0.24926   0.25802   0.30077
     Eigenvalues ---    0.34636   0.37005   0.37213   0.37233   0.37783
     Eigenvalues ---    0.39223   0.41143   0.53193   0.94547
 RFO step:  Lambda=-9.98333932D-04 EMin= 1.21281897D-03
 Quartic linear search produced a step of  2.00000.
 Iteration  1 RMS(Cart)=  0.08693108 RMS(Int)=  0.05780293
 Iteration  2 RMS(Cart)=  0.04332663 RMS(Int)=  0.00603359
 Iteration  3 RMS(Cart)=  0.00151394 RMS(Int)=  0.00584114
 Iteration  4 RMS(Cart)=  0.00000358 RMS(Int)=  0.00584114
 Iteration  5 RMS(Cart)=  0.00000001 RMS(Int)=  0.00584114
 Variable       Old X    -DE/DX   Delta X   Delta X   Delta X     New X
                                 (Linear)    (Quad)   (Total)
    R1        2.89770   0.00007   0.01173   0.00821   0.01553   2.91323
    R2        2.05591   0.00039   0.00207   0.00144   0.00351   2.05942
    R3        2.06279   0.00009  -0.00383  -0.00112  -0.00496   2.05783
    R4        2.70723  -0.00049  -0.00976  -0.00309  -0.01281   2.69442
    R5        2.06033   0.00012  -0.00448  -0.00104  -0.00552   2.05481
    R6        2.66398  -0.00179  -0.02739  -0.00927  -0.03879   2.62519
    R7        2.58856   0.00263   0.02291   0.00856   0.03147   2.62002
    R8        2.56286   0.00021  -0.01248   0.00651  -0.00168   2.56118
    R9        2.59010   0.00163   0.00342   0.01051   0.01676   2.60686
   R10        2.23917  -0.00141  -0.01136   0.00601  -0.00535   2.23382
    A1        1.98526   0.00052  -0.02241   0.00437  -0.01486   1.97040
    A2        1.91266   0.00007   0.00244  -0.00023   0.00642   1.91908
    A3        1.81226  -0.00035   0.01620   0.00735   0.00593   1.81819
    A4        1.92974  -0.00021  -0.00656  -0.00077  -0.00919   1.92055
    A5        1.90602   0.00022   0.00922  -0.00295   0.01236   1.91838
    A6        1.91387  -0.00026   0.00336  -0.00791   0.00069   1.91455
    A7        2.03237  -0.00042   0.01257  -0.00488   0.01243   2.04479
    A8        1.81109   0.00088   0.01529   0.01432   0.01000   1.82109
    A9        1.92608   0.00046  -0.02729   0.00492  -0.01894   1.90714
   A10        1.91032  -0.00053   0.01142  -0.01054   0.00775   1.91807
   A11        1.87252  -0.00000  -0.01591  -0.00394  -0.02197   1.85055
   A12        1.90916  -0.00040   0.00586   0.00056   0.01259   1.92175
   A13        1.92091  -0.00066  -0.00571   0.00768  -0.00429   1.91662
   A14        2.18925   0.00058   0.00755  -0.00075   0.00901   2.19826
   A15        2.17239   0.00012  -0.00311  -0.00575  -0.00649   2.16590
   A16        1.91423   0.00054   0.01923   0.00165   0.00843   1.92266
   A17        1.93259  -0.00015   0.02593  -0.00399   0.00415   1.93674
    D1        0.20175  -0.00023  -0.23808  -0.08641  -0.32455  -0.12280
    D2        2.30174  -0.00051  -0.20596  -0.09215  -0.29991   2.00184
    D3       -1.93777  -0.00029  -0.20340  -0.08145  -0.28881  -2.22658
    D4        2.37165  -0.00009  -0.26142  -0.08440  -0.34240   2.02925
    D5       -1.81154  -0.00036  -0.22930  -0.09014  -0.31776  -2.12929
    D6        0.23213  -0.00014  -0.22674  -0.07944  -0.30666  -0.07453
    D7       -1.86798  -0.00054  -0.24801  -0.08979  -0.33545  -2.20343
    D8        0.23201  -0.00082  -0.21589  -0.09553  -0.31081  -0.07879
    D9        2.27568  -0.00059  -0.21333  -0.08483  -0.29971   1.97597
   D10       -0.22935   0.00093   0.15018   0.08511   0.23391   0.00456
   D11       -2.35282   0.00041   0.16277   0.07734   0.24172  -2.11110
   D12        1.81336   0.00070   0.16297   0.08509   0.24482   2.05818
   D13       -0.16270   0.00054   0.21177   0.07916   0.28974   0.12704
   D14        2.01806   0.00027   0.24179   0.07621   0.31526   2.33332
   D15       -2.21815  -0.00027   0.23256   0.06568   0.30049  -1.91765
   D16        0.13902  -0.00056  -0.02352  -0.03878  -0.06490   0.07412
   D17       -3.03948   0.00063  -0.09425  -0.00435  -0.10031  -3.13979
   D18        0.02488  -0.00001  -0.12682  -0.02967  -0.15655  -0.13167
   D19       -3.08024  -0.00120  -0.05692  -0.06381  -0.12233   3.08062
         Item               Value     Threshold  Converged?
 Maximum Force            0.002630     0.000450     NO 
 RMS     Force            0.000729     0.000300     NO 
 Maximum Displacement     0.400404     0.001800     NO 
 RMS     Displacement     0.127421     0.001200     NO 
 Predicted change in Energy=-1.058546D-03
 GradGradGradGradGradGradGradGradGradGradGradGradGradGradGradGradGradGrad

                          Input orientation:                          
 ---------------------------------------------------------------------
 Center     Atomic      Atomic             Coordinates (Angstroms)
 Number     Number       Type             X           Y           Z
 ---------------------------------------------------------------------
      1          6           0       -0.846275    0.586135    0.118861
      2          6           0        0.549194    0.851265   -0.480257
      3          6           0       -0.416375    2.825985    0.130073
      4          1           0       -1.526024    0.107025   -0.585450
      5          1           0       -0.755132   -0.018762    1.019762
      6          1           0        0.751683    0.441692   -1.466964
      7          8           0       -1.332805    1.882801    0.457860
      8          8           0        0.652108    2.236252   -0.513013
      9          8           0       -0.531799    3.991345    0.291126
     10          9           0        1.516194    0.321186    0.360095
 ---------------------------------------------------------------------
                    Distance matrix (angstroms):
                    1          2          3          4          5
     1  C    0.000000
     2  C    1.541613   0.000000
     3  C    2.280761   2.281303   0.000000
     4  H    1.089798   2.207145   3.022588   0.000000
     5  H    1.088958   2.169855   2.999815   1.785161   0.000000
     6  H    2.255920   1.087356   3.098345   2.465161   2.943861
     7  O    1.425824   2.342231   1.355318   2.068625   2.065280
     8  O    2.316744   1.389191   1.379492   3.046820   3.068357
     9  O    3.424037   3.409352   1.182085   4.104243   4.081881
    10  F    2.389488   1.386457   3.172026   3.192963   2.389487
                    6          7          8          9         10
     6  H    0.000000
     7  O    3.182268   0.000000
     8  O    2.034793   2.237722   0.000000
     9  O    4.163921   2.261718   2.264647   0.000000
    10  F    1.984224   3.250384   2.275179   4.203463   0.000000
 Stoichiometry    C3H3FO3
 Framework group  C1[X(C3H3FO3)]
 Deg. of freedom    24
 Full point group                 C1      NOp   1
 Largest Abelian subgroup         C1      NOp   1
 Largest concise Abelian subgroup C1      NOp   1
                         Standard orientation:                         
 ---------------------------------------------------------------------
 Center     Atomic      Atomic             Coordinates (Angstroms)
 Number     Number       Type             X           Y           Z
 ---------------------------------------------------------------------
      1          6           0        0.653005    1.246341    0.109724
      2          6           0        1.087348   -0.196840    0.433984
      3          6           0       -1.145053   -0.149496   -0.033443
      4          1           0        0.816390    1.934675    0.938676
      5          1           0        1.174597    1.600853   -0.778021
      6          1           0        1.606394   -0.359240    1.375557
      7          8           0       -0.742133    1.137962   -0.163805
      8          8           0       -0.095681   -0.924795    0.414584
      9          8           0       -2.244012   -0.552771   -0.197707
     10          9           0        1.942824   -0.651054   -0.558042
 ---------------------------------------------------------------------
 Rotational constants (GHZ):           5.7191461           2.3340347           1.8444718
 Standard basis: 6-311+G(d,p) (5D, 7F)
 There are   179 symmetry adapted cartesian basis functions of A   symmetry.
 There are   172 symmetry adapted basis functions of A   symmetry.
   172 basis functions,   276 primitive gaussians,   179 cartesian basis functions
    27 alpha electrons       27 beta electrons
       nuclear repulsion energy       320.7822905709 Hartrees.
 NAtoms=   10 NActive=   10 NUniq=   10 SFac= 1.00D+00 NAtFMM=   60 NAOKFM=F Big=F
 Integral buffers will be    131072 words long.
 Raffenetti 2 integral format.
 Two-electron integral symmetry is turned on.
 One-electron integrals computed using PRISM.
 NBasis=   172 RedAO= T EigKep=  7.83D-05  NBF=   172
 NBsUse=   172 1.00D-06 EigRej= -1.00D+00 NBFU=   172
 Initial guess from the checkpoint file:  "FEC.chk"
 B after Tr=     0.000000    0.000000   -0.000000
         Rot=    0.999935   -0.002814   -0.004351    0.010183 Ang=  -1.31 deg.
 ExpMin= 4.38D-02 ExpMax= 1.14D+04 ExpMxC= 1.72D+03 IAcc=2 IRadAn=         4 AccDes= 0.00D+00
 Harris functional with IExCor=  402 and IRadAn=       4 diagonalized for initial guess.
 HarFok:  IExCor=  402 AccDes= 0.00D+00 IRadAn=         4 IDoV= 1 UseB2=F ITyADJ=14
 ICtDFT=  3500011 ScaDFX=  1.000000  1.000000  1.000000  1.000000
 FoFCou: FMM=F IPFlag=           0 FMFlag=      100000 FMFlg1=           0
         NFxFlg=           0 DoJE=T BraDBF=F KetDBF=T FulRan=T
         wScrn=  0.000000 ICntrl=       500 IOpCl=  0 I1Cent=   200000004 NGrid=           0
         NMat0=    1 NMatS0=      1 NMatT0=    0 NMatD0=    1 NMtDS0=    0 NMtDT0=    0
 Petite list used in FoFCou.
 Keep R1 ints in memory in canonical form, NReq=118719167.
 Requested convergence on RMS density matrix=1.00D-08 within 128 cycles.
 Requested convergence on MAX density matrix=1.00D-06.
 Requested convergence on             energy=1.00D-06.
 No special actions if energy rises.
 SCF Done:  E(RB3LYP) =  -441.777624061     A.U. after   12 cycles
            NFock= 12  Conv=0.39D-08     -V/T= 2.0031
 Calling FoFJK, ICntrl=      2127 FMM=F ISym2X=0 I1Cent= 0 IOpClX= 0 NMat=1 NMatS=1 NMatT=0.
 ***** Axes restored to original set *****
 -------------------------------------------------------------------
 Center     Atomic                   Forces (Hartrees/Bohr)
 Number     Number              X              Y              Z
 -------------------------------------------------------------------
      1        6           0.003785572   -0.004094206   -0.003438470
      2        6          -0.002514688   -0.005258296    0.004168899
      3        6          -0.004036084   -0.000033083   -0.006434954
      4        1          -0.000970703    0.001592180   -0.000742393
      5        1          -0.000454941   -0.000367354    0.000706237
      6        1          -0.001430373    0.000024709   -0.001339149
      7        8           0.002878087    0.002309327    0.002398787
      8        8           0.001433311    0.002266791    0.001394586
      9        8           0.000756946    0.001218968    0.002840589
     10        9           0.000552872    0.002340964    0.000445869
 -------------------------------------------------------------------
 Cartesian Forces:  Max     0.006434954 RMS     0.002615967

 GradGradGradGradGradGradGradGradGradGradGradGradGradGradGradGradGradGrad
 Berny optimization.
 Using GEDIIS/GDIIS optimizer.
 FormGI is forming the generalized inverse of G from B-inverse, IUseBI=4.
 Internal  Forces:  Max     0.003351347 RMS     0.001306099
 Search for a local minimum.
 Step number   8 out of a maximum of   56
 All quantities printed in internal units (Hartrees-Bohrs-Radians)
 Mixed Optimization -- RFO/linear search
 Update second derivatives using D2CorX and points    7    8
 DE= -1.61D-03 DEPred=-1.06D-03 R= 1.52D+00
 TightC=F SS=  1.41D+00  RLast= 1.18D+00 DXNew= 2.4000D+00 3.5442D+00
 Trust test= 1.52D+00 RLast= 1.18D+00 DXMaxT set to 2.40D+00
 ITU=  1  1  1  0  1  1  1  0
 Use linear search instead of GDIIS.
     Eigenvalues ---    0.00067   0.01197   0.04454   0.05472   0.06181
     Eigenvalues ---    0.06880   0.10155   0.10948   0.11383   0.15367
     Eigenvalues ---    0.16847   0.22900   0.24048   0.25055   0.30578
     Eigenvalues ---    0.35577   0.36976   0.37232   0.37276   0.37757
     Eigenvalues ---    0.40043   0.43543   0.53546   0.95055
 RFO step:  Lambda=-8.00067578D-04 EMin= 6.68512941D-04
 Quartic linear search produced a step of  0.49172.
 Iteration  1 RMS(Cart)=  0.08369992 RMS(Int)=  0.01322666
 Iteration  2 RMS(Cart)=  0.01105059 RMS(Int)=  0.00445312
 Iteration  3 RMS(Cart)=  0.00009571 RMS(Int)=  0.00445217
 Iteration  4 RMS(Cart)=  0.00000006 RMS(Int)=  0.00445217
 Variable       Old X    -DE/DX   Delta X   Delta X   Delta X     New X
                                 (Linear)    (Quad)   (Total)
    R1        2.91323  -0.00335   0.00763  -0.00957  -0.00533   2.90790
    R2        2.05942   0.00038   0.00172   0.00136   0.00309   2.06251
    R3        2.05783   0.00075  -0.00244   0.00092  -0.00152   2.05631
    R4        2.69442   0.00252  -0.00630   0.00586  -0.00076   2.69366
    R5        2.05481   0.00094  -0.00272   0.00147  -0.00125   2.05356
    R6        2.62519   0.00319  -0.01907   0.00431  -0.01605   2.60914
    R7        2.62002  -0.00024   0.01547   0.00334   0.01881   2.63883
    R8        2.56118  -0.00117  -0.00083  -0.00621  -0.00398   2.55720
    R9        2.60686  -0.00008   0.00824  -0.00130   0.00934   2.61620
   R10        2.23382   0.00151  -0.00263   0.00063  -0.00200   2.23181
    A1        1.97040   0.00107  -0.00731  -0.00054  -0.00559   1.96482
    A2        1.91908   0.00026   0.00316   0.00917   0.01597   1.93506
    A3        1.81819  -0.00116   0.00292  -0.00689  -0.01781   1.80038
    A4        1.92055   0.00012  -0.00452   0.00679   0.00091   1.92146
    A5        1.91838  -0.00019   0.00608  -0.00872   0.00164   1.92002
    A6        1.91455  -0.00019   0.00034  -0.00064   0.00422   1.91877
    A7        2.04479  -0.00118   0.00611  -0.00881   0.00130   2.04610
    A8        1.82109   0.00083   0.00492   0.00041  -0.00922   1.81186
    A9        1.90714   0.00110  -0.00932   0.00507  -0.00184   1.90530
   A10        1.91807  -0.00035   0.00381   0.00048   0.00993   1.92800
   A11        1.85055   0.00104  -0.01080   0.01339   0.00109   1.85164
   A12        1.92175  -0.00159   0.00619  -0.01182  -0.00149   1.92026
   A13        1.91662  -0.00117  -0.00211  -0.00663  -0.01326   1.90336
   A14        2.19826   0.00028   0.00443   0.00340   0.00996   2.20822
   A15        2.16590   0.00114  -0.00319   0.00489   0.00384   2.16974
   A16        1.92266   0.00177   0.00414   0.00858   0.00231   1.92496
   A17        1.93674  -0.00018   0.00204   0.00093  -0.00978   1.92696
    D1       -0.12280  -0.00040  -0.15959  -0.07452  -0.23417  -0.35697
    D2        2.00184  -0.00094  -0.14747  -0.07904  -0.22766   1.77418
    D3       -2.22658  -0.00182  -0.14201  -0.09014  -0.23506  -2.46164
    D4        2.02925   0.00071  -0.16837  -0.05928  -0.22505   1.80420
    D5       -2.12929   0.00017  -0.15625  -0.06379  -0.21854  -2.34784
    D6       -0.07453  -0.00071  -0.15079  -0.07489  -0.22594  -0.30047
    D7       -2.20343  -0.00001  -0.16495  -0.05941  -0.22239  -2.42582
    D8       -0.07879  -0.00055  -0.15283  -0.06393  -0.21588  -0.29467
    D9        1.97597  -0.00143  -0.14738  -0.07502  -0.22328   1.75269
   D10        0.00456   0.00125   0.11502   0.06548   0.17888   0.18344
   D11       -2.11110   0.00075   0.11886   0.07458   0.19473  -1.91637
   D12        2.05818   0.00084   0.12039   0.07214   0.18982   2.24801
   D13        0.12704  -0.00019   0.14247   0.04256   0.18374   0.31077
   D14        2.33332  -0.00129   0.15502   0.03241   0.18519   2.51851
   D15       -1.91765  -0.00117   0.14776   0.04204   0.19152  -1.72614
   D16        0.07412  -0.00145  -0.03191  -0.04285  -0.07586  -0.00173
   D17       -3.13979   0.00245  -0.04933  -0.01769  -0.06717   3.07622
   D18       -0.13167   0.00121  -0.07698  -0.00224  -0.07817  -0.20984
   D19        3.08062  -0.00257  -0.06015  -0.02677  -0.08695   2.99367
         Item               Value     Threshold  Converged?
 Maximum Force            0.003351     0.000450     NO 
 RMS     Force            0.001306     0.000300     NO 
 Maximum Displacement     0.247916     0.001800     NO 
 RMS     Displacement     0.091385     0.001200     NO 
 Predicted change in Energy=-7.565595D-04
 GradGradGradGradGradGradGradGradGradGradGradGradGradGradGradGradGradGrad

                          Input orientation:                          
 ---------------------------------------------------------------------
 Center     Atomic      Atomic             Coordinates (Angstroms)
 Number     Number       Type             X           Y           Z
 ---------------------------------------------------------------------
      1          6           0       -0.848227    0.580514    0.113593
      2          6           0        0.544308    0.851268   -0.482580
      3          6           0       -0.409660    2.818437    0.130757
      4          1           0       -1.557702    0.212040   -0.629438
      5          1           0       -0.784320   -0.116090    0.947102
      6          1           0        0.789236    0.356623   -1.418660
      7          8           0       -1.255380    1.863536    0.582539
      8          8           0        0.575005    2.222755   -0.638823
      9          8           0       -0.512883    3.983463    0.294700
     10          9           0        1.520393    0.452378    0.432903
 ---------------------------------------------------------------------
                    Distance matrix (angstroms):
                    1          2          3          4          5
     1  C    0.000000
     2  C    1.538793   0.000000
     3  C    2.280555   2.270680   0.000000
     4  H    1.091432   2.201960   2.947745   0.000000
     5  H    1.088154   2.178309   3.068915   1.786413   0.000000
     6  H    2.253710   1.086697   3.146200   2.480301   2.880342
     7  O    1.425422   2.323369   1.353213   2.070682   2.067299
     8  O    2.299711   1.380699   1.384433   2.931126   3.135781
     9  O    3.424225   3.395948   1.181024   4.021108   4.160006
    10  F    2.393478   1.396411   3.068327   3.265119   2.428840
                    6          7          8          9         10
     6  H    0.000000
     7  O    3.233580   0.000000
     8  O    2.033836   2.229591   0.000000
     9  O    4.217237   2.264563   2.270475   0.000000
    10  F    1.992999   3.117479   2.275212   4.076993   0.000000
 Stoichiometry    C3H3FO3
 Framework group  C1[X(C3H3FO3)]
 Deg. of freedom    24
 Full point group                 C1      NOp   1
 Largest Abelian subgroup         C1      NOp   1
 Largest concise Abelian subgroup C1      NOp   1
                         Standard orientation:                         
 ---------------------------------------------------------------------
 Center     Atomic      Atomic             Coordinates (Angstroms)
 Number     Number       Type             X           Y           Z
 ---------------------------------------------------------------------
      1          6           0        0.684378    1.242798    0.168422
      2          6           0        1.093744   -0.215305    0.440892
      3          6           0       -1.126344   -0.129658   -0.028003
      4          1           0        0.747151    1.869216    1.059985
      5          1           0        1.284404    1.670776   -0.632130
      6          1           0        1.702754   -0.404706    1.320747
      7          8           0       -0.672953    1.125718   -0.250831
      8          8           0       -0.110680   -0.883850    0.534382
      9          8           0       -2.224951   -0.522890   -0.210348
     10          9           0        1.824856   -0.697125   -0.646899
 ---------------------------------------------------------------------
 Rotational constants (GHZ):           5.4953900           2.4008264           1.9267416
 Standard basis: 6-311+G(d,p) (5D, 7F)
 There are   179 symmetry adapted cartesian basis functions of A   symmetry.
 There are   172 symmetry adapted basis functions of A   symmetry.
   172 basis functions,   276 primitive gaussians,   179 cartesian basis functions
    27 alpha electrons       27 beta electrons
       nuclear repulsion energy       321.9620116807 Hartrees.
 NAtoms=   10 NActive=   10 NUniq=   10 SFac= 1.00D+00 NAtFMM=   60 NAOKFM=F Big=F
 Integral buffers will be    131072 words long.
 Raffenetti 2 integral format.
 Two-electron integral symmetry is turned on.
 One-electron integrals computed using PRISM.
 NBasis=   172 RedAO= T EigKep=  8.06D-05  NBF=   172
 NBsUse=   172 1.00D-06 EigRej= -1.00D+00 NBFU=   172
 Initial guess from the checkpoint file:  "FEC.chk"
 B after Tr=    -0.000000   -0.000000    0.000000
         Rot=    0.999920    0.002936   -0.004237    0.011554 Ang=   1.45 deg.
 ExpMin= 4.38D-02 ExpMax= 1.14D+04 ExpMxC= 1.72D+03 IAcc=2 IRadAn=         4 AccDes= 0.00D+00
 Harris functional with IExCor=  402 and IRadAn=       4 diagonalized for initial guess.
 HarFok:  IExCor=  402 AccDes= 0.00D+00 IRadAn=         4 IDoV= 1 UseB2=F ITyADJ=14
 ICtDFT=  3500011 ScaDFX=  1.000000  1.000000  1.000000  1.000000
 FoFCou: FMM=F IPFlag=           0 FMFlag=      100000 FMFlg1=           0
         NFxFlg=           0 DoJE=T BraDBF=F KetDBF=T FulRan=T
         wScrn=  0.000000 ICntrl=       500 IOpCl=  0 I1Cent=   200000004 NGrid=           0
         NMat0=    1 NMatS0=      1 NMatT0=    0 NMatD0=    1 NMtDS0=    0 NMtDT0=    0
 Petite list used in FoFCou.
 Keep R1 ints in memory in canonical form, NReq=118719167.
 Requested convergence on RMS density matrix=1.00D-08 within 128 cycles.
 Requested convergence on MAX density matrix=1.00D-06.
 Requested convergence on             energy=1.00D-06.
 No special actions if energy rises.
 SCF Done:  E(RB3LYP) =  -441.778356191     A.U. after   11 cycles
            NFock= 11  Conv=0.85D-08     -V/T= 2.0031
 Calling FoFJK, ICntrl=      2127 FMM=F ISym2X=0 I1Cent= 0 IOpClX= 0 NMat=1 NMatS=1 NMatT=0.
 ***** Axes restored to original set *****
 -------------------------------------------------------------------
 Center     Atomic                   Forces (Hartrees/Bohr)
 Number     Number              X              Y              Z
 -------------------------------------------------------------------
      1        6           0.006090047   -0.004557654   -0.003305155
      2        6          -0.002587499   -0.009322167    0.006371338
      3        6          -0.003349274   -0.003314145   -0.006596373
      4        1          -0.000449163    0.001716889   -0.000703511
      5        1          -0.000628594    0.000350632    0.001000514
      6        1          -0.001439138    0.000465190   -0.001536508
      7        8          -0.000716261    0.003088745    0.003624912
      8        8           0.004172957    0.006887873    0.000797014
      9        8           0.000701097    0.001716750    0.002420720
     10        9          -0.001794172    0.002967887   -0.002072951
 -------------------------------------------------------------------
 Cartesian Forces:  Max     0.009322167 RMS     0.003618518

 GradGradGradGradGradGradGradGradGradGradGradGradGradGradGradGradGradGrad
 Berny optimization.
 Using GEDIIS/GDIIS optimizer.
 FormGI is forming the generalized inverse of G from B-inverse, IUseBI=4.
 Internal  Forces:  Max     0.005784242 RMS     0.001609061
 Search for a local minimum.
 Step number   9 out of a maximum of   56
 All quantities printed in internal units (Hartrees-Bohrs-Radians)
 Mixed Optimization -- RFO/linear search
 Update second derivatives using D2CorX and points    8    9
 DE= -7.32D-04 DEPred=-7.57D-04 R= 9.68D-01
 TightC=F SS=  1.41D+00  RLast= 8.33D-01 DXNew= 4.0363D+00 2.4990D+00
 Trust test= 9.68D-01 RLast= 8.33D-01 DXMaxT set to 2.50D+00
 ITU=  1  1  1  1  0  1  1  1  0
 Use linear search instead of GDIIS.
     Eigenvalues ---    0.00163   0.01224   0.04425   0.05360   0.05963
     Eigenvalues ---    0.06953   0.09520   0.10759   0.10951   0.13628
     Eigenvalues ---    0.16407   0.22445   0.23127   0.25026   0.29394
     Eigenvalues ---    0.34973   0.36870   0.37221   0.37233   0.37754
     Eigenvalues ---    0.40159   0.41806   0.54235   0.94901
 RFO step:  Lambda=-6.44942683D-04 EMin= 1.63047316D-03
 Quartic linear search produced a step of -0.01929.
 Iteration  1 RMS(Cart)=  0.01348614 RMS(Int)=  0.00021521
 Iteration  2 RMS(Cart)=  0.00020488 RMS(Int)=  0.00006467
 Iteration  3 RMS(Cart)=  0.00000002 RMS(Int)=  0.00006467
 Variable       Old X    -DE/DX   Delta X   Delta X   Delta X     New X
                                 (Linear)    (Quad)   (Total)
    R1        2.90790  -0.00405   0.00010  -0.01490  -0.01477   2.89313
    R2        2.06251   0.00019  -0.00006   0.00106   0.00100   2.06351
    R3        2.05631   0.00051   0.00003   0.00151   0.00154   2.05785
    R4        2.69366   0.00320   0.00001   0.00811   0.00810   2.70176
    R5        2.05356   0.00079   0.00002   0.00239   0.00241   2.05597
    R6        2.60914   0.00578   0.00031   0.01385   0.01420   2.62334
    R7        2.63883  -0.00346  -0.00036  -0.00463  -0.00499   2.63385
    R8        2.55720   0.00014   0.00008  -0.00265  -0.00261   2.55459
    R9        2.61620  -0.00005  -0.00018  -0.00134  -0.00152   2.61468
   R10        2.23181   0.00197   0.00004   0.00090   0.00094   2.23275
    A1        1.96482   0.00021   0.00011  -0.00259  -0.00256   1.96225
    A2        1.93506   0.00051  -0.00031   0.01320   0.01288   1.94794
    A3        1.80038   0.00010   0.00034  -0.00398  -0.00367   1.79671
    A4        1.92146   0.00046  -0.00002   0.00850   0.00841   1.92988
    A5        1.92002  -0.00066  -0.00003  -0.01283  -0.01292   1.90710
    A6        1.91877  -0.00069  -0.00008  -0.00360  -0.00365   1.91512
    A7        2.04610  -0.00081  -0.00003  -0.00778  -0.00783   2.03826
    A8        1.81186   0.00139   0.00018   0.00436   0.00459   1.81646
    A9        1.90530   0.00071   0.00004   0.00769   0.00775   1.91305
   A10        1.92800  -0.00070  -0.00019  -0.00400  -0.00419   1.92381
   A11        1.85164   0.00103  -0.00002   0.01287   0.01284   1.86448
   A12        1.92026  -0.00180   0.00003  -0.01473  -0.01474   1.90552
   A13        1.90336   0.00125   0.00026   0.00220   0.00220   1.90556
   A14        2.20822  -0.00106  -0.00019  -0.00185  -0.00220   2.20602
   A15        2.16974   0.00001  -0.00007   0.00173   0.00150   2.17124
   A16        1.92496  -0.00037  -0.00004   0.00017  -0.00002   1.92494
   A17        1.92696  -0.00218   0.00019  -0.00483  -0.00465   1.92232
    D1       -0.35697  -0.00021   0.00452  -0.03086  -0.02636  -0.38333
    D2        1.77418  -0.00055   0.00439  -0.03742  -0.03302   1.74116
    D3       -2.46164  -0.00159   0.00453  -0.04863  -0.04410  -2.50575
    D4        1.80420   0.00093   0.00434  -0.01166  -0.00730   1.79690
    D5       -2.34784   0.00059   0.00422  -0.01822  -0.01396  -2.36180
    D6       -0.30047  -0.00044   0.00436  -0.02943  -0.02505  -0.32552
    D7       -2.42582   0.00041   0.00429  -0.01193  -0.00763  -2.43345
    D8       -0.29467   0.00007   0.00416  -0.01850  -0.01429  -0.30897
    D9        1.75269  -0.00096   0.00431  -0.02971  -0.02537   1.72731
   D10        0.18344   0.00076  -0.00345   0.03850   0.03506   0.21850
   D11       -1.91637   0.00078  -0.00376   0.04995   0.04617  -1.87020
   D12        2.24801   0.00109  -0.00366   0.05001   0.04634   2.29434
   D13        0.31077  -0.00084  -0.00354  -0.00628  -0.00980   0.30097
   D14        2.51851  -0.00134  -0.00357  -0.01524  -0.01879   2.49972
   D15       -1.72614  -0.00158  -0.00369  -0.01076  -0.01441  -1.74055
   D16       -0.00173  -0.00092   0.00146  -0.04354  -0.04215  -0.04388
   D17        3.07622   0.00251   0.00130  -0.00811  -0.00690   3.06932
   D18       -0.20984   0.00165   0.00151   0.03248   0.03398  -0.17586
   D19        2.99367  -0.00165   0.00168  -0.00183  -0.00024   2.99343
         Item               Value     Threshold  Converged?
 Maximum Force            0.005784     0.000450     NO 
 RMS     Force            0.001609     0.000300     NO 
 Maximum Displacement     0.046735     0.001800     NO 
 RMS     Displacement     0.013494     0.001200     NO 
 Predicted change in Energy=-3.272596D-04
 GradGradGradGradGradGradGradGradGradGradGradGradGradGradGradGradGradGrad

                          Input orientation:                          
 ---------------------------------------------------------------------
 Center     Atomic      Atomic             Coordinates (Angstroms)
 Number     Number       Type             X           Y           Z
 ---------------------------------------------------------------------
      1          6           0       -0.841904    0.574911    0.114947
      2          6           0        0.543760    0.845318   -0.477255
      3          6           0       -0.413746    2.817376    0.121454
      4          1           0       -1.557676    0.236771   -0.637193
      5          1           0       -0.793568   -0.131645    0.942168
      6          1           0        0.780124    0.351189   -1.417283
      7          8           0       -1.239067    1.859749    0.600249
      8          8           0        0.579313    2.223797   -0.637442
      9          8           0       -0.521704    3.982381    0.286075
     10          9           0        1.525239    0.465076    0.436372
 ---------------------------------------------------------------------
                    Distance matrix (angstroms):
                    1          2          3          4          5
     1  C    0.000000
     2  C    1.530976   0.000000
     3  C    2.282983   2.272507   0.000000
     4  H    1.091963   2.193615   2.922951   0.000000
     5  H    1.088969   2.181207   3.084568   1.792756   0.000000
     6  H    2.242489   1.087973   3.142470   2.467173   2.876916
     7  O    1.429708   2.317015   1.351832   2.065632   2.069064
     8  O    2.303209   1.388211   1.383627   2.918046   3.150885
     9  O    3.426757   3.399861   1.181521   3.994403   4.174874
    10  F    2.391390   1.393771   3.064662   3.272466   2.447197
                    6          7          8          9         10
     6  H    0.000000
     7  O    3.228517   0.000000
     8  O    2.038416   2.229554   0.000000
     9  O    4.216841   2.262494   2.271066   0.000000
    10  F    2.001051   3.100541   2.267367   4.072346   0.000000
 Stoichiometry    C3H3FO3
 Framework group  C1[X(C3H3FO3)]
 Deg. of freedom    24
 Full point group                 C1      NOp   1
 Largest Abelian subgroup         C1      NOp   1
 Largest concise Abelian subgroup C1      NOp   1
                         Standard orientation:                         
 ---------------------------------------------------------------------
 Center     Atomic      Atomic             Coordinates (Angstroms)
 Number     Number       Type             X           Y           Z
 ---------------------------------------------------------------------
      1          6           0        0.690776    1.241154    0.175788
      2          6           0        1.096653   -0.211224    0.439892
      3          6           0       -1.127330   -0.125752   -0.019327
      4          1           0        0.721856    1.853335    1.079475
      5          1           0        1.295160    1.689666   -0.611237
      6          1           0        1.699462   -0.398427    1.326041
      7          8           0       -0.663671    1.119962   -0.265631
      8          8           0       -0.111806   -0.888501    0.529627
      9          8           0       -2.227548   -0.513932   -0.205950
     10          9           0        1.816348   -0.701096   -0.648530
 ---------------------------------------------------------------------
 Rotational constants (GHZ):           5.5017968           2.4044260           1.9312364
 Standard basis: 6-311+G(d,p) (5D, 7F)
 There are   179 symmetry adapted cartesian basis functions of A   symmetry.
 There are   172 symmetry adapted basis functions of A   symmetry.
   172 basis functions,   276 primitive gaussians,   179 cartesian basis functions
    27 alpha electrons       27 beta electrons
       nuclear repulsion energy       322.0678293810 Hartrees.
 NAtoms=   10 NActive=   10 NUniq=   10 SFac= 1.00D+00 NAtFMM=   60 NAOKFM=F Big=F
 Integral buffers will be    131072 words long.
 Raffenetti 2 integral format.
 Two-electron integral symmetry is turned on.
 One-electron integrals computed using PRISM.
 NBasis=   172 RedAO= T EigKep=  7.88D-05  NBF=   172
 NBsUse=   172 1.00D-06 EigRej= -1.00D+00 NBFU=   172
 Initial guess from the checkpoint file:  "FEC.chk"
 B after Tr=     0.000000    0.000000   -0.000000
         Rot=    0.999999   -0.000229   -0.000059    0.001280 Ang=  -0.15 deg.
 ExpMin= 4.38D-02 ExpMax= 1.14D+04 ExpMxC= 1.72D+03 IAcc=2 IRadAn=         4 AccDes= 0.00D+00
 Harris functional with IExCor=  402 and IRadAn=       4 diagonalized for initial guess.
 HarFok:  IExCor=  402 AccDes= 0.00D+00 IRadAn=         4 IDoV= 1 UseB2=F ITyADJ=14
 ICtDFT=  3500011 ScaDFX=  1.000000  1.000000  1.000000  1.000000
 FoFCou: FMM=F IPFlag=           0 FMFlag=      100000 FMFlg1=           0
         NFxFlg=           0 DoJE=T BraDBF=F KetDBF=T FulRan=T
         wScrn=  0.000000 ICntrl=       500 IOpCl=  0 I1Cent=   200000004 NGrid=           0
         NMat0=    1 NMatS0=      1 NMatT0=    0 NMatD0=    1 NMtDS0=    0 NMtDT0=    0
 Petite list used in FoFCou.
 Keep R1 ints in memory in canonical form, NReq=118719167.
 Requested convergence on RMS density matrix=1.00D-08 within 128 cycles.
 Requested convergence on MAX density matrix=1.00D-06.
 Requested convergence on             energy=1.00D-06.
 No special actions if energy rises.
 SCF Done:  E(RB3LYP) =  -441.778777863     A.U. after   10 cycles
            NFock= 10  Conv=0.57D-08     -V/T= 2.0031
 Calling FoFJK, ICntrl=      2127 FMM=F ISym2X=0 I1Cent= 0 IOpClX= 0 NMat=1 NMatS=1 NMatT=0.
 ***** Axes restored to original set *****
 -------------------------------------------------------------------
 Center     Atomic                   Forces (Hartrees/Bohr)
 Number     Number              X              Y              Z
 -------------------------------------------------------------------
      1        6           0.002234415   -0.000984689   -0.001864623
      2        6           0.001352993   -0.004789628    0.004258430
      3        6           0.000051820   -0.003127978   -0.002511832
      4        1           0.000213134    0.000339353   -0.000225288
      5        1          -0.000340593    0.000550885    0.000052956
      6        1          -0.000418646    0.000445611   -0.000359746
      7        8          -0.002093323    0.001338922    0.002899552
      8        8           0.000961130    0.003426778   -0.000709123
      9        8          -0.000015604    0.001806881    0.000761179
     10        9          -0.001945326    0.000993866   -0.002301505
 -------------------------------------------------------------------
 Cartesian Forces:  Max     0.004789628 RMS     0.001925638

 GradGradGradGradGradGradGradGradGradGradGradGradGradGradGradGradGradGrad
 Berny optimization.
 Using GEDIIS/GDIIS optimizer.
 FormGI is forming the generalized inverse of G from B-inverse, IUseBI=4.
 Internal  Forces:  Max     0.003150126 RMS     0.000877872
 Search for a local minimum.
 Step number  10 out of a maximum of   56
 All quantities printed in internal units (Hartrees-Bohrs-Radians)
 Mixed Optimization -- En-DIIS/RFO-DIIS
 Update second derivatives using D2CorX and points    9   10
 DE= -4.22D-04 DEPred=-3.27D-04 R= 1.29D+00
 TightC=F SS=  1.41D+00  RLast= 1.27D-01 DXNew= 4.2028D+00 3.8181D-01
 Trust test= 1.29D+00 RLast= 1.27D-01 DXMaxT set to 2.50D+00
 ITU=  1  1  1  1  1  0  1  1  1  0
 Use linear search instead of GDIIS.
     Eigenvalues ---    0.00163   0.01144   0.04480   0.04992   0.05868
     Eigenvalues ---    0.06986   0.09119   0.10694   0.10986   0.13500
     Eigenvalues ---    0.16329   0.21410   0.24218   0.24955   0.29122
     Eigenvalues ---    0.34059   0.36992   0.37109   0.37268   0.37764
     Eigenvalues ---    0.37890   0.40446   0.53274   0.94574
 RFO step:  Lambda=-1.31118381D-04 EMin= 1.62680089D-03
 Quartic linear search produced a step of  0.43991.
 Iteration  1 RMS(Cart)=  0.01059201 RMS(Int)=  0.00015567
 Iteration  2 RMS(Cart)=  0.00014816 RMS(Int)=  0.00007884
 Iteration  3 RMS(Cart)=  0.00000002 RMS(Int)=  0.00007884
 Variable       Old X    -DE/DX   Delta X   Delta X   Delta X     New X
                                 (Linear)    (Quad)   (Total)
    R1        2.89313  -0.00115  -0.00650  -0.00293  -0.00944   2.88369
    R2        2.06351  -0.00009   0.00044  -0.00046  -0.00002   2.06349
    R3        2.05785  -0.00033   0.00068  -0.00199  -0.00132   2.05654
    R4        2.70176   0.00165   0.00356   0.00311   0.00663   2.70838
    R5        2.05597   0.00002   0.00106  -0.00080   0.00026   2.05623
    R6        2.62334   0.00260   0.00624   0.00490   0.01119   2.63453
    R7        2.63385  -0.00315  -0.00219  -0.00590  -0.00809   2.62576
    R8        2.55459   0.00075  -0.00115   0.00451   0.00334   2.55793
    R9        2.61468   0.00005  -0.00067   0.00264   0.00200   2.61667
   R10        2.23275   0.00189   0.00041   0.00319   0.00361   2.23636
    A1        1.96225  -0.00033  -0.00113  -0.00439  -0.00553   1.95672
    A2        1.94794  -0.00001   0.00567   0.00089   0.00663   1.95456
    A3        1.79671   0.00112  -0.00161   0.00586   0.00403   1.80075
    A4        1.92988   0.00026   0.00370  -0.00043   0.00322   1.93310
    A5        1.90710  -0.00031  -0.00569   0.00424  -0.00137   1.90573
    A6        1.91512  -0.00072  -0.00160  -0.00583  -0.00740   1.90773
    A7        2.03826  -0.00012  -0.00345  -0.00350  -0.00695   2.03132
    A8        1.81646  -0.00014   0.00202  -0.00305  -0.00119   1.81527
    A9        1.91305   0.00051   0.00341   0.00545   0.00889   1.92194
   A10        1.92381  -0.00027  -0.00184  -0.00619  -0.00805   1.91576
   A11        1.86448   0.00003   0.00565   0.00115   0.00680   1.87128
   A12        1.90552  -0.00000  -0.00649   0.00688   0.00044   1.90596
   A13        1.90556   0.00134   0.00097   0.00593   0.00665   1.91220
   A14        2.20602  -0.00084  -0.00097  -0.00321  -0.00425   2.20177
   A15        2.17124  -0.00049   0.00066  -0.00266  -0.00208   2.16916
   A16        1.92494  -0.00154  -0.00001  -0.01020  -0.01048   1.91446
   A17        1.92232  -0.00086  -0.00204  -0.00398  -0.00612   1.91620
    D1       -0.38333   0.00030  -0.01160   0.00180  -0.00982  -0.39314
    D2        1.74116  -0.00023  -0.01453  -0.01048  -0.02504   1.71611
    D3       -2.50575  -0.00007  -0.01940  -0.00161  -0.02105  -2.52680
    D4        1.79690   0.00038  -0.00321  -0.00146  -0.00465   1.79225
    D5       -2.36180  -0.00015  -0.00614  -0.01374  -0.01988  -2.38168
    D6       -0.32552   0.00001  -0.01102  -0.00488  -0.01588  -0.34140
    D7       -2.43345   0.00016  -0.00336  -0.00456  -0.00792  -2.44137
    D8       -0.30897  -0.00036  -0.00629  -0.01684  -0.02315  -0.33211
    D9        1.72731  -0.00020  -0.01116  -0.00797  -0.01915   1.70816
   D10        0.21850   0.00040   0.01542   0.01727   0.03265   0.25115
   D11       -1.87020   0.00033   0.02031   0.01725   0.03754  -1.83267
   D12        2.29434   0.00067   0.02038   0.01876   0.03905   2.33340
   D13        0.30097  -0.00001  -0.00431   0.00904   0.00471   0.30568
   D14        2.49972  -0.00041  -0.00826  -0.00071  -0.00899   2.49073
   D15       -1.74055  -0.00053  -0.00634   0.00117  -0.00515  -1.74569
   D16       -0.04388  -0.00015  -0.01854  -0.01135  -0.02987  -0.07375
   D17        3.06932   0.00051  -0.00304  -0.00910  -0.01211   3.05721
   D18       -0.17586   0.00021   0.01495   0.00084   0.01589  -0.15997
   D19        2.99343  -0.00042  -0.00011  -0.00134  -0.00142   2.99201
         Item               Value     Threshold  Converged?
 Maximum Force            0.003150     0.000450     NO 
 RMS     Force            0.000878     0.000300     NO 
 Maximum Displacement     0.039217     0.001800     NO 
 RMS     Displacement     0.010634     0.001200     NO 
 Predicted change in Energy=-1.101225D-04
 GradGradGradGradGradGradGradGradGradGradGradGradGradGradGradGradGradGrad

                          Input orientation:                          
 ---------------------------------------------------------------------
 Center     Atomic      Atomic             Coordinates (Angstroms)
 Number     Number       Type             X           Y           Z
 ---------------------------------------------------------------------
      1          6           0       -0.837561    0.574811    0.115808
      2          6           0        0.545746    0.840875   -0.470957
      3          6           0       -0.417070    2.814642    0.116733
      4          1           0       -1.552196    0.254617   -0.645203
      5          1           0       -0.801722   -0.139433    0.936117
      6          1           0        0.774106    0.347917   -1.413732
      7          8           0       -1.230297    1.857247    0.621002
      8          8           0        0.579433    2.224074   -0.641925
      9          8           0       -0.529312    3.981716    0.277498
     10          9           0        1.529645    0.468458    0.436751
 ---------------------------------------------------------------------
                    Distance matrix (angstroms):
                    1          2          3          4          5
     1  C    0.000000
     2  C    1.525982   0.000000
     3  C    2.278960   2.273357   0.000000
     4  H    1.091954   2.185273   2.902203   0.000000
     5  H    1.088272   2.180947   3.089644   1.794173   0.000000
     6  H    2.233482   1.088109   3.137826   2.451738   2.870982
     7  O    1.433216   2.319422   1.353599   2.067684   2.066326
     8  O    2.302629   1.394132   1.384684   2.902173   3.159742
     9  O    3.424641   3.403060   1.183429   3.973529   4.182326
    10  F    2.391230   1.389491   3.065402   3.273239   2.460522
                    6          7          8          9         10
     6  H    0.000000
     7  O    3.230457   0.000000
     8  O    2.038025   2.237112   0.000000
     9  O    4.214694   2.263347   2.272434   0.000000
    10  F    2.002412   3.095152   2.269060   4.075248   0.000000
 Stoichiometry    C3H3FO3
 Framework group  C1[X(C3H3FO3)]
 Deg. of freedom    24
 Full point group                 C1      NOp   1
 Largest Abelian subgroup         C1      NOp   1
 Largest concise Abelian subgroup C1      NOp   1
                         Standard orientation:                         
 ---------------------------------------------------------------------
 Center     Atomic      Atomic             Coordinates (Angstroms)
 Number     Number       Type             X           Y           Z
 ---------------------------------------------------------------------
      1          6           0        0.688762    1.237995    0.187478
      2          6           0        1.099818   -0.210521    0.435378
      3          6           0       -1.126671   -0.124563   -0.015741
      4          1           0        0.701670    1.831511    1.103958
      5          1           0        1.295450    1.707293   -0.584548
      6          1           0        1.696821   -0.398199    1.325515
      7          8           0       -0.661575    1.119291   -0.277933
      8          8           0       -0.111747   -0.894055    0.527547
      9          8           0       -2.229187   -0.511587   -0.203290
     10          9           0        1.817186   -0.696362   -0.650912
 ---------------------------------------------------------------------
 Rotational constants (GHZ):           5.5027755           2.4015060           1.9314106
 Standard basis: 6-311+G(d,p) (5D, 7F)
 There are   179 symmetry adapted cartesian basis functions of A   symmetry.
 There are   172 symmetry adapted basis functions of A   symmetry.
   172 basis functions,   276 primitive gaussians,   179 cartesian basis functions
    27 alpha electrons       27 beta electrons
       nuclear repulsion energy       321.9309006435 Hartrees.
 NAtoms=   10 NActive=   10 NUniq=   10 SFac= 1.00D+00 NAtFMM=   60 NAOKFM=F Big=F
 Integral buffers will be    131072 words long.
 Raffenetti 2 integral format.
 Two-electron integral symmetry is turned on.
 One-electron integrals computed using PRISM.
 NBasis=   172 RedAO= T EigKep=  7.78D-05  NBF=   172
 NBsUse=   172 1.00D-06 EigRej= -1.00D+00 NBFU=   172
 Initial guess from the checkpoint file:  "FEC.chk"
 B after Tr=    -0.000000    0.000000    0.000000
         Rot=    0.999998   -0.001768    0.000244   -0.000262 Ang=  -0.21 deg.
 ExpMin= 4.38D-02 ExpMax= 1.14D+04 ExpMxC= 1.72D+03 IAcc=2 IRadAn=         4 AccDes= 0.00D+00
 Harris functional with IExCor=  402 and IRadAn=       4 diagonalized for initial guess.
 HarFok:  IExCor=  402 AccDes= 0.00D+00 IRadAn=         4 IDoV= 1 UseB2=F ITyADJ=14
 ICtDFT=  3500011 ScaDFX=  1.000000  1.000000  1.000000  1.000000
 FoFCou: FMM=F IPFlag=           0 FMFlag=      100000 FMFlg1=           0
         NFxFlg=           0 DoJE=T BraDBF=F KetDBF=T FulRan=T
         wScrn=  0.000000 ICntrl=       500 IOpCl=  0 I1Cent=   200000004 NGrid=           0
         NMat0=    1 NMatS0=      1 NMatT0=    0 NMatD0=    1 NMtDS0=    0 NMtDT0=    0
 Petite list used in FoFCou.
 Keep R1 ints in memory in canonical form, NReq=118719167.
 Requested convergence on RMS density matrix=1.00D-08 within 128 cycles.
 Requested convergence on MAX density matrix=1.00D-06.
 Requested convergence on             energy=1.00D-06.
 No special actions if energy rises.
 SCF Done:  E(RB3LYP) =  -441.778885074     A.U. after   10 cycles
            NFock= 10  Conv=0.35D-08     -V/T= 2.0031
 Calling FoFJK, ICntrl=      2127 FMM=F ISym2X=0 I1Cent= 0 IOpClX= 0 NMat=1 NMatS=1 NMatT=0.
 ***** Axes restored to original set *****
 -------------------------------------------------------------------
 Center     Atomic                   Forces (Hartrees/Bohr)
 Number     Number              X              Y              Z
 -------------------------------------------------------------------
      1        6          -0.000225727   -0.000286110    0.000314491
      2        6           0.001871191   -0.001517992    0.001140277
      3        6           0.001062360    0.000779839    0.000304689
      4        1           0.000044306    0.000022265   -0.000005336
      5        1          -0.000140953   -0.000138658   -0.000067350
      6        1           0.000186819   -0.000041961   -0.000013062
      7        8           0.000457095    0.000526993   -0.000656738
      8        8          -0.001718550    0.000955854    0.000921551
      9        8          -0.000083833   -0.000954429   -0.000423920
     10        9          -0.001452709    0.000654199   -0.001514602
 -------------------------------------------------------------------
 Cartesian Forces:  Max     0.001871191 RMS     0.000832956

 GradGradGradGradGradGradGradGradGradGradGradGradGradGradGradGradGradGrad
 Berny optimization.
 Using GEDIIS/GDIIS optimizer.
 FormGI is forming the generalized inverse of G from B-inverse, IUseBI=4.
 Internal  Forces:  Max     0.002193926 RMS     0.000481741
 Search for a local minimum.
 Step number  11 out of a maximum of   56
 All quantities printed in internal units (Hartrees-Bohrs-Radians)
 Mixed Optimization -- En-DIIS/RFO-DIIS
 Swapping is turned off.
 Update second derivatives using D2CorX and points    9   10   11
 DE= -1.07D-04 DEPred=-1.10D-04 R= 9.74D-01
 TightC=F SS=  1.41D+00  RLast= 9.59D-02 DXNew= 4.2028D+00 2.8758D-01
 Trust test= 9.74D-01 RLast= 9.59D-02 DXMaxT set to 2.50D+00
 ITU=  1  1  1  1  1  1  0  1  1  1  0
     Eigenvalues ---    0.00169   0.01124   0.04439   0.04772   0.05820
     Eigenvalues ---    0.07017   0.08960   0.10880   0.11018   0.13426
     Eigenvalues ---    0.16229   0.23878   0.24893   0.25327   0.28242
     Eigenvalues ---    0.32478   0.36466   0.37192   0.37300   0.37319
     Eigenvalues ---    0.37968   0.40570   0.52601   0.96642
 En-DIIS/RFO-DIIS/Sim-DIIS IScMMF=       -3 using points:    11   10
 RFO step:  Lambda=-3.27081651D-05.
 DidBck=F Rises=F RFO-DIIS coefs:    0.95120    0.04880
 Iteration  1 RMS(Cart)=  0.00267585 RMS(Int)=  0.00000840
 Iteration  2 RMS(Cart)=  0.00000794 RMS(Int)=  0.00000370
 Iteration  3 RMS(Cart)=  0.00000000 RMS(Int)=  0.00000370
 Variable       Old X    -DE/DX   Delta X   Delta X   Delta X     New X
                                 (Linear)    (Quad)   (Total)
    R1        2.88369   0.00019   0.00046  -0.00061  -0.00015   2.88354
    R2        2.06349  -0.00003   0.00000  -0.00011  -0.00011   2.06339
    R3        2.05654   0.00004   0.00006   0.00027   0.00033   2.05687
    R4        2.70838   0.00037  -0.00032   0.00263   0.00231   2.71070
    R5        2.05623   0.00007  -0.00001   0.00061   0.00060   2.05683
    R6        2.63453   0.00073  -0.00055   0.00472   0.00417   2.63870
    R7        2.62576  -0.00219   0.00039  -0.00611  -0.00572   2.62004
    R8        2.55793  -0.00039  -0.00016  -0.00167  -0.00183   2.55610
    R9        2.61667  -0.00135  -0.00010  -0.00479  -0.00489   2.61179
   R10        2.23636  -0.00099  -0.00018  -0.00025  -0.00042   2.23593
    A1        1.95672  -0.00002   0.00027  -0.00112  -0.00085   1.95586
    A2        1.95456   0.00021  -0.00032   0.00287   0.00254   1.95711
    A3        1.80075  -0.00033  -0.00020   0.00015  -0.00005   1.80070
    A4        1.93310  -0.00010  -0.00016   0.00033   0.00017   1.93327
    A5        1.90573   0.00002   0.00007  -0.00303  -0.00296   1.90276
    A6        1.90773   0.00021   0.00036   0.00066   0.00101   1.90874
    A7        2.03132   0.00017   0.00034   0.00098   0.00133   2.03264
    A8        1.81527  -0.00057   0.00006  -0.00230  -0.00224   1.81303
    A9        1.92194   0.00033  -0.00043   0.00305   0.00261   1.92455
   A10        1.91576   0.00026   0.00039  -0.00101  -0.00062   1.91514
   A11        1.87128  -0.00019  -0.00033   0.00062   0.00028   1.87156
   A12        1.90596  -0.00000  -0.00002  -0.00161  -0.00162   1.90434
   A13        1.91220  -0.00032  -0.00032  -0.00093  -0.00126   1.91095
   A14        2.20177   0.00018   0.00021   0.00020   0.00041   2.20218
   A15        2.16916   0.00013   0.00010   0.00074   0.00085   2.17001
   A16        1.91446   0.00049   0.00051   0.00144   0.00196   1.91642
   A17        1.91620   0.00073   0.00030   0.00350   0.00380   1.92000
    D1       -0.39314   0.00002   0.00048   0.00342   0.00390  -0.38925
    D2        1.71611   0.00003   0.00122   0.00104   0.00226   1.71838
    D3       -2.52680  -0.00012   0.00103  -0.00065   0.00038  -2.52642
    D4        1.79225   0.00003   0.00023   0.00522   0.00545   1.79770
    D5       -2.38168   0.00005   0.00097   0.00285   0.00381  -2.37786
    D6       -0.34140  -0.00011   0.00078   0.00116   0.00193  -0.33947
    D7       -2.44137   0.00019   0.00039   0.00743   0.00782  -2.43355
    D8       -0.33211   0.00021   0.00113   0.00506   0.00618  -0.32593
    D9        1.70816   0.00005   0.00093   0.00337   0.00430   1.71246
   D10        0.25115  -0.00009  -0.00159  -0.00154  -0.00314   0.24800
   D11       -1.83267   0.00010  -0.00183   0.00108  -0.00076  -1.83343
   D12        2.33340   0.00007  -0.00191   0.00216   0.00025   2.33364
   D13        0.30568   0.00016  -0.00023  -0.00516  -0.00539   0.30029
   D14        2.49073   0.00016   0.00044  -0.00596  -0.00553   2.48521
   D15       -1.74569   0.00008   0.00025  -0.00673  -0.00649  -1.75218
   D16       -0.07375   0.00019   0.00146  -0.00133   0.00013  -0.07362
   D17        3.05721  -0.00035   0.00059  -0.00046   0.00013   3.05734
   D18       -0.15997  -0.00025  -0.00078   0.00425   0.00348  -0.15649
   D19        2.99201   0.00028   0.00007   0.00341   0.00348   2.99549
         Item               Value     Threshold  Converged?
 Maximum Force            0.002194     0.000450     NO 
 RMS     Force            0.000482     0.000300     NO 
 Maximum Displacement     0.010147     0.001800     NO 
 RMS     Displacement     0.002675     0.001200     NO 
 Predicted change in Energy=-1.633766D-05
 GradGradGradGradGradGradGradGradGradGradGradGradGradGradGradGradGradGrad

                          Input orientation:                          
 ---------------------------------------------------------------------
 Center     Atomic      Atomic             Coordinates (Angstroms)
 Number     Number       Type             X           Y           Z
 ---------------------------------------------------------------------
      1          6           0       -0.836750    0.573715    0.116970
      2          6           0        0.546553    0.838813   -0.470033
      3          6           0       -0.417277    2.815572    0.116507
      4          1           0       -1.551205    0.254673   -0.644611
      5          1           0       -0.803855   -0.139731    0.938330
      6          1           0        0.774179    0.349613   -1.415305
      7          8           0       -1.230713    1.858558    0.618556
      8          8           0        0.579754    2.224790   -0.636555
      9          8           0       -0.530707    3.982537    0.275570
     10          9           0        1.530791    0.466383    0.432662
 ---------------------------------------------------------------------
                    Distance matrix (angstroms):
                    1          2          3          4          5
     1  C    0.000000
     2  C    1.525902   0.000000
     3  C    2.280763   2.276087   0.000000
     4  H    1.091897   2.184556   2.902292   0.000000
     5  H    1.088448   2.182805   3.091707   1.794377   0.000000
     6  H    2.234543   1.088425   3.137988   2.451611   2.875630
     7  O    1.434439   2.320254   1.352630   2.066580   2.068242
     8  O    2.302245   1.396340   1.382099   2.902139   3.160000
     9  O    3.426205   3.405791   1.183205   3.973048   4.184131
    10  F    2.390906   1.386466   3.068160   3.271703   2.464477
                    6          7          8          9         10
     6  H    0.000000
     7  O    3.230031   0.000000
     8  O    2.039740   2.233209   0.000000
     9  O    4.214252   2.262506   2.270412   0.000000
    10  F    2.000270   3.098162   2.267089   4.078944   0.000000
 Stoichiometry    C3H3FO3
 Framework group  C1[X(C3H3FO3)]
 Deg. of freedom    24
 Full point group                 C1      NOp   1
 Largest Abelian subgroup         C1      NOp   1
 Largest concise Abelian subgroup C1      NOp   1
                         Standard orientation:                         
 ---------------------------------------------------------------------
 Center     Atomic      Atomic             Coordinates (Angstroms)
 Number     Number       Type             X           Y           Z
 ---------------------------------------------------------------------
      1          6           0        0.689322    1.238554    0.185056
      2          6           0        1.101832   -0.209227    0.434339
      3          6           0       -1.127723   -0.125225   -0.015773
      4          1           0        0.701018    1.831963    1.101554
      5          1           0        1.293782    1.709954   -0.587686
      6          1           0        1.695319   -0.397589    1.327067
      7          8           0       -0.663424    1.118143   -0.276674
      8          8           0       -0.112418   -0.893021    0.522594
      9          8           0       -2.230403   -0.512135   -0.201170
     10          9           0        1.819916   -0.696982   -0.646742
 ---------------------------------------------------------------------
 Rotational constants (GHZ):           5.5179059           2.3995910           1.9286550
 Standard basis: 6-311+G(d,p) (5D, 7F)
 There are   179 symmetry adapted cartesian basis functions of A   symmetry.
 There are   172 symmetry adapted basis functions of A   symmetry.
   172 basis functions,   276 primitive gaussians,   179 cartesian basis functions
    27 alpha electrons       27 beta electrons
       nuclear repulsion energy       321.9826477079 Hartrees.
 NAtoms=   10 NActive=   10 NUniq=   10 SFac= 1.00D+00 NAtFMM=   60 NAOKFM=F Big=F
 Integral buffers will be    131072 words long.
 Raffenetti 2 integral format.
 Two-electron integral symmetry is turned on.
 One-electron integrals computed using PRISM.
 NBasis=   172 RedAO= T EigKep=  7.78D-05  NBF=   172
 NBsUse=   172 1.00D-06 EigRej= -1.00D+00 NBFU=   172
 Initial guess from the checkpoint file:  "FEC.chk"
 B after Tr=     0.000000   -0.000000    0.000000
         Rot=    1.000000    0.000301    0.000079   -0.000185 Ang=   0.04 deg.
 Keep R1 ints in memory in canonical form, NReq=118719167.
 Requested convergence on RMS density matrix=1.00D-08 within 128 cycles.
 Requested convergence on MAX density matrix=1.00D-06.
 Requested convergence on             energy=1.00D-06.
 No special actions if energy rises.
 SCF Done:  E(RB3LYP) =  -441.778899918     A.U. after    9 cycles
            NFock=  9  Conv=0.66D-08     -V/T= 2.0031
 Calling FoFJK, ICntrl=      2127 FMM=F ISym2X=0 I1Cent= 0 IOpClX= 0 NMat=1 NMatS=1 NMatT=0.
 ***** Axes restored to original set *****
 -------------------------------------------------------------------
 Center     Atomic                   Forces (Hartrees/Bohr)
 Number     Number              X              Y              Z
 -------------------------------------------------------------------
      1        6          -0.000769382    0.000502081    0.000113197
      2        6           0.001223883    0.000091221    0.000601944
      3        6           0.001011839   -0.000051589    0.000335976
      4        1           0.000083877   -0.000191292    0.000017555
      5        1          -0.000024050    0.000058255   -0.000101177
      6        1          -0.000055627    0.000100532    0.000070972
      7        8          -0.000365660   -0.000577703    0.000158366
      8        8          -0.000297099    0.000106064   -0.000442000
      9        8          -0.000214581   -0.000132096   -0.000251045
     10        9          -0.000593199    0.000094527   -0.000503787
 -------------------------------------------------------------------
 Cartesian Forces:  Max     0.001223883 RMS     0.000426993

 GradGradGradGradGradGradGradGradGradGradGradGradGradGradGradGradGradGrad
 Berny optimization.
 Using GEDIIS/GDIIS optimizer.
 FormGI is forming the generalized inverse of G from B-inverse, IUseBI=4.
 Internal  Forces:  Max     0.000774979 RMS     0.000212477
 Search for a local minimum.
 Step number  12 out of a maximum of   56
 All quantities printed in internal units (Hartrees-Bohrs-Radians)
 Mixed Optimization -- En-DIIS/RFO-DIIS
 Swapping is turned off.
 Update second derivatives using D2CorX and points    9   10   11   12
 DE= -1.48D-05 DEPred=-1.63D-05 R= 9.09D-01
 TightC=F SS=  1.41D+00  RLast= 2.15D-02 DXNew= 4.2028D+00 6.4378D-02
 Trust test= 9.09D-01 RLast= 2.15D-02 DXMaxT set to 2.50D+00
 ITU=  1  1  1  1  1  1  1  0  1  1  1  0
     Eigenvalues ---    0.00171   0.01150   0.04227   0.05233   0.05945
     Eigenvalues ---    0.07032   0.09912   0.10859   0.10989   0.14110
     Eigenvalues ---    0.15701   0.23506   0.24512   0.25551   0.27950
     Eigenvalues ---    0.32083   0.36529   0.37210   0.37269   0.37588
     Eigenvalues ---    0.37947   0.41861   0.48221   0.95472
 En-DIIS/RFO-DIIS/Sim-DIIS IScMMF=       -3 using points:    12   11   10
 RFO step:  Lambda=-9.43441385D-06.
 DidBck=T Rises=F RFO-DIIS coefs:    0.32634    0.84113   -0.16747
 Iteration  1 RMS(Cart)=  0.00287785 RMS(Int)=  0.00001160
 Iteration  2 RMS(Cart)=  0.00000718 RMS(Int)=  0.00000862
 Iteration  3 RMS(Cart)=  0.00000000 RMS(Int)=  0.00000862
 Variable       Old X    -DE/DX   Delta X   Delta X   Delta X     New X
                                 (Linear)    (Quad)   (Total)
    R1        2.88354   0.00053  -0.00148   0.00228   0.00080   2.88434
    R2        2.06339  -0.00001   0.00007  -0.00006   0.00001   2.06340
    R3        2.05687  -0.00011  -0.00045   0.00017  -0.00028   2.05659
    R4        2.71070  -0.00045  -0.00045  -0.00002  -0.00047   2.71022
    R5        2.05683  -0.00012  -0.00036   0.00013  -0.00023   2.05659
    R6        2.63870  -0.00015  -0.00094   0.00111   0.00018   2.63888
    R7        2.62004  -0.00077   0.00250  -0.00417  -0.00168   2.61836
    R8        2.55610   0.00044   0.00179  -0.00069   0.00110   2.55720
    R9        2.61179  -0.00021   0.00363  -0.00399  -0.00036   2.61143
   R10        2.23593  -0.00014   0.00089  -0.00084   0.00005   2.23598
    A1        1.95586  -0.00007  -0.00035  -0.00022  -0.00056   1.95530
    A2        1.95711   0.00002  -0.00060   0.00134   0.00074   1.95785
    A3        1.80070   0.00002   0.00071  -0.00146  -0.00077   1.79993
    A4        1.93327  -0.00004   0.00043  -0.00094  -0.00052   1.93275
    A5        1.90276   0.00014   0.00177  -0.00045   0.00132   1.90409
    A6        1.90874  -0.00006  -0.00192   0.00175  -0.00017   1.90857
    A7        2.03264  -0.00010  -0.00206   0.00156  -0.00051   2.03214
    A8        1.81303   0.00004   0.00131  -0.00196  -0.00067   1.81236
    A9        1.92455   0.00000  -0.00027   0.00085   0.00060   1.92514
   A10        1.91514  -0.00008  -0.00093   0.00009  -0.00085   1.91429
   A11        1.87156   0.00002   0.00095  -0.00036   0.00059   1.87215
   A12        1.90434   0.00013   0.00117  -0.00028   0.00089   1.90523
   A13        1.91095   0.00029   0.00196  -0.00157   0.00037   1.91131
   A14        2.20218  -0.00021  -0.00099   0.00066  -0.00033   2.20184
   A15        2.17001  -0.00009  -0.00092   0.00086  -0.00006   2.16994
   A16        1.91642  -0.00020  -0.00308   0.00221  -0.00090   1.91552
   A17        1.92000  -0.00021  -0.00358   0.00244  -0.00116   1.91884
    D1       -0.38925   0.00010  -0.00427  -0.00094  -0.00521  -0.39446
    D2        1.71838  -0.00003  -0.00572  -0.00135  -0.00707   1.71131
    D3       -2.52642   0.00015  -0.00378  -0.00234  -0.00612  -2.53254
    D4        1.79770   0.00000  -0.00445  -0.00132  -0.00577   1.79193
    D5       -2.37786  -0.00013  -0.00590  -0.00173  -0.00762  -2.38549
    D6       -0.33947   0.00005  -0.00396  -0.00271  -0.00667  -0.34615
    D7       -2.43355  -0.00004  -0.00659   0.00053  -0.00606  -2.43962
    D8       -0.32593  -0.00017  -0.00804   0.00012  -0.00791  -0.33384
    D9        1.71246   0.00000  -0.00611  -0.00086  -0.00697   1.70550
   D10        0.24800  -0.00004   0.00759  -0.00173   0.00586   0.25386
   D11       -1.83343  -0.00003   0.00680  -0.00050   0.00631  -1.82712
   D12        2.33364  -0.00003   0.00637  -0.00014   0.00623   2.33987
   D13        0.30029   0.00019   0.00442   0.00275   0.00718   0.30747
   D14        2.48521   0.00005   0.00222   0.00347   0.00569   2.49090
   D15       -1.75218   0.00011   0.00351   0.00292   0.00643  -1.74575
   D16       -0.07362   0.00014  -0.00509   0.00337  -0.00171  -0.07533
   D17        3.05734  -0.00035  -0.00212  -0.00231  -0.00442   3.05292
   D18       -0.15649  -0.00025   0.00032  -0.00413  -0.00380  -0.16029
   D19        2.99549   0.00023  -0.00258   0.00143  -0.00114   2.99435
         Item               Value     Threshold  Converged?
 Maximum Force            0.000775     0.000450     NO 
 RMS     Force            0.000212     0.000300     YES
 Maximum Displacement     0.008144     0.001800     NO 
 RMS     Displacement     0.002879     0.001200     NO 
 Predicted change in Energy=-4.649150D-06
 GradGradGradGradGradGradGradGradGradGradGradGradGradGradGradGradGradGrad

                          Input orientation:                          
 ---------------------------------------------------------------------
 Center     Atomic      Atomic             Coordinates (Angstroms)
 Number     Number       Type             X           Y           Z
 ---------------------------------------------------------------------
      1          6           0       -0.837090    0.573692    0.116996
      2          6           0        0.546876    0.838857   -0.469518
      3          6           0       -0.416225    2.814822    0.117013
      4          1           0       -1.551549    0.257717   -0.645869
      5          1           0       -0.805877   -0.142379    0.935939
      6          1           0        0.775154    0.347878   -1.413568
      7          8           0       -1.227940    1.857525    0.622866
      8          8           0        0.577312    2.224434   -0.640616
      9          8           0       -0.530487    3.981903    0.274810
     10          9           0        1.530596    0.470473    0.434040
 ---------------------------------------------------------------------
                    Distance matrix (angstroms):
                    1          2          3          4          5
     1  C    0.000000
     2  C    1.526327   0.000000
     3  C    2.280305   2.275087   0.000000
     4  H    1.091905   2.184539   2.899955   0.000000
     5  H    1.088301   2.183592   3.093139   1.793940   0.000000
     6  H    2.234491   1.088303   3.138132   2.451742   2.874056
     7  O    1.434188   2.319690   1.353214   2.067317   2.067793
     8  O    2.302055   1.396433   1.381909   2.898284   3.162363
     9  O    3.425611   3.404919   1.183230   3.969859   4.186004
    10  F    2.391048   1.385579   3.063755   3.272780   2.467103
                    6          7          8          9         10
     6  H    0.000000
     7  O    3.230864   0.000000
     8  O    2.039132   2.233818   0.000000
     9  O    4.214434   2.262866   2.270224   0.000000
    10  F    1.999845   3.093395   2.267160   4.074747   0.000000
 Stoichiometry    C3H3FO3
 Framework group  C1[X(C3H3FO3)]
 Deg. of freedom    24
 Full point group                 C1      NOp   1
 Largest Abelian subgroup         C1      NOp   1
 Largest concise Abelian subgroup C1      NOp   1
                         Standard orientation:                         
 ---------------------------------------------------------------------
 Center     Atomic      Atomic             Coordinates (Angstroms)
 Number     Number       Type             X           Y           Z
 ---------------------------------------------------------------------
      1          6           0        0.689955    1.238429    0.187457
      2          6           0        1.102006   -0.210452    0.433692
      3          6           0       -1.126473   -0.124957   -0.016407
      4          1           0        0.699247    1.828649    1.106049
      5          1           0        1.296374    1.712934   -0.581633
      6          1           0        1.697211   -0.400079    1.324857
      7          8           0       -0.660807    1.118116   -0.279301
      8          8           0       -0.113161   -0.892281    0.525890
      9          8           0       -2.229728   -0.510665   -0.201045
     10          9           0        1.815978   -0.697887   -0.649120
 ---------------------------------------------------------------------
 Rotational constants (GHZ):           5.5109313           2.4023739           1.9316104
 Standard basis: 6-311+G(d,p) (5D, 7F)
 There are   179 symmetry adapted cartesian basis functions of A   symmetry.
 There are   172 symmetry adapted basis functions of A   symmetry.
   172 basis functions,   276 primitive gaussians,   179 cartesian basis functions
    27 alpha electrons       27 beta electrons
       nuclear repulsion energy       322.0358025350 Hartrees.
 NAtoms=   10 NActive=   10 NUniq=   10 SFac= 1.00D+00 NAtFMM=   60 NAOKFM=F Big=F
 Integral buffers will be    131072 words long.
 Raffenetti 2 integral format.
 Two-electron integral symmetry is turned on.
 One-electron integrals computed using PRISM.
 NBasis=   172 RedAO= T EigKep=  7.80D-05  NBF=   172
 NBsUse=   172 1.00D-06 EigRej= -1.00D+00 NBFU=   172
 Initial guess from the checkpoint file:  "FEC.chk"
 B after Tr=    -0.000000    0.000000    0.000000
         Rot=    1.000000   -0.000119   -0.000121    0.000406 Ang=  -0.05 deg.
 Keep R1 ints in memory in canonical form, NReq=118719167.
 Requested convergence on RMS density matrix=1.00D-08 within 128 cycles.
 Requested convergence on MAX density matrix=1.00D-06.
 Requested convergence on             energy=1.00D-06.
 No special actions if energy rises.
 SCF Done:  E(RB3LYP) =  -441.778905378     A.U. after    9 cycles
            NFock=  9  Conv=0.39D-08     -V/T= 2.0031
 Calling FoFJK, ICntrl=      2127 FMM=F ISym2X=0 I1Cent= 0 IOpClX= 0 NMat=1 NMatS=1 NMatT=0.
 ***** Axes restored to original set *****
 -------------------------------------------------------------------
 Center     Atomic                   Forces (Hartrees/Bohr)
 Number     Number              X              Y              Z
 -------------------------------------------------------------------
      1        6          -0.000353431    0.000415354    0.000140135
      2        6           0.000628988   -0.000064018    0.000177490
      3        6           0.000506269    0.000125158    0.000136414
      4        1           0.000032435   -0.000095300   -0.000011696
      5        1           0.000034067   -0.000000635   -0.000026609
      6        1          -0.000038657    0.000033888   -0.000000715
      7        8          -0.000154491   -0.000290030   -0.000026736
      8        8          -0.000220489    0.000014343   -0.000085926
      9        8          -0.000135461   -0.000188946   -0.000095010
     10        9          -0.000299231    0.000050185   -0.000207346
 -------------------------------------------------------------------
 Cartesian Forces:  Max     0.000628988 RMS     0.000217309

 GradGradGradGradGradGradGradGradGradGradGradGradGradGradGradGradGradGrad
 Berny optimization.
 Using GEDIIS/GDIIS optimizer.
 FormGI is forming the generalized inverse of G from B-inverse, IUseBI=4.
 Internal  Forces:  Max     0.000361477 RMS     0.000100977
 Search for a local minimum.
 Step number  13 out of a maximum of   56
 All quantities printed in internal units (Hartrees-Bohrs-Radians)
 Mixed Optimization -- En-DIIS/RFO-DIIS
 Swapping is turned off.
 Update second derivatives using D2CorX and points    9   10   11   12   13
 DE= -5.46D-06 DEPred=-4.65D-06 R= 1.17D+00
 TightC=F SS=  1.41D+00  RLast= 2.62D-02 DXNew= 4.2028D+00 7.8731D-02
 Trust test= 1.17D+00 RLast= 2.62D-02 DXMaxT set to 2.50D+00
 ITU=  1  1  1  1  1  1  1  1  0  1  1  1  0
     Eigenvalues ---    0.00223   0.01148   0.04077   0.05150   0.05763
     Eigenvalues ---    0.07007   0.09101   0.10872   0.11085   0.12953
     Eigenvalues ---    0.15805   0.20769   0.24696   0.25894   0.27650
     Eigenvalues ---    0.32031   0.36187   0.37190   0.37231   0.37430
     Eigenvalues ---    0.37958   0.40433   0.46031   0.94822
 En-DIIS/RFO-DIIS/Sim-DIIS IScMMF=       -3 using points:    13   12   11   10
 RFO step:  Lambda=-3.12441024D-06.
 DidBck=F Rises=F RFO-DIIS coefs:    0.95042    0.24291   -0.24880    0.05548
 Iteration  1 RMS(Cart)=  0.00112427 RMS(Int)=  0.00000402
 Iteration  2 RMS(Cart)=  0.00000127 RMS(Int)=  0.00000374
 Iteration  3 RMS(Cart)=  0.00000000 RMS(Int)=  0.00000374
 Variable       Old X    -DE/DX   Delta X   Delta X   Delta X     New X
                                 (Linear)    (Quad)   (Total)
    R1        2.88434   0.00022   0.00045   0.00080   0.00125   2.88559
    R2        2.06340   0.00001  -0.00002   0.00001  -0.00001   2.06339
    R3        2.05659  -0.00002   0.00015  -0.00019  -0.00004   2.05655
    R4        2.71022  -0.00028   0.00010  -0.00101  -0.00090   2.70932
    R5        2.05659  -0.00002   0.00011  -0.00017  -0.00005   2.05654
    R6        2.63888  -0.00005   0.00018   0.00020   0.00037   2.63925
    R7        2.61836  -0.00036  -0.00057  -0.00130  -0.00187   2.61649
    R8        2.55720   0.00014  -0.00059   0.00134   0.00075   2.55795
    R9        2.61143  -0.00011  -0.00104   0.00023  -0.00080   2.61063
   R10        2.23598  -0.00019  -0.00028   0.00016  -0.00012   2.23586
    A1        1.95530  -0.00005   0.00017  -0.00040  -0.00024   1.95506
    A2        1.95785  -0.00004   0.00009  -0.00094  -0.00086   1.95699
    A3        1.79993   0.00007  -0.00019   0.00086   0.00068   1.80060
    A4        1.93275   0.00000  -0.00012  -0.00040  -0.00052   1.93223
    A5        1.90409   0.00004  -0.00056   0.00165   0.00109   1.90517
    A6        1.90857  -0.00001   0.00061  -0.00060   0.00001   1.90858
    A7        2.03214  -0.00002   0.00067  -0.00106  -0.00040   2.03174
    A8        1.81236  -0.00007  -0.00033  -0.00023  -0.00055   1.81181
    A9        1.92514  -0.00003  -0.00002   0.00008   0.00006   1.92521
   A10        1.91429   0.00001   0.00037  -0.00108  -0.00071   1.91358
   A11        1.87215   0.00003  -0.00035   0.00121   0.00086   1.87301
   A12        1.90523   0.00008  -0.00038   0.00115   0.00076   1.90599
   A13        1.91131   0.00009  -0.00063   0.00110   0.00047   1.91179
   A14        2.20184  -0.00014   0.00033  -0.00121  -0.00088   2.20097
   A15        2.16994   0.00005   0.00028   0.00008   0.00036   2.17031
   A16        1.91552  -0.00008   0.00100  -0.00130  -0.00029   1.91523
   A17        1.91884  -0.00003   0.00113  -0.00096   0.00017   1.91902
    D1       -0.39446   0.00006   0.00156   0.00299   0.00455  -0.38992
    D2        1.71131   0.00002   0.00218   0.00084   0.00302   1.71433
    D3       -2.53254   0.00006   0.00154   0.00209   0.00364  -2.52890
    D4        1.79193  -0.00000   0.00160   0.00140   0.00299   1.79492
    D5       -2.38549  -0.00005   0.00222  -0.00075   0.00147  -2.38402
    D6       -0.34615  -0.00000   0.00159   0.00050   0.00208  -0.34406
    D7       -2.43962   0.00000   0.00225   0.00074   0.00299  -2.43663
    D8       -0.33384  -0.00004   0.00287  -0.00141   0.00147  -0.33238
    D9        1.70550   0.00000   0.00224  -0.00016   0.00208   1.70758
   D10        0.25386  -0.00003  -0.00271   0.00030  -0.00241   0.25145
   D11       -1.82712  -0.00002  -0.00254  -0.00045  -0.00300  -1.83011
   D12        2.33987  -0.00004  -0.00243  -0.00062  -0.00304   2.33683
   D13        0.30747   0.00006  -0.00166   0.00148  -0.00018   0.30729
   D14        2.49090  -0.00000  -0.00085  -0.00053  -0.00138   2.48952
   D15       -1.74575   0.00008  -0.00129   0.00098  -0.00031  -1.74606
   D16       -0.07533   0.00007   0.00177   0.00073   0.00249  -0.07284
   D17        3.05292  -0.00015   0.00092  -0.00151  -0.00060   3.05232
   D18       -0.16029  -0.00011  -0.00002  -0.00153  -0.00155  -0.16184
   D19        2.99435   0.00011   0.00081   0.00068   0.00148   2.99583
         Item               Value     Threshold  Converged?
 Maximum Force            0.000361     0.000450     YES
 RMS     Force            0.000101     0.000300     YES
 Maximum Displacement     0.003449     0.001800     NO 
 RMS     Displacement     0.001124     0.001200     YES
 Predicted change in Energy=-1.562116D-06
 GradGradGradGradGradGradGradGradGradGradGradGradGradGradGradGradGradGrad

                          Input orientation:                          
 ---------------------------------------------------------------------
 Center     Atomic      Atomic             Coordinates (Angstroms)
 Number     Number       Type             X           Y           Z
 ---------------------------------------------------------------------
      1          6           0       -0.837406    0.574166    0.117144
      2          6           0        0.547401    0.838828   -0.469341
      3          6           0       -0.415427    2.814775    0.117513
      4          1           0       -1.550968    0.255892   -0.645598
      5          1           0       -0.805597   -0.141092    0.936747
      6          1           0        0.774617    0.348976   -1.414201
      7          8           0       -1.229182    1.857730    0.621622
      8          8           0        0.577924    2.224678   -0.639809
      9          8           0       -0.530734    3.981761    0.274756
     10          9           0        1.530143    0.469209    0.433257
 ---------------------------------------------------------------------
                    Distance matrix (angstroms):
                    1          2          3          4          5
     1  C    0.000000
     2  C    1.526991   0.000000
     3  C    2.279999   2.275039   0.000000
     4  H    1.091900   2.184957   2.901668   0.000000
     5  H    1.088281   2.183559   3.092011   1.793597   0.000000
     6  H    2.234803   1.088275   3.137278   2.451073   2.874752
     7  O    1.433710   2.320476   1.353610   2.067675   2.067370
     8  O    2.302244   1.396629   1.381484   2.899713   3.161729
     9  O    3.424996   3.405009   1.183164   3.971150   4.184699
    10  F    2.390864   1.384588   3.063759   3.271495   2.466100
                    6          7          8          9         10
     6  H    0.000000
     7  O    3.230499   0.000000
     8  O    2.038781   2.234165   0.000000
     9  O    4.213507   2.262665   2.269998   0.000000
    10  F    1.999594   3.094729   2.267127   4.075581   0.000000
 Stoichiometry    C3H3FO3
 Framework group  C1[X(C3H3FO3)]
 Deg. of freedom    24
 Full point group                 C1      NOp   1
 Largest Abelian subgroup         C1      NOp   1
 Largest concise Abelian subgroup C1      NOp   1
                         Standard orientation:                         
 ---------------------------------------------------------------------
 Center     Atomic      Atomic             Coordinates (Angstroms)
 Number     Number       Type             X           Y           Z
 ---------------------------------------------------------------------
      1          6           0        0.689120    1.238556    0.187079
      2          6           0        1.102250   -0.210731    0.433233
      3          6           0       -1.126152   -0.125809   -0.017119
      4          1           0        0.700813    1.829139    1.105404
      5          1           0        1.294914    1.712358   -0.582908
      6          1           0        1.696106   -0.399936    1.325353
      7          8           0       -0.661739    1.118585   -0.278014
      8          8           0       -0.113040   -0.892813    0.524921
      9          8           0       -2.229700   -0.510895   -0.200877
     10          9           0        1.816965   -0.696964   -0.648360
 ---------------------------------------------------------------------
 Rotational constants (GHZ):           5.5129359           2.4022401           1.9310000
 Standard basis: 6-311+G(d,p) (5D, 7F)
 There are   179 symmetry adapted cartesian basis functions of A   symmetry.
 There are   172 symmetry adapted basis functions of A   symmetry.
   172 basis functions,   276 primitive gaussians,   179 cartesian basis functions
    27 alpha electrons       27 beta electrons
       nuclear repulsion energy       322.0437786866 Hartrees.
 NAtoms=   10 NActive=   10 NUniq=   10 SFac= 1.00D+00 NAtFMM=   60 NAOKFM=F Big=F
 Integral buffers will be    131072 words long.
 Raffenetti 2 integral format.
 Two-electron integral symmetry is turned on.
 One-electron integrals computed using PRISM.
 NBasis=   172 RedAO= T EigKep=  7.81D-05  NBF=   172
 NBsUse=   172 1.00D-06 EigRej= -1.00D+00 NBFU=   172
 Initial guess from the checkpoint file:  "FEC.chk"
 B after Tr=    -0.000000   -0.000000   -0.000000
         Rot=    1.000000   -0.000153    0.000023   -0.000159 Ang=  -0.03 deg.
 Keep R1 ints in memory in canonical form, NReq=118719167.
 Requested convergence on RMS density matrix=1.00D-08 within 128 cycles.
 Requested convergence on MAX density matrix=1.00D-06.
 Requested convergence on             energy=1.00D-06.
 No special actions if energy rises.
 SCF Done:  E(RB3LYP) =  -441.778906710     A.U. after    8 cycles
            NFock=  8  Conv=0.37D-08     -V/T= 2.0031
 Calling FoFJK, ICntrl=      2127 FMM=F ISym2X=0 I1Cent= 0 IOpClX= 0 NMat=1 NMatS=1 NMatT=0.
 ***** Axes restored to original set *****
 -------------------------------------------------------------------
 Center     Atomic                   Forces (Hartrees/Bohr)
 Number     Number              X              Y              Z
 -------------------------------------------------------------------
      1        6          -0.000088243    0.000100566    0.000037350
      2        6          -0.000064504    0.000042276   -0.000020231
      3        6          -0.000040781    0.000127231   -0.000058456
      4        1          -0.000018354    0.000003074   -0.000011722
      5        1           0.000027074   -0.000039374    0.000001494
      6        1           0.000003461   -0.000018241    0.000001172
      7        8           0.000125877   -0.000130786   -0.000079132
      8        8          -0.000025904   -0.000046232    0.000045513
      9        8           0.000013810   -0.000029625    0.000031304
     10        9           0.000067563   -0.000008890    0.000052708
 -------------------------------------------------------------------
 Cartesian Forces:  Max     0.000130786 RMS     0.000058765

 GradGradGradGradGradGradGradGradGradGradGradGradGradGradGradGradGradGrad
 Berny optimization.
 Using GEDIIS/GDIIS optimizer.
 FormGI is forming the generalized inverse of G from B-inverse, IUseBI=4.
 Internal  Forces:  Max     0.000108726 RMS     0.000032268
 Search for a local minimum.
 Step number  14 out of a maximum of   56
 All quantities printed in internal units (Hartrees-Bohrs-Radians)
 Mixed Optimization -- En-DIIS/RFO-DIIS
 Swapping is turned off.
 Update second derivatives using D2CorX and points    9   10   11   12   13
                                                     14
 DE= -1.33D-06 DEPred=-1.56D-06 R= 8.52D-01
 TightC=F SS=  1.41D+00  RLast= 1.12D-02 DXNew= 4.2028D+00 3.3491D-02
 Trust test= 8.52D-01 RLast= 1.12D-02 DXMaxT set to 2.50D+00
 ITU=  1  1  1  1  1  1  1  1  1  0  1  1  1  0
     Eigenvalues ---    0.00220   0.01148   0.04137   0.05109   0.05681
     Eigenvalues ---    0.07053   0.09041   0.10901   0.11114   0.13606
     Eigenvalues ---    0.15689   0.21413   0.24786   0.26589   0.27410
     Eigenvalues ---    0.32161   0.36091   0.37153   0.37233   0.37445
     Eigenvalues ---    0.38115   0.39410   0.46833   0.94513
 En-DIIS/RFO-DIIS/Sim-DIIS IScMMF=       -3 using points:    14   13   12   11   10
 RFO step:  Lambda=-2.81321963D-07.
 DidBck=T Rises=F RFO-DIIS coefs:    0.76247    0.40362   -0.16877   -0.01090    0.01358
 Iteration  1 RMS(Cart)=  0.00063593 RMS(Int)=  0.00000068
 Iteration  2 RMS(Cart)=  0.00000032 RMS(Int)=  0.00000060
 Variable       Old X    -DE/DX   Delta X   Delta X   Delta X     New X
                                 (Linear)    (Quad)   (Total)
    R1        2.88559  -0.00001  -0.00004  -0.00004  -0.00008   2.88552
    R2        2.06339   0.00002   0.00001   0.00005   0.00006   2.06345
    R3        2.05655   0.00003  -0.00002   0.00006   0.00004   2.05660
    R4        2.70932  -0.00011   0.00004  -0.00026  -0.00022   2.70910
    R5        2.05654   0.00001  -0.00003   0.00003   0.00000   2.05654
    R6        2.63925  -0.00001  -0.00022   0.00006  -0.00017   2.63908
    R7        2.61649   0.00008   0.00029   0.00004   0.00033   2.61682
    R8        2.55795   0.00000  -0.00004   0.00000  -0.00003   2.55792
    R9        2.61063  -0.00002   0.00012  -0.00004   0.00008   2.61070
   R10        2.23586  -0.00003  -0.00001  -0.00005  -0.00006   2.23579
    A1        1.95506   0.00003   0.00004   0.00000   0.00004   1.95511
    A2        1.95699  -0.00003   0.00023  -0.00033  -0.00010   1.95689
    A3        1.80060  -0.00004  -0.00034   0.00005  -0.00029   1.80032
    A4        1.93223   0.00000  -0.00001   0.00006   0.00005   1.93228
    A5        1.90517   0.00001  -0.00001   0.00005   0.00003   1.90521
    A6        1.90858   0.00003   0.00007   0.00018   0.00025   1.90883
    A7        2.03174  -0.00001   0.00010  -0.00006   0.00004   2.03178
    A8        1.81181   0.00001   0.00004  -0.00012  -0.00007   1.81173
    A9        1.92521   0.00001  -0.00004   0.00001  -0.00004   1.92517
   A10        1.91358   0.00000   0.00014   0.00008   0.00022   1.91380
   A11        1.87301  -0.00000  -0.00020   0.00011  -0.00009   1.87292
   A12        1.90599  -0.00001  -0.00003  -0.00003  -0.00006   1.90592
   A13        1.91179  -0.00008  -0.00014  -0.00014  -0.00028   1.91151
   A14        2.20097   0.00003   0.00021  -0.00008   0.00013   2.20110
   A15        2.17031   0.00005  -0.00007   0.00023   0.00015   2.17046
   A16        1.91523   0.00009   0.00006   0.00010   0.00016   1.91539
   A17        1.91902   0.00002  -0.00016   0.00010  -0.00006   1.91895
    D1       -0.38992  -0.00001  -0.00182   0.00010  -0.00173  -0.39164
    D2        1.71433  -0.00000  -0.00156   0.00008  -0.00147   1.71286
    D3       -2.52890  -0.00001  -0.00160  -0.00001  -0.00160  -2.53050
    D4        1.79492  -0.00001  -0.00162  -0.00008  -0.00170   1.79322
    D5       -2.38402  -0.00000  -0.00135  -0.00009  -0.00145  -2.38546
    D6       -0.34406  -0.00001  -0.00139  -0.00018  -0.00158  -0.34564
    D7       -2.43663  -0.00001  -0.00163   0.00001  -0.00162  -2.43825
    D8       -0.33238  -0.00000  -0.00136  -0.00000  -0.00137  -0.33375
    D9        1.70758  -0.00001  -0.00140  -0.00009  -0.00150   1.70608
   D10        0.25145   0.00002   0.00111   0.00010   0.00121   0.25266
   D11       -1.83011   0.00001   0.00125   0.00004   0.00129  -1.82882
   D12        2.33683  -0.00002   0.00122  -0.00017   0.00105   2.33789
   D13        0.30729   0.00000   0.00118  -0.00006   0.00113   0.30842
   D14        2.48952  -0.00000   0.00141  -0.00015   0.00126   2.49077
   D15       -1.74606  -0.00001   0.00123   0.00001   0.00124  -1.74482
   D16       -0.07284  -0.00003  -0.00047  -0.00012  -0.00059  -0.07343
   D17        3.05232   0.00003  -0.00043   0.00016  -0.00027   3.05205
   D18       -0.16184   0.00001  -0.00049   0.00010  -0.00039  -0.16224
   D19        2.99583  -0.00004  -0.00053  -0.00017  -0.00071   2.99512
         Item               Value     Threshold  Converged?
 Maximum Force            0.000109     0.000450     YES
 RMS     Force            0.000032     0.000300     YES
 Maximum Displacement     0.001747     0.001800     YES
 RMS     Displacement     0.000636     0.001200     YES
 Predicted change in Energy=-1.369943D-07
 Optimization completed.
    -- Stationary point found.
                           ----------------------------
                           !   Optimized Parameters   !
                           ! (Angstroms and Degrees)  !
 --------------------------                            --------------------------
 ! Name  Definition              Value          Derivative Info.                !
 --------------------------------------------------------------------------------
 ! R1    R(1,2)                  1.527          -DE/DX =    0.0                 !
 ! R2    R(1,4)                  1.0919         -DE/DX =    0.0                 !
 ! R3    R(1,5)                  1.0883         -DE/DX =    0.0                 !
 ! R4    R(1,7)                  1.4337         -DE/DX =   -0.0001              !
 ! R5    R(2,6)                  1.0883         -DE/DX =    0.0                 !
 ! R6    R(2,8)                  1.3966         -DE/DX =    0.0                 !
 ! R7    R(2,10)                 1.3846         -DE/DX =    0.0001              !
 ! R8    R(3,7)                  1.3536         -DE/DX =    0.0                 !
 ! R9    R(3,8)                  1.3815         -DE/DX =    0.0                 !
 ! R10   R(3,9)                  1.1832         -DE/DX =    0.0                 !
 ! A1    A(2,1,4)              112.0169         -DE/DX =    0.0                 !
 ! A2    A(2,1,5)              112.1272         -DE/DX =    0.0                 !
 ! A3    A(2,1,7)              103.167          -DE/DX =    0.0                 !
 ! A4    A(4,1,5)              110.7084         -DE/DX =    0.0                 !
 ! A5    A(4,1,7)              109.1583         -DE/DX =    0.0                 !
 ! A6    A(5,1,7)              109.3535         -DE/DX =    0.0                 !
 ! A7    A(1,2,6)              116.4101         -DE/DX =    0.0                 !
 ! A8    A(1,2,8)              103.8089         -DE/DX =    0.0                 !
 ! A9    A(1,2,10)             110.3062         -DE/DX =    0.0                 !
 ! A10   A(6,2,8)              109.64           -DE/DX =    0.0                 !
 ! A11   A(6,2,10)             107.3155         -DE/DX =    0.0                 !
 ! A12   A(8,2,10)             109.2049         -DE/DX =    0.0                 !
 ! A13   A(7,3,8)              109.5375         -DE/DX =   -0.0001              !
 ! A14   A(7,3,9)              126.106          -DE/DX =    0.0                 !
 ! A15   A(8,3,9)              124.3494         -DE/DX =    0.0                 !
 ! A16   A(1,7,3)              109.7349         -DE/DX =    0.0001              !
 ! A17   A(2,8,3)              109.9515         -DE/DX =    0.0                 !
 ! D1    D(4,1,2,6)            -22.3405         -DE/DX =    0.0                 !
 ! D2    D(4,1,2,8)             98.224          -DE/DX =    0.0                 !
 ! D3    D(4,1,2,10)          -144.8952         -DE/DX =    0.0                 !
 ! D4    D(5,1,2,6)            102.8414         -DE/DX =    0.0                 !
 ! D5    D(5,1,2,8)           -136.5941         -DE/DX =    0.0                 !
 ! D6    D(5,1,2,10)           -19.7133         -DE/DX =    0.0                 !
 ! D7    D(7,1,2,6)           -139.6084         -DE/DX =    0.0                 !
 ! D8    D(7,1,2,8)            -19.0439         -DE/DX =    0.0                 !
 ! D9    D(7,1,2,10)            97.8369         -DE/DX =    0.0                 !
 ! D10   D(2,1,7,3)             14.4072         -DE/DX =    0.0                 !
 ! D11   D(4,1,7,3)           -104.8579         -DE/DX =    0.0                 !
 ! D12   D(5,1,7,3)            133.8907         -DE/DX =    0.0                 !
 ! D13   D(1,2,8,3)             17.6064         -DE/DX =    0.0                 !
 ! D14   D(6,2,8,3)            142.6388         -DE/DX =    0.0                 !
 ! D15   D(10,2,8,3)          -100.0418         -DE/DX =    0.0                 !
 ! D16   D(8,3,7,1)             -4.1733         -DE/DX =    0.0                 !
 ! D17   D(9,3,7,1)            174.8851         -DE/DX =    0.0                 !
 ! D18   D(7,3,8,2)             -9.2729         -DE/DX =    0.0                 !
 ! D19   D(9,3,8,2)            171.6485         -DE/DX =    0.0                 !
 --------------------------------------------------------------------------------
 GradGradGradGradGradGradGradGradGradGradGradGradGradGradGradGradGradGrad

                          Input orientation:                          
 ---------------------------------------------------------------------
 Center     Atomic      Atomic             Coordinates (Angstroms)
 Number     Number       Type             X           Y           Z
 ---------------------------------------------------------------------
      1          6           0       -0.837406    0.574166    0.117144
      2          6           0        0.547401    0.838828   -0.469341
      3          6           0       -0.415427    2.814775    0.117513
      4          1           0       -1.550968    0.255892   -0.645598
      5          1           0       -0.805597   -0.141092    0.936747
      6          1           0        0.774617    0.348976   -1.414201
      7          8           0       -1.229182    1.857730    0.621622
      8          8           0        0.577924    2.224678   -0.639809
      9          8           0       -0.530734    3.981761    0.274756
     10          9           0        1.530143    0.469209    0.433257
 ---------------------------------------------------------------------
                    Distance matrix (angstroms):
                    1          2          3          4          5
     1  C    0.000000
     2  C    1.526991   0.000000
     3  C    2.279999   2.275039   0.000000
     4  H    1.091900   2.184957   2.901668   0.000000
     5  H    1.088281   2.183559   3.092011   1.793597   0.000000
     6  H    2.234803   1.088275   3.137278   2.451073   2.874752
     7  O    1.433710   2.320476   1.353610   2.067675   2.067370
     8  O    2.302244   1.396629   1.381484   2.899713   3.161729
     9  O    3.424996   3.405009   1.183164   3.971150   4.184699
    10  F    2.390864   1.384588   3.063759   3.271495   2.466100
                    6          7          8          9         10
     6  H    0.000000
     7  O    3.230499   0.000000
     8  O    2.038781   2.234165   0.000000
     9  O    4.213507   2.262665   2.269998   0.000000
    10  F    1.999594   3.094729   2.267127   4.075581   0.000000
 Stoichiometry    C3H3FO3
 Framework group  C1[X(C3H3FO3)]
 Deg. of freedom    24
 Full point group                 C1      NOp   1
 Largest Abelian subgroup         C1      NOp   1
 Largest concise Abelian subgroup C1      NOp   1
                         Standard orientation:                         
 ---------------------------------------------------------------------
 Center     Atomic      Atomic             Coordinates (Angstroms)
 Number     Number       Type             X           Y           Z
 ---------------------------------------------------------------------
      1          6           0        0.689120    1.238556    0.187079
      2          6           0        1.102250   -0.210731    0.433233
      3          6           0       -1.126152   -0.125809   -0.017119
      4          1           0        0.700813    1.829139    1.105404
      5          1           0        1.294914    1.712358   -0.582908
      6          1           0        1.696106   -0.399936    1.325353
      7          8           0       -0.661739    1.118585   -0.278014
      8          8           0       -0.113040   -0.892813    0.524921
      9          8           0       -2.229700   -0.510895   -0.200877
     10          9           0        1.816965   -0.696964   -0.648360
 ---------------------------------------------------------------------
 Rotational constants (GHZ):           5.5129359           2.4022401           1.9310000

 **********************************************************************

            Population analysis using the SCF density.

 **********************************************************************

 Orbital symmetries:
       Occupied  (A) (A) (A) (A) (A) (A) (A) (A) (A) (A) (A) (A)
                 (A) (A) (A) (A) (A) (A) (A) (A) (A) (A) (A) (A)
                 (A) (A) (A)
       Virtual   (A) (A) (A) (A) (A) (A) (A) (A) (A) (A) (A) (A)
                 (A) (A) (A) (A) (A) (A) (A) (A) (A) (A) (A) (A)
                 (A) (A) (A) (A) (A) (A) (A) (A) (A) (A) (A) (A)
                 (A) (A) (A) (A) (A) (A) (A) (A) (A) (A) (A) (A)
                 (A) (A) (A) (A) (A) (A) (A) (A) (A) (A) (A) (A)
                 (A) (A) (A) (A) (A) (A) (A) (A) (A) (A) (A) (A)
                 (A) (A) (A) (A) (A) (A) (A) (A) (A) (A) (A) (A)
                 (A) (A) (A) (A) (A) (A) (A) (A) (A) (A) (A) (A)
                 (A) (A) (A) (A) (A) (A) (A) (A) (A) (A) (A) (A)
                 (A) (A) (A) (A) (A) (A) (A) (A) (A) (A) (A) (A)
                 (A) (A) (A) (A) (A) (A) (A) (A) (A) (A) (A) (A)
                 (A) (A) (A) (A) (A) (A) (A) (A) (A) (A) (A) (A)
                 (A)
 The electronic state is 1-A.
 Alpha  occ. eigenvalues --  -24.70729 -19.21399 -19.21128 -19.13994 -10.37460
 Alpha  occ. eigenvalues --  -10.35332 -10.28155  -1.25382  -1.18949  -1.08487
 Alpha  occ. eigenvalues --   -1.07800  -0.81249  -0.71486  -0.65405  -0.59228
 Alpha  occ. eigenvalues --   -0.58091  -0.54651  -0.51629  -0.49249  -0.47666
 Alpha  occ. eigenvalues --   -0.45623  -0.43057  -0.41281  -0.38948  -0.37142
 Alpha  occ. eigenvalues --   -0.34167  -0.32967
 Alpha virt. eigenvalues --   -0.01438  -0.00326   0.00328   0.01617   0.02660
 Alpha virt. eigenvalues --    0.04334   0.05291   0.06797   0.07105   0.07944
 Alpha virt. eigenvalues --    0.10029   0.10726   0.11405   0.11507   0.14021
 Alpha virt. eigenvalues --    0.15829   0.17408   0.18410   0.19752   0.20327
 Alpha virt. eigenvalues --    0.21300   0.22414   0.23676   0.23757   0.25718
 Alpha virt. eigenvalues --    0.27183   0.27456   0.28781   0.29259   0.29822
 Alpha virt. eigenvalues --    0.31467   0.32798   0.33263   0.34699   0.36072
 Alpha virt. eigenvalues --    0.36198   0.37421   0.41232   0.43852   0.46038
 Alpha virt. eigenvalues --    0.47059   0.51793   0.53959   0.57961   0.61005
 Alpha virt. eigenvalues --    0.61523   0.63683   0.66774   0.70269   0.73817
 Alpha virt. eigenvalues --    0.77416   0.86261   0.91542   0.91818   0.97486
 Alpha virt. eigenvalues --    0.99842   1.03734   1.10413   1.11450   1.13556
 Alpha virt. eigenvalues --    1.15474   1.17949   1.18775   1.20920   1.23223
 Alpha virt. eigenvalues --    1.26623   1.31080   1.35538   1.37553   1.42011
 Alpha virt. eigenvalues --    1.44390   1.47765   1.49962   1.52276   1.56764
 Alpha virt. eigenvalues --    1.58533   1.61074   1.64351   1.67067   1.68335
 Alpha virt. eigenvalues --    1.69481   1.72481   1.77773   1.82767   1.85249
 Alpha virt. eigenvalues --    1.89224   1.95036   2.04078   2.10437   2.11612
 Alpha virt. eigenvalues --    2.21179   2.36011   2.45549   2.49832   2.51161
 Alpha virt. eigenvalues --    2.54091   2.65733   2.72593   2.74349   2.79022
 Alpha virt. eigenvalues --    2.81570   2.85294   2.87244   2.92101   2.98278
 Alpha virt. eigenvalues --    3.04411   3.05101   3.08938   3.14455   3.18468
 Alpha virt. eigenvalues --    3.21018   3.38730   3.46848   3.54087   3.66359
 Alpha virt. eigenvalues --    3.71953   3.76222   3.78875   3.86172   3.91010
 Alpha virt. eigenvalues --    3.94861   4.00457   4.06574   4.09181   4.22628
 Alpha virt. eigenvalues --    4.78336   4.95596   4.97679   5.02666   5.10202
 Alpha virt. eigenvalues --    5.21724   5.38023   5.42864   5.82169   5.85809
 Alpha virt. eigenvalues --    6.32237   6.33339   6.62543  23.66214  23.78500
 Alpha virt. eigenvalues --   23.80385  49.79558  49.87934  50.00808  66.77057
          Condensed to atoms (all electrons):
               1          2          3          4          5          6
     1  C    5.400477   0.013977  -0.046370   0.372972   0.453470  -0.067983
     2  C    0.013977   5.284689  -0.121655   0.006361  -0.081864   0.464535
     3  C   -0.046370  -0.121655   5.039734  -0.010558   0.018813   0.004757
     4  H    0.372972   0.006361  -0.010558   0.531296  -0.037339  -0.001036
     5  H    0.453470  -0.081864   0.018813  -0.037339   0.500479  -0.000022
     6  H   -0.067983   0.464535   0.004757  -0.001036  -0.000022   0.534258
     7  O    0.171884   0.001176   0.158355  -0.040721  -0.057840   0.006982
     8  O   -0.002394   0.157142   0.160888  -0.010817   0.012454  -0.071317
     9  O    0.010229   0.010209   0.477396   0.001689  -0.000503  -0.000519
    10  F   -0.126230   0.256329  -0.016967   0.008697  -0.005954  -0.054693
               7          8          9         10
     1  C    0.171884  -0.002394   0.010229  -0.126230
     2  C    0.001176   0.157142   0.010209   0.256329
     3  C    0.158355   0.160888   0.477396  -0.016967
     4  H   -0.040721  -0.010817   0.001689   0.008697
     5  H   -0.057840   0.012454  -0.000503  -0.005954
     6  H    0.006982  -0.071317  -0.000519  -0.054693
     7  O    8.150443  -0.154761  -0.102970   0.009849
     8  O   -0.154761   8.159264  -0.094592  -0.037919
     9  O   -0.102970  -0.094592   8.008202  -0.000672
    10  F    0.009849  -0.037919  -0.000672   9.126220
 Mulliken charges:
               1
     1  C   -0.180033
     2  C    0.009102
     3  C    0.335607
     4  H    0.179457
     5  H    0.198305
     6  H    0.185038
     7  O   -0.142396
     8  O   -0.117950
     9  O   -0.308469
    10  F   -0.158661
 Sum of Mulliken charges =  -0.00000
 Mulliken charges with hydrogens summed into heavy atoms:
               1
     1  C    0.197730
     2  C    0.194140
     3  C    0.335607
     7  O   -0.142396
     8  O   -0.117950
     9  O   -0.308469
    10  F   -0.158661
 Electronic spatial extent (au):  <R**2>=            613.5919
 Charge=              0.0000 electrons
 Dipole moment (field-independent basis, Debye):
    X=              3.7177    Y=              2.5652    Z=              2.0888  Tot=              4.9764
 Quadrupole moment (field-independent basis, Debye-Ang):
   XX=            -45.7085   YY=            -39.5315   ZZ=            -37.2654
   XY=              1.6289   XZ=              1.8372   YZ=              0.7101
 Traceless Quadrupole moment (field-independent basis, Debye-Ang):
   XX=             -4.8734   YY=              1.3037   ZZ=              3.5698
   XY=              1.6289   XZ=              1.8372   YZ=              0.7101
 Octapole moment (field-independent basis, Debye-Ang**2):
  XXX=             21.3802  YYY=              0.4523  ZZZ=             -1.5694  XYY=              7.1582
  XXY=              5.1606  XXZ=              6.5827  XZZ=              3.1141  YZZ=              0.0150
  YYZ=             -0.0518  XYZ=             -2.7449
 Hexadecapole moment (field-independent basis, Debye-Ang**3):
 XXXX=           -477.4916 YYYY=           -197.0358 ZZZZ=            -76.7003 XXXY=            -11.1910
 XXXZ=             -2.3225 YYYX=             -0.6122 YYYZ=              3.6726 ZZZX=             -2.6244
 ZZZY=              2.2904 XXYY=           -107.1679 XXZZ=            -80.9967 YYZZ=            -44.2505
 XXYZ=             -4.1532 YYXZ=             -2.0834 ZZXY=             -1.4069
 N-N= 3.220437786866D+02 E-N=-1.684864193651D+03  KE= 4.404167056408D+02
 1\1\GINC-HUSH-MIND\FOpt\RB3LYP\6-311+G(d,p)\C3H3F1O3\HUSH\29-Jul-2026\
 0\\# opt freq b3lyp/6-311+g(d,p)\\FEC\\0,1\C,-0.8374057323,0.574165856
 2,0.1171442931\C,0.5474011058,0.8388278333,-0.4693406299\C,-0.41542744
 64,2.8147754892,0.1175126417\H,-1.5509683642,0.2558916862,-0.645597539
 5\H,-0.8055971069,-0.1410922413,0.9367472104\H,0.7746166803,0.34897629
 58,-1.4142006051\O,-1.2291822601,1.8577301215,0.6216224317\O,0.5779241
 134,2.2246784644,-0.6398089049\O,-0.5307341449,3.9817612547,0.27475607
 1\F,1.5301428553,0.4692088701,0.4332573616\\Version=ES64L-G16RevA.03\S
 tate=1-A\HF=-441.7789067\RMSD=3.735e-09\RMSF=5.876e-05\Dipole=-0.40983
 72,-1.7971523,-0.6599761\Quadrupole=-0.8536389,-1.5898898,2.4435287,2.
 8624131,0.5148556,1.0462311\PG=C01 [X(C3H3F1O3)]\\@


 GARBAGE IN, GARBAGE OUT
 Job cpu time:       0 days  0 hours 12 minutes 38.2 seconds.
 Elapsed time:       0 days  0 hours  1 minutes 44.8 seconds.
 File lengths (MBytes):  RWF=     20 Int=      0 D2E=      0 Chk=      3 Scr=      1
 Normal termination of Gaussian 16 at Wed Jul 29 17:14:35 2026.
 Link1:  Proceeding to internal job step number  2.
 ----------------------------------------------------------------------
 #N Geom=AllCheck Guess=TCheck SCRF=Check GenChk RB3LYP/6-311+G(d,p) Fr
 eq
 ----------------------------------------------------------------------
 1/10=4,29=7,30=1,38=1,40=1/1,3;
 2/12=2,40=1/2;
 3/5=4,6=6,7=111,11=2,14=-4,25=1,30=1,70=2,71=2,74=-5,116=1,140=1/1,2,3;
 4/5=101/1;
 5/5=2,38=6,98=1/2;
 8/6=4,10=90,11=11/1;
 11/6=1,8=1,9=11,15=111,16=1/1,2,10;
 10/6=1/2;
 6/7=2,8=2,9=2,10=2,28=1/1;
 7/8=1,10=1,25=1/1,2,3,16;
 1/10=4,30=1/3;
 99//99;
 Structure from the checkpoint file:  "FEC.chk"
 ---
 FEC
 ---
 Charge =  0 Multiplicity = 1
 Redundant internal coordinates found in file.  (old form).
 C,0,-0.8374057323,0.5741658562,0.1171442931
 C,0,0.5474011058,0.8388278333,-0.4693406299
 C,0,-0.4154274464,2.8147754892,0.1175126417
 H,0,-1.5509683642,0.2558916862,-0.6455975395
 H,0,-0.8055971069,-0.1410922413,0.9367472104
 H,0,0.7746166803,0.3489762958,-1.4142006051
 O,0,-1.2291822601,1.8577301215,0.6216224317
 O,0,0.5779241134,2.2246784644,-0.6398089049
 O,0,-0.5307341449,3.9817612547,0.274756071
 F,0,1.5301428553,0.4692088701,0.4332573616
 Recover connectivity data from disk.

 GradGradGradGradGradGradGradGradGradGradGradGradGradGradGradGradGradGrad
 Berny optimization.
 Initialization pass.
                           ----------------------------
                           !    Initial Parameters    !
                           ! (Angstroms and Degrees)  !
 --------------------------                            --------------------------
 ! Name  Definition              Value          Derivative Info.                !
 --------------------------------------------------------------------------------
 ! R1    R(1,2)                  1.527          calculate D2E/DX2 analytically  !
 ! R2    R(1,4)                  1.0919         calculate D2E/DX2 analytically  !
 ! R3    R(1,5)                  1.0883         calculate D2E/DX2 analytically  !
 ! R4    R(1,7)                  1.4337         calculate D2E/DX2 analytically  !
 ! R5    R(2,6)                  1.0883         calculate D2E/DX2 analytically  !
 ! R6    R(2,8)                  1.3966         calculate D2E/DX2 analytically  !
 ! R7    R(2,10)                 1.3846         calculate D2E/DX2 analytically  !
 ! R8    R(3,7)                  1.3536         calculate D2E/DX2 analytically  !
 ! R9    R(3,8)                  1.3815         calculate D2E/DX2 analytically  !
 ! R10   R(3,9)                  1.1832         calculate D2E/DX2 analytically  !
 ! A1    A(2,1,4)              112.0169         calculate D2E/DX2 analytically  !
 ! A2    A(2,1,5)              112.1272         calculate D2E/DX2 analytically  !
 ! A3    A(2,1,7)              103.167          calculate D2E/DX2 analytically  !
 ! A4    A(4,1,5)              110.7084         calculate D2E/DX2 analytically  !
 ! A5    A(4,1,7)              109.1583         calculate D2E/DX2 analytically  !
 ! A6    A(5,1,7)              109.3535         calculate D2E/DX2 analytically  !
 ! A7    A(1,2,6)              116.4101         calculate D2E/DX2 analytically  !
 ! A8    A(1,2,8)              103.8089         calculate D2E/DX2 analytically  !
 ! A9    A(1,2,10)             110.3062         calculate D2E/DX2 analytically  !
 ! A10   A(6,2,8)              109.64           calculate D2E/DX2 analytically  !
 ! A11   A(6,2,10)             107.3155         calculate D2E/DX2 analytically  !
 ! A12   A(8,2,10)             109.2049         calculate D2E/DX2 analytically  !
 ! A13   A(7,3,8)              109.5375         calculate D2E/DX2 analytically  !
 ! A14   A(7,3,9)              126.106          calculate D2E/DX2 analytically  !
 ! A15   A(8,3,9)              124.3494         calculate D2E/DX2 analytically  !
 ! A16   A(1,7,3)              109.7349         calculate D2E/DX2 analytically  !
 ! A17   A(2,8,3)              109.9515         calculate D2E/DX2 analytically  !
 ! D1    D(4,1,2,6)            -22.3405         calculate D2E/DX2 analytically  !
 ! D2    D(4,1,2,8)             98.224          calculate D2E/DX2 analytically  !
 ! D3    D(4,1,2,10)          -144.8952         calculate D2E/DX2 analytically  !
 ! D4    D(5,1,2,6)            102.8414         calculate D2E/DX2 analytically  !
 ! D5    D(5,1,2,8)           -136.5941         calculate D2E/DX2 analytically  !
 ! D6    D(5,1,2,10)           -19.7133         calculate D2E/DX2 analytically  !
 ! D7    D(7,1,2,6)           -139.6084         calculate D2E/DX2 analytically  !
 ! D8    D(7,1,2,8)            -19.0439         calculate D2E/DX2 analytically  !
 ! D9    D(7,1,2,10)            97.8369         calculate D2E/DX2 analytically  !
 ! D10   D(2,1,7,3)             14.4072         calculate D2E/DX2 analytically  !
 ! D11   D(4,1,7,3)           -104.8579         calculate D2E/DX2 analytically  !
 ! D12   D(5,1,7,3)            133.8907         calculate D2E/DX2 analytically  !
 ! D13   D(1,2,8,3)             17.6064         calculate D2E/DX2 analytically  !
 ! D14   D(6,2,8,3)            142.6388         calculate D2E/DX2 analytically  !
 ! D15   D(10,2,8,3)          -100.0418         calculate D2E/DX2 analytically  !
 ! D16   D(8,3,7,1)             -4.1733         calculate D2E/DX2 analytically  !
 ! D17   D(9,3,7,1)            174.8851         calculate D2E/DX2 analytically  !
 ! D18   D(7,3,8,2)             -9.2729         calculate D2E/DX2 analytically  !
 ! D19   D(9,3,8,2)            171.6485         calculate D2E/DX2 analytically  !
 --------------------------------------------------------------------------------
 Trust Radius=3.00D-01 FncErr=1.00D-07 GrdErr=1.00D-07 EigMax=2.50D+02 EigMin=1.00D-04
 Number of steps in this run=      2 maximum allowed number of steps=      2.
 GradGradGradGradGradGradGradGradGradGradGradGradGradGradGradGradGradGrad

                          Input orientation:                          
 ---------------------------------------------------------------------
 Center     Atomic      Atomic             Coordinates (Angstroms)
 Number     Number       Type             X           Y           Z
 ---------------------------------------------------------------------
      1          6           0       -0.837406    0.574166    0.117144
      2          6           0        0.547401    0.838828   -0.469341
      3          6           0       -0.415427    2.814775    0.117513
      4          1           0       -1.550968    0.255892   -0.645598
      5          1           0       -0.805597   -0.141092    0.936747
      6          1           0        0.774617    0.348976   -1.414201
      7          8           0       -1.229182    1.857730    0.621622
      8          8           0        0.577924    2.224678   -0.639809
      9          8           0       -0.530734    3.981761    0.274756
     10          9           0        1.530143    0.469209    0.433257
 ---------------------------------------------------------------------
                    Distance matrix (angstroms):
                    1          2          3          4          5
     1  C    0.000000
     2  C    1.526991   0.000000
     3  C    2.279999   2.275039   0.000000
     4  H    1.091900   2.184957   2.901668   0.000000
     5  H    1.088281   2.183559   3.092011   1.793597   0.000000
     6  H    2.234803   1.088275   3.137278   2.451073   2.874752
     7  O    1.433710   2.320476   1.353610   2.067675   2.067370
     8  O    2.302244   1.396629   1.381484   2.899713   3.161729
     9  O    3.424996   3.405009   1.183164   3.971150   4.184699
    10  F    2.390864   1.384588   3.063759   3.271495   2.466100
                    6          7          8          9         10
     6  H    0.000000
     7  O    3.230499   0.000000
     8  O    2.038781   2.234165   0.000000
     9  O    4.213507   2.262665   2.269998   0.000000
    10  F    1.999594   3.094729   2.267127   4.075581   0.000000
 Stoichiometry    C3H3FO3
 Framework group  C1[X(C3H3FO3)]
 Deg. of freedom    24
 Full point group                 C1      NOp   1
 Largest Abelian subgroup         C1      NOp   1
 Largest concise Abelian subgroup C1      NOp   1
                         Standard orientation:                         
 ---------------------------------------------------------------------
 Center     Atomic      Atomic             Coordinates (Angstroms)
 Number     Number       Type             X           Y           Z
 ---------------------------------------------------------------------
      1          6           0        0.689120    1.238556    0.187079
      2          6           0        1.102250   -0.210731    0.433233
      3          6           0       -1.126152   -0.125809   -0.017119
      4          1           0        0.700813    1.829139    1.105404
      5          1           0        1.294914    1.712358   -0.582908
      6          1           0        1.696106   -0.399936    1.325353
      7          8           0       -0.661739    1.118585   -0.278014
      8          8           0       -0.113040   -0.892813    0.524921
      9          8           0       -2.229700   -0.510895   -0.200877
     10          9           0        1.816965   -0.696964   -0.648360
 ---------------------------------------------------------------------
 Rotational constants (GHZ):           5.5129359           2.4022401           1.9310000
 Standard basis: 6-311+G(d,p) (5D, 7F)
 There are   179 symmetry adapted cartesian basis functions of A   symmetry.
 There are   172 symmetry adapted basis functions of A   symmetry.
   172 basis functions,   276 primitive gaussians,   179 cartesian basis functions
    27 alpha electrons       27 beta electrons
       nuclear repulsion energy       322.0437786866 Hartrees.
 NAtoms=   10 NActive=   10 NUniq=   10 SFac= 1.00D+00 NAtFMM=   60 NAOKFM=F Big=F
 Integral buffers will be    131072 words long.
 Raffenetti 2 integral format.
 Two-electron integral symmetry is turned on.
 One-electron integrals computed using PRISM.
 NBasis=   172 RedAO= T EigKep=  7.81D-05  NBF=   172
 NBsUse=   172 1.00D-06 EigRej= -1.00D+00 NBFU=   172
 Initial guess from the checkpoint file:  "FEC.chk"
 B after Tr=     0.000000    0.000000    0.000000
         Rot=    1.000000    0.000000   -0.000000   -0.000000 Ang=   0.00 deg.
 Keep R1 ints in memory in canonical form, NReq=118719167.
 Requested convergence on RMS density matrix=1.00D-08 within 128 cycles.
 Requested convergence on MAX density matrix=1.00D-06.
 Requested convergence on             energy=1.00D-06.
 No special actions if energy rises.
 SCF Done:  E(RB3LYP) =  -441.778906710     A.U. after    1 cycles
            NFock=  1  Conv=0.26D-08     -V/T= 2.0031
 DoSCS=F DFT=T ScalE2(SS,OS)=  1.000000  1.000000
 Range of M.O.s used for correlation:     1   172
 NBasis=   172 NAE=    27 NBE=    27 NFC=     0 NFV=     0
 NROrb=    172 NOA=    27 NOB=    27 NVA=   145 NVB=   145

 **** Warning!!: The largest alpha MO coefficient is  0.39175337D+02

 Symmetrizing basis deriv contribution to polar:
 IMax=3 JMax=2 DiffMx= 0.00D+00
 G2DrvN: will do    11 centers at a time, making    1 passes.
 Calling FoFCou, ICntrl=  3107 FMM=F I1Cent=   0 AccDes= 0.00D+00.
 End of G2Drv F.D. properties file   721 does not exist.
 End of G2Drv F.D. properties file   722 does not exist.
 End of G2Drv F.D. properties file   788 does not exist.
          IDoAtm=1111111111
          Differentiating once with respect to electric field.
                with respect to dipole field.
          Differentiating once with respect to nuclear coordinates.
 Keep R1 ints in memory in canonical form, NReq=118701073.
          There are    33 degrees of freedom in the 1st order CPHF.  IDoFFX=6 NUNeed=     3.
     30 vectors produced by pass  0 Test12= 1.19D-14 3.03D-09 XBig12= 3.58D+01 2.23D+00.
 AX will form    30 AO Fock derivatives at one time.
     30 vectors produced by pass  1 Test12= 1.19D-14 3.03D-09 XBig12= 1.05D+01 7.05D-01.
     30 vectors produced by pass  2 Test12= 1.19D-14 3.03D-09 XBig12= 1.12D-01 7.51D-02.
     30 vectors produced by pass  3 Test12= 1.19D-14 3.03D-09 XBig12= 7.94D-04 5.97D-03.
     30 vectors produced by pass  4 Test12= 1.19D-14 3.03D-09 XBig12= 3.27D-06 2.44D-04.
     30 vectors produced by pass  5 Test12= 1.19D-14 3.03D-09 XBig12= 6.65D-09 8.41D-06.
      8 vectors produced by pass  6 Test12= 1.19D-14 3.03D-09 XBig12= 9.06D-12 4.20D-07.
      3 vectors produced by pass  7 Test12= 1.19D-14 3.03D-09 XBig12= 1.07D-14 1.47D-08.
 InvSVY:  IOpt=1 It=  1 EMax= 7.99D-15
 Solved reduced A of dimension   191 with    33 vectors.
 Isotropic polarizability for W=    0.000000       43.30 Bohr**3.
 End of Minotr F.D. properties file   721 does not exist.
 End of Minotr F.D. properties file   722 does not exist.
 End of Minotr F.D. properties file   788 does not exist.

 **********************************************************************

            Population analysis using the SCF density.

 **********************************************************************

 Orbital symmetries:
       Occupied  (A) (A) (A) (A) (A) (A) (A) (A) (A) (A) (A) (A)
                 (A) (A) (A) (A) (A) (A) (A) (A) (A) (A) (A) (A)
                 (A) (A) (A)
       Virtual   (A) (A) (A) (A) (A) (A) (A) (A) (A) (A) (A) (A)
                 (A) (A) (A) (A) (A) (A) (A) (A) (A) (A) (A) (A)
                 (A) (A) (A) (A) (A) (A) (A) (A) (A) (A) (A) (A)
                 (A) (A) (A) (A) (A) (A) (A) (A) (A) (A) (A) (A)
                 (A) (A) (A) (A) (A) (A) (A) (A) (A) (A) (A) (A)
                 (A) (A) (A) (A) (A) (A) (A) (A) (A) (A) (A) (A)
                 (A) (A) (A) (A) (A) (A) (A) (A) (A) (A) (A) (A)
                 (A) (A) (A) (A) (A) (A) (A) (A) (A) (A) (A) (A)
                 (A) (A) (A) (A) (A) (A) (A) (A) (A) (A) (A) (A)
                 (A) (A) (A) (A) (A) (A) (A) (A) (A) (A) (A) (A)
                 (A) (A) (A) (A) (A) (A) (A) (A) (A) (A) (A) (A)
                 (A) (A) (A) (A) (A) (A) (A) (A) (A) (A) (A) (A)
                 (A)
 The electronic state is 1-A.
 Alpha  occ. eigenvalues --  -24.70729 -19.21400 -19.21128 -19.13994 -10.37460
 Alpha  occ. eigenvalues --  -10.35332 -10.28155  -1.25382  -1.18949  -1.08487
 Alpha  occ. eigenvalues --   -1.07800  -0.81249  -0.71486  -0.65405  -0.59228
 Alpha  occ. eigenvalues --   -0.58091  -0.54651  -0.51629  -0.49249  -0.47666
 Alpha  occ. eigenvalues --   -0.45623  -0.43057  -0.41281  -0.38948  -0.37142
 Alpha  occ. eigenvalues --   -0.34167  -0.32967
 Alpha virt. eigenvalues --   -0.01438  -0.00326   0.00328   0.01617   0.02660
 Alpha virt. eigenvalues --    0.04334   0.05291   0.06797   0.07105   0.07944
 Alpha virt. eigenvalues --    0.10029   0.10726   0.11405   0.11507   0.14021
 Alpha virt. eigenvalues --    0.15829   0.17408   0.18410   0.19752   0.20327
 Alpha virt. eigenvalues --    0.21300   0.22414   0.23676   0.23757   0.25718
 Alpha virt. eigenvalues --    0.27183   0.27456   0.28781   0.29259   0.29822
 Alpha virt. eigenvalues --    0.31467   0.32798   0.33263   0.34699   0.36072
 Alpha virt. eigenvalues --    0.36198   0.37421   0.41232   0.43852   0.46038
 Alpha virt. eigenvalues --    0.47059   0.51793   0.53959   0.57961   0.61005
 Alpha virt. eigenvalues --    0.61523   0.63683   0.66774   0.70269   0.73817
 Alpha virt. eigenvalues --    0.77416   0.86261   0.91542   0.91818   0.97486
 Alpha virt. eigenvalues --    0.99842   1.03734   1.10413   1.11450   1.13556
 Alpha virt. eigenvalues --    1.15474   1.17949   1.18775   1.20920   1.23223
 Alpha virt. eigenvalues --    1.26623   1.31080   1.35538   1.37553   1.42011
 Alpha virt. eigenvalues --    1.44390   1.47765   1.49962   1.52276   1.56764
 Alpha virt. eigenvalues --    1.58533   1.61074   1.64351   1.67067   1.68335
 Alpha virt. eigenvalues --    1.69481   1.72481   1.77773   1.82767   1.85249
 Alpha virt. eigenvalues --    1.89224   1.95036   2.04078   2.10437   2.11612
 Alpha virt. eigenvalues --    2.21179   2.36011   2.45549   2.49832   2.51161
 Alpha virt. eigenvalues --    2.54091   2.65733   2.72593   2.74349   2.79022
 Alpha virt. eigenvalues --    2.81570   2.85294   2.87244   2.92101   2.98278
 Alpha virt. eigenvalues --    3.04411   3.05101   3.08938   3.14455   3.18468
 Alpha virt. eigenvalues --    3.21018   3.38730   3.46848   3.54087   3.66359
 Alpha virt. eigenvalues --    3.71953   3.76222   3.78875   3.86172   3.91010
 Alpha virt. eigenvalues --    3.94861   4.00457   4.06574   4.09181   4.22628
 Alpha virt. eigenvalues --    4.78336   4.95596   4.97679   5.02666   5.10202
 Alpha virt. eigenvalues --    5.21724   5.38023   5.42864   5.82169   5.85809
 Alpha virt. eigenvalues --    6.32237   6.33339   6.62543  23.66214  23.78500
 Alpha virt. eigenvalues --   23.80385  49.79558  49.87934  50.00808  66.77057
          Condensed to atoms (all electrons):
               1          2          3          4          5          6
     1  C    5.400477   0.013977  -0.046370   0.372972   0.453470  -0.067983
     2  C    0.013977   5.284689  -0.121655   0.006361  -0.081864   0.464535
     3  C   -0.046370  -0.121655   5.039734  -0.010558   0.018813   0.004757
     4  H    0.372972   0.006361  -0.010558   0.531296  -0.037339  -0.001036
     5  H    0.453470  -0.081864   0.018813  -0.037339   0.500479  -0.000022
     6  H   -0.067983   0.464535   0.004757  -0.001036  -0.000022   0.534258
     7  O    0.171884   0.001176   0.158355  -0.040721  -0.057840   0.006982
     8  O   -0.002394   0.157142   0.160888  -0.010817   0.012454  -0.071317
     9  O    0.010229   0.010209   0.477396   0.001689  -0.000503  -0.000519
    10  F   -0.126230   0.256329  -0.016967   0.008697  -0.005954  -0.054693
               7          8          9         10
     1  C    0.171884  -0.002394   0.010229  -0.126230
     2  C    0.001176   0.157142   0.010209   0.256329
     3  C    0.158355   0.160888   0.477396  -0.016967
     4  H   -0.040721  -0.010817   0.001689   0.008697
     5  H   -0.057840   0.012454  -0.000503  -0.005954
     6  H    0.006982  -0.071317  -0.000519  -0.054693
     7  O    8.150443  -0.154761  -0.102970   0.009849
     8  O   -0.154761   8.159265  -0.094592  -0.037919
     9  O   -0.102970  -0.094592   8.008202  -0.000672
    10  F    0.009849  -0.037919  -0.000672   9.126220
 Mulliken charges:
               1
     1  C   -0.180032
     2  C    0.009102
     3  C    0.335607
     4  H    0.179457
     5  H    0.198305
     6  H    0.185038
     7  O   -0.142396
     8  O   -0.117951
     9  O   -0.308469
    10  F   -0.158661
 Sum of Mulliken charges =  -0.00000
 Mulliken charges with hydrogens summed into heavy atoms:
               1
     1  C    0.197730
     2  C    0.194140
     3  C    0.335607
     7  O   -0.142396
     8  O   -0.117951
     9  O   -0.308469
    10  F   -0.158661
 APT charges:
               1
     1  C    0.356934
     2  C    0.987627
     3  C    1.555784
     4  H   -0.004142
     5  H    0.029994
     6  H   -0.009918
     7  O   -0.748594
     8  O   -0.820856
     9  O   -0.786332
    10  F   -0.560497
 Sum of APT charges =   0.00000
 APT charges with hydrogens summed into heavy atoms:
               1
     1  C    0.382786
     2  C    0.977709
     3  C    1.555784
     7  O   -0.748594
     8  O   -0.820856
     9  O   -0.786332
    10  F   -0.560497
 Electronic spatial extent (au):  <R**2>=            613.5919
 Charge=              0.0000 electrons
 Dipole moment (field-independent basis, Debye):
    X=              3.7177    Y=              2.5652    Z=              2.0888  Tot=              4.9764
 Quadrupole moment (field-independent basis, Debye-Ang):
   XX=            -45.7085   YY=            -39.5315   ZZ=            -37.2654
   XY=              1.6289   XZ=              1.8372   YZ=              0.7101
 Traceless Quadrupole moment (field-independent basis, Debye-Ang):
   XX=             -4.8734   YY=              1.3037   ZZ=              3.5698
   XY=              1.6289   XZ=              1.8372   YZ=              0.7101
 Octapole moment (field-independent basis, Debye-Ang**2):
  XXX=             21.3802  YYY=              0.4523  ZZZ=             -1.5694  XYY=              7.1582
  XXY=              5.1606  XXZ=              6.5827  XZZ=              3.1141  YZZ=              0.0150
  YYZ=             -0.0518  XYZ=             -2.7449
 Hexadecapole moment (field-independent basis, Debye-Ang**3):
 XXXX=           -477.4916 YYYY=           -197.0358 ZZZZ=            -76.7003 XXXY=            -11.1910
 XXXZ=             -2.3225 YYYX=             -0.6122 YYYZ=              3.6726 ZZZX=             -2.6244
 ZZZY=              2.2904 XXYY=           -107.1679 XXZZ=            -80.9967 YYZZ=            -44.2505
 XXYZ=             -4.1532 YYXZ=             -2.0834 ZZXY=             -1.4069
 N-N= 3.220437786866D+02 E-N=-1.684864195591D+03  KE= 4.404167068182D+02
  Exact polarizability:  53.892   4.607  41.380   2.564  -0.019  34.628
 Approx polarizability:  73.842   7.263  56.622   3.459  -0.712  48.590
 Calling FoFJK, ICntrl=    100127 FMM=F ISym2X=0 I1Cent= 0 IOpClX= 0 NMat=1 NMatS=1 NMatT=0.
 Full mass-weighted force constant matrix:
 Low frequencies ---   -4.6032   -1.7416   -0.0006    0.0006    0.0010    1.7634
 Low frequencies ---  118.3852  173.1699  391.6869
 Diagonal vibrational polarizability:
       17.2206614       9.8765229       9.5362550
 Harmonic frequencies (cm**-1), IR intensities (KM/Mole), Raman scattering
 activities (A**4/AMU), depolarization ratios for plane and unpolarized
 incident light, reduced masses (AMU), force constants (mDyne/A),
 and normal coordinates:
                      1                      2                      3
                      A                      A                      A
 Frequencies --    118.3849               173.1696               391.6869
 Red. masses --     10.0361                 4.8976                 3.6659
 Frc consts  --      0.0829                 0.0865                 0.3314
 IR Inten    --      2.6251                 2.1137                 5.7802
  Atom  AN      X      Y      Z        X      Y      Z        X      Y      Z
     1   6    -0.03  -0.03  -0.18     0.05   0.04  -0.18     0.10  -0.11  -0.14
     2   6    -0.04  -0.03  -0.06     0.01   0.03  -0.03    -0.05  -0.07   0.11
     3   6    -0.11   0.02   0.00    -0.00   0.02   0.03    -0.01  -0.05   0.03
     4   1     0.19   0.11  -0.28     0.46   0.25  -0.33     0.30   0.28  -0.39
     5   1    -0.12  -0.20  -0.36    -0.16  -0.22  -0.51     0.11  -0.54  -0.41
     6   1    -0.30   0.04   0.14     0.02   0.12  -0.02    -0.04  -0.15   0.08
     7   8    -0.13   0.04   0.09    -0.13   0.12   0.33     0.07  -0.10   0.03
     8   8    -0.01  -0.13  -0.40     0.01   0.05   0.05    -0.06  -0.10   0.10
     9   8    -0.18   0.12   0.25     0.08  -0.10  -0.21    -0.05   0.09  -0.05
    10   9     0.39  -0.01   0.23    -0.01  -0.13   0.02    -0.02   0.26  -0.02
                      4                      5                      6
                      A                      A                      A
 Frequencies --    477.5398               548.5998               731.5711
 Red. masses --      7.9538                 8.1913                11.0763
 Frc consts  --      1.0687                 1.4525                 3.4927
 IR Inten    --      3.6863                 3.1077                10.9458
  Atom  AN      X      Y      Z        X      Y      Z        X      Y      Z
     1   6    -0.11  -0.10   0.02    -0.19   0.15  -0.05    -0.35  -0.16  -0.10
     2   6     0.10  -0.05  -0.18     0.10   0.19   0.01    -0.21  -0.22   0.01
     3   6    -0.14  -0.00   0.10     0.14  -0.21   0.06     0.27   0.20   0.10
     4   1    -0.20  -0.42   0.23    -0.24   0.18  -0.06    -0.28  -0.23  -0.06
     5   1    -0.22   0.30   0.18    -0.31   0.28  -0.07    -0.13  -0.26   0.02
     6   1     0.20   0.05  -0.23     0.17   0.43   0.02    -0.08   0.02  -0.03
     7   8    -0.10  -0.09   0.01    -0.03  -0.22   0.07    -0.22   0.24  -0.13
     8   8    -0.04   0.08   0.34     0.23  -0.21  -0.05    -0.01  -0.24   0.10
     9   8    -0.16   0.16  -0.16    -0.03   0.38  -0.11     0.43   0.14   0.05
    10   9     0.36  -0.03  -0.14    -0.15  -0.08   0.07     0.04   0.03  -0.02
                      7                      8                      9
                      A                      A                      A
 Frequencies --    760.1578               827.2932               858.1664
 Red. masses --     11.5034                 6.0966                 3.4437
 Frc consts  --      3.9164                 2.4584                 1.4942
 IR Inten    --     14.4196                17.6979                39.0892
  Atom  AN      X      Y      Z        X      Y      Z        X      Y      Z
     1   6     0.04   0.12  -0.03    -0.05  -0.22   0.07     0.00   0.29   0.10
     2   6    -0.05   0.07  -0.14     0.22  -0.08   0.27    -0.02  -0.06   0.15
     3   6    -0.19   0.18   0.79    -0.14   0.18   0.11    -0.04  -0.01  -0.01
     4   1     0.03   0.00   0.06    -0.13   0.15  -0.18    -0.03   0.79  -0.21
     5   1     0.05   0.25   0.06    -0.04  -0.54  -0.10     0.02  -0.12  -0.14
     6   1    -0.14   0.10  -0.08     0.40  -0.19   0.15     0.05  -0.32   0.05
     7   8     0.17  -0.07  -0.14    -0.18   0.01  -0.10    -0.01   0.07  -0.06
     8   8    -0.08  -0.12  -0.17     0.27   0.13  -0.11    -0.01  -0.14   0.05
     9   8     0.07  -0.11  -0.21    -0.07   0.01  -0.07    -0.04  -0.02  -0.00
    10   9    -0.00   0.00   0.04    -0.05  -0.01  -0.04     0.09  -0.08  -0.13
                     10                     11                     12
                      A                      A                      A
 Frequencies --    893.9357              1000.5455              1069.4542
 Red. masses --      5.1243                 2.9057                 3.7689
 Frc consts  --      2.4127                 1.7138                 2.5398
 IR Inten    --     11.6164               186.2948               124.4380
  Atom  AN      X      Y      Z        X      Y      Z        X      Y      Z
     1   6     0.15  -0.03  -0.05     0.10   0.11  -0.08    -0.17   0.01  -0.16
     2   6     0.08   0.04  -0.07     0.23  -0.18  -0.02     0.05  -0.08   0.11
     3   6    -0.12  -0.02  -0.04     0.04  -0.02   0.02    -0.10   0.23  -0.11
     4   1     0.17  -0.42   0.20    -0.11  -0.10   0.05    -0.39  -0.13  -0.05
     5   1     0.31   0.21   0.22    -0.23   0.60  -0.04    -0.48   0.54  -0.08
     6   1     0.23   0.46  -0.07     0.01  -0.64   0.05     0.17   0.18   0.10
     7   8    -0.04   0.28  -0.08    -0.12  -0.02  -0.03     0.22  -0.03   0.10
     8   8     0.13  -0.28   0.11    -0.09   0.01  -0.01     0.02  -0.07   0.02
     9   8    -0.15  -0.06  -0.02     0.03   0.02   0.00    -0.02  -0.07   0.02
    10   9    -0.06   0.04   0.08    -0.06   0.06   0.08    -0.01   0.01  -0.02
                     13                     14                     15
                      A                      A                      A
 Frequencies --   1076.1233              1113.2004              1146.3545
 Red. masses --      6.2125                 3.0234                 4.1851
 Frc consts  --      4.2388                 2.2074                 3.2404
 IR Inten    --    124.9920                61.4771               267.4310
  Atom  AN      X      Y      Z        X      Y      Z        X      Y      Z
     1   6    -0.29  -0.11   0.04     0.07  -0.04  -0.16     0.16  -0.05   0.12
     2   6     0.38   0.12  -0.02     0.00   0.12   0.27     0.13   0.16   0.00
     3   6     0.05  -0.19   0.05     0.04  -0.10   0.06    -0.00   0.23  -0.09
     4   1     0.18   0.22  -0.16    -0.32  -0.44   0.11     0.09   0.17  -0.03
     5   1    -0.08  -0.58  -0.10     0.42   0.33   0.33    -0.20  -0.05  -0.14
     6   1     0.33  -0.01  -0.01    -0.10   0.13   0.34     0.38   0.71  -0.04
     7   8     0.15   0.19  -0.02    -0.05   0.03   0.03    -0.13  -0.15  -0.01
     8   8    -0.25  -0.01  -0.04    -0.10   0.00  -0.05    -0.19  -0.13  -0.01
     9   8    -0.02  -0.02   0.01     0.01   0.01  -0.00     0.09  -0.00   0.03
    10   9    -0.01  -0.00   0.01     0.04  -0.03  -0.12     0.01  -0.02  -0.02
                     16                     17                     18
                      A                      A                      A
 Frequencies --   1234.7136              1360.3926              1373.1542
 Red. masses --      1.1523                 1.5972                 1.2507
 Frc consts  --      1.0350                 1.7416                 1.3894
 IR Inten    --     28.0314                30.0361                25.4076
  Atom  AN      X      Y      Z        X      Y      Z        X      Y      Z
     1   6    -0.00  -0.01   0.03    -0.03   0.10  -0.01     0.04  -0.04   0.04
     2   6    -0.02   0.03   0.07    -0.02  -0.17   0.05     0.03  -0.09  -0.04
     3   6     0.01  -0.03   0.01     0.01  -0.05   0.02     0.01  -0.04   0.02
     4   1     0.63  -0.25   0.19     0.32  -0.13   0.14    -0.26   0.29  -0.16
     5   1    -0.58   0.20  -0.27     0.18  -0.06   0.05    -0.17   0.12  -0.03
     6   1    -0.16  -0.01   0.15     0.56   0.66  -0.15    -0.48   0.57   0.45
     7   8     0.01   0.02  -0.05    -0.00  -0.02  -0.01     0.00   0.03  -0.00
     8   8     0.01  -0.00  -0.00    -0.03   0.06  -0.04     0.00   0.02   0.00
     9   8    -0.00   0.01   0.00    -0.01   0.01  -0.00    -0.01   0.00  -0.00
    10   9     0.01  -0.01  -0.03     0.00   0.02   0.01    -0.01   0.01  -0.02
                     19                     20                     21
                      A                      A                      A
 Frequencies --   1402.6758              1504.7191              1921.9420
 Red. masses --      1.4333                 1.0900                13.0093
 Frc consts  --      1.6615                 1.4541                28.3129
 IR Inten    --     17.3179                 9.7656               662.1202
  Atom  AN      X      Y      Z        X      Y      Z        X      Y      Z
     1   6     0.08  -0.09   0.02    -0.05  -0.07  -0.01    -0.03  -0.02  -0.00
     2   6    -0.09   0.01   0.03    -0.00   0.00  -0.00    -0.05   0.00   0.00
     3   6     0.02  -0.08   0.03    -0.01   0.01  -0.01     0.78   0.29   0.12
     4   1    -0.36   0.26  -0.20     0.49   0.41  -0.30     0.06  -0.01  -0.02
     5   1    -0.43   0.33  -0.11     0.20   0.46   0.49    -0.02  -0.00   0.04
     6   1     0.51  -0.02  -0.39    -0.00  -0.04  -0.01    -0.01  -0.02  -0.04
     7   8     0.01   0.06  -0.01    -0.01  -0.01  -0.00    -0.03  -0.02  -0.01
     8   8    -0.01   0.02  -0.02     0.00  -0.00   0.00    -0.02  -0.02   0.00
     9   8    -0.01   0.01  -0.00     0.01   0.00   0.00    -0.49  -0.17  -0.08
    10   9     0.01  -0.00   0.01    -0.00   0.00   0.00     0.01  -0.00  -0.00
                     22                     23                     24
                      A                      A                      A
 Frequencies --   3070.7766              3133.4931              3145.8825
 Red. masses --      1.0634                 1.0906                 1.1054
 Frc consts  --      5.9083                 6.3092                 6.4454
 IR Inten    --     16.0470                17.7625                 5.2417
  Atom  AN      X      Y      Z        X      Y      Z        X      Y      Z
     1   6    -0.02  -0.06  -0.04    -0.01  -0.01   0.02     0.04   0.01  -0.08
     2   6     0.00  -0.00   0.01    -0.05   0.02  -0.07    -0.01   0.00  -0.02
     3   6     0.00   0.00  -0.00     0.00  -0.00   0.00    -0.00  -0.00  -0.00
     4   1    -0.00   0.48   0.76    -0.00  -0.01  -0.02     0.00   0.23   0.34
     5   1     0.23   0.17  -0.31     0.13   0.10  -0.17    -0.48  -0.39   0.63
     6   1    -0.04   0.01  -0.06     0.53  -0.17   0.79     0.12  -0.04   0.18
     7   8    -0.00  -0.00  -0.00     0.00  -0.00   0.00     0.00   0.00   0.00
     8   8     0.00   0.00   0.00    -0.00   0.00   0.00    -0.00  -0.00   0.00
     9   8    -0.00  -0.00  -0.00    -0.00  -0.00  -0.00     0.00  -0.00  -0.00
    10   9    -0.00   0.00   0.00     0.00  -0.00  -0.00    -0.00   0.00   0.00

 -------------------
 - Thermochemistry -
 -------------------
 Temperature   298.150 Kelvin.  Pressure   1.00000 Atm.
 Atom     1 has atomic number  6 and mass  12.00000
 Atom     2 has atomic number  6 and mass  12.00000
 Atom     3 has atomic number  6 and mass  12.00000
 Atom     4 has atomic number  1 and mass   1.00783
 Atom     5 has atomic number  1 and mass   1.00783
 Atom     6 has atomic number  1 and mass   1.00783
 Atom     7 has atomic number  8 and mass  15.99491
 Atom     8 has atomic number  8 and mass  15.99491
 Atom     9 has atomic number  8 and mass  15.99491
 Atom    10 has atomic number  9 and mass  18.99840
 Molecular mass:   106.00662 amu.
 Principal axes and moments of inertia in atomic units:
                           1         2         3
     Eigenvalues --   327.36481 751.27427 934.61481
           X            0.99919   0.03471   0.02054
           Y           -0.03480   0.99939   0.00407
           Z           -0.02038  -0.00478   0.99978
 This molecule is an asymmetric top.
 Rotational symmetry number  1.
 Rotational temperatures (Kelvin)      0.26458     0.11529     0.09267
 Rotational constants (GHZ):           5.51294     2.40224     1.93100
 Zero-point vibrational energy     175455.9 (Joules/Mol)
                                   41.93496 (Kcal/Mol)
 Warning -- explicit consideration of   5 degrees of freedom as
           vibrations may cause significant error
 Vibrational temperatures:    170.33   249.15   563.55   687.07   789.31
          (Kelvin)           1052.57  1093.70  1190.29  1234.71  1286.17
                             1439.56  1538.71  1548.30  1601.65  1649.35
                             1776.48  1957.30  1975.66  2018.14  2164.96
                             2765.25  4418.16  4508.40  4526.22
 
 Zero-point correction=                           0.066828 (Hartree/Particle)
 Thermal correction to Energy=                    0.072275
 Thermal correction to Enthalpy=                  0.073220
 Thermal correction to Gibbs Free Energy=         0.037077
 Sum of electronic and zero-point Energies=           -441.712079
 Sum of electronic and thermal Energies=              -441.706631
 Sum of electronic and thermal Enthalpies=            -441.705687
 Sum of electronic and thermal Free Energies=         -441.741830
 
                     E (Thermal)             CV                S
                      KCal/Mol        Cal/Mol-Kelvin    Cal/Mol-Kelvin
 Total                   45.354             18.977             76.068
 Electronic               0.000              0.000              0.000
 Translational            0.889              2.981             39.892
 Rotational               0.889              2.981             26.933
 Vibrational             43.576             13.015              9.244
 Vibration     1          0.609              1.934              3.127
 Vibration     2          0.627              1.875              2.401
 Vibration     3          0.759              1.488              0.994
 Vibration     4          0.834              1.300              0.717
 Vibration     5          0.904              1.143              0.547
                       Q            Log10(Q)             Ln(Q)
 Total Bot       0.882489D-17        -17.054291        -39.268955
 Total V=0       0.483339D+14         13.684252         31.509154
 Vib (Bot)       0.119861D-29        -29.921321        -68.896388
 Vib (Bot)    1  0.172685D+01          0.237255          0.546300
 Vib (Bot)    2  0.116253D+01          0.065406          0.150602
 Vib (Bot)    3  0.457799D+00         -0.339325         -0.781325
 Vib (Bot)    4  0.350963D+00         -0.454739         -1.047074
 Vib (Bot)    5  0.286444D+00         -0.542960         -1.250212
 Vib (V=0)       0.656479D+01          0.817221          1.881721
 Vib (V=0)    1  0.229778D+01          0.361309          0.831944
 Vib (V=0)    2  0.176550D+01          0.246867          0.568433
 Vib (V=0)    3  0.117792D+01          0.071117          0.163753
 Vib (V=0)    4  0.111088D+01          0.045667          0.105153
 Vib (V=0)    5  0.107624D+01          0.031908          0.073472
 Electronic      0.100000D+01          0.000000          0.000000
 Translational   0.428996D+08          7.632453         17.574373
 Rotational      0.171624D+06          5.234577         12.053059
 ***** Axes restored to original set *****
 -------------------------------------------------------------------
 Center     Atomic                   Forces (Hartrees/Bohr)
 Number     Number              X              Y              Z
 -------------------------------------------------------------------
      1        6          -0.000088244    0.000100603    0.000037318
      2        6          -0.000064534    0.000042154   -0.000020243
      3        6          -0.000040939    0.000127279   -0.000058348
      4        1          -0.000018335    0.000003075   -0.000011705
      5        1           0.000027076   -0.000039377    0.000001497
      6        1           0.000003463   -0.000018225    0.000001176
      7        8           0.000125945   -0.000130755   -0.000079177
      8        8          -0.000025842   -0.000046217    0.000045488
      9        8           0.000013837   -0.000029663    0.000031281
     10        9           0.000067573   -0.000008873    0.000052714
 -------------------------------------------------------------------
 Cartesian Forces:  Max     0.000130755 RMS     0.000058771
 FormGI is forming the generalized inverse of G from B-inverse, IUseBI=4.

 GradGradGradGradGradGradGradGradGradGradGradGradGradGradGradGradGradGrad
 Berny optimization.
 Internal  Forces:  Max     0.000108723 RMS     0.000032270
 Search for a local minimum.
 Step number   1 out of a maximum of    2
 All quantities printed in internal units (Hartrees-Bohrs-Radians)
 Second derivative matrix not updated -- analytic derivatives used.
 ITU=  0
     Eigenvalues ---    0.00290   0.01007   0.04388   0.04692   0.05198
     Eigenvalues ---    0.07340   0.09012   0.09463   0.09731   0.12093
     Eigenvalues ---    0.15510   0.18840   0.22917   0.25469   0.27118
     Eigenvalues ---    0.27888   0.33254   0.33690   0.34479   0.34929
     Eigenvalues ---    0.35839   0.37392   0.41340   0.96211
 Angle between quadratic step and forces=  74.63 degrees.
 Linear search not attempted -- first point.
 Iteration  1 RMS(Cart)=  0.00058554 RMS(Int)=  0.00000029
 Iteration  2 RMS(Cart)=  0.00000027 RMS(Int)=  0.00000008
 Variable       Old X    -DE/DX   Delta X   Delta X   Delta X     New X
                                 (Linear)    (Quad)   (Total)
    R1        2.88559  -0.00001   0.00000  -0.00006  -0.00006   2.88553
    R2        2.06339   0.00002   0.00000   0.00008   0.00008   2.06347
    R3        2.05655   0.00003   0.00000   0.00009   0.00009   2.05664
    R4        2.70932  -0.00011   0.00000  -0.00049  -0.00049   2.70883
    R5        2.05654   0.00001   0.00000   0.00001   0.00001   2.05655
    R6        2.63925  -0.00001   0.00000  -0.00009  -0.00009   2.63916
    R7        2.61649   0.00008   0.00000   0.00033   0.00033   2.61682
    R8        2.55795   0.00000   0.00000   0.00008   0.00008   2.55803
    R9        2.61063  -0.00002   0.00000   0.00001   0.00001   2.61063
   R10        2.23586  -0.00003   0.00000  -0.00007  -0.00007   2.23579
    A1        1.95506   0.00003   0.00000   0.00000   0.00000   1.95507
    A2        1.95699  -0.00003   0.00000  -0.00023  -0.00023   1.95676
    A3        1.80060  -0.00004   0.00000  -0.00024  -0.00024   1.80036
    A4        1.93223   0.00000   0.00000   0.00001   0.00001   1.93223
    A5        1.90517   0.00001   0.00000   0.00010   0.00010   1.90527
    A6        1.90858   0.00003   0.00000   0.00037   0.00037   1.90895
    A7        2.03174  -0.00001   0.00000   0.00008   0.00008   2.03182
    A8        1.81181   0.00001   0.00000  -0.00007  -0.00007   1.81174
    A9        1.92521   0.00001   0.00000   0.00000   0.00000   1.92521
   A10        1.91358   0.00000   0.00000   0.00020   0.00020   1.91378
   A11        1.87301  -0.00000   0.00000  -0.00008  -0.00008   1.87293
   A12        1.90599  -0.00001   0.00000  -0.00015  -0.00015   1.90584
   A13        1.91179  -0.00008   0.00000  -0.00030  -0.00030   1.91149
   A14        2.20097   0.00003   0.00000   0.00008   0.00008   2.20104
   A15        2.17031   0.00005   0.00000   0.00023   0.00023   2.17054
   A16        1.91523   0.00009   0.00000   0.00021   0.00021   1.91544
   A17        1.91902   0.00002   0.00000  -0.00007  -0.00007   1.91894
    D1       -0.38992  -0.00001   0.00000  -0.00146  -0.00146  -0.39138
    D2        1.71433  -0.00000   0.00000  -0.00122  -0.00122   1.71312
    D3       -2.52890  -0.00001   0.00000  -0.00142  -0.00142  -2.53032
    D4        1.79492  -0.00001   0.00000  -0.00163  -0.00163   1.79329
    D5       -2.38402  -0.00000   0.00000  -0.00138  -0.00138  -2.38540
    D6       -0.34406  -0.00001   0.00000  -0.00159  -0.00159  -0.34565
    D7       -2.43663  -0.00001   0.00000  -0.00145  -0.00145  -2.43807
    D8       -0.33238  -0.00000   0.00000  -0.00120  -0.00120  -0.33358
    D9        1.70758  -0.00001   0.00000  -0.00140  -0.00140   1.70617
   D10        0.25145   0.00002   0.00000   0.00113   0.00113   0.25258
   D11       -1.83011   0.00001   0.00000   0.00121   0.00121  -1.82891
   D12        2.33683  -0.00002   0.00000   0.00091   0.00091   2.33774
   D13        0.30729   0.00000   0.00000   0.00091   0.00091   0.30820
   D14        2.48952  -0.00000   0.00000   0.00108   0.00108   2.49060
   D15       -1.74606  -0.00001   0.00000   0.00101   0.00101  -1.74505
   D16       -0.07284  -0.00003   0.00000  -0.00063  -0.00063  -0.07347
   D17        3.05232   0.00003   0.00000  -0.00008  -0.00008   3.05224
   D18       -0.16184   0.00001   0.00000  -0.00023  -0.00023  -0.16207
   D19        2.99583  -0.00004   0.00000  -0.00077  -0.00077   2.99506
         Item               Value     Threshold  Converged?
 Maximum Force            0.000109     0.000450     YES
 RMS     Force            0.000032     0.000300     YES
 Maximum Displacement     0.001663     0.001800     YES
 RMS     Displacement     0.000586     0.001200     YES
 Predicted change in Energy=-1.499890D-07
 Optimization completed.
    -- Stationary point found.
                           ----------------------------
                           !   Optimized Parameters   !
                           ! (Angstroms and Degrees)  !
 --------------------------                            --------------------------
 ! Name  Definition              Value          Derivative Info.                !
 --------------------------------------------------------------------------------
 ! R1    R(1,2)                  1.527          -DE/DX =    0.0                 !
 ! R2    R(1,4)                  1.0919         -DE/DX =    0.0                 !
 ! R3    R(1,5)                  1.0883         -DE/DX =    0.0                 !
 ! R4    R(1,7)                  1.4337         -DE/DX =   -0.0001              !
 ! R5    R(2,6)                  1.0883         -DE/DX =    0.0                 !
 ! R6    R(2,8)                  1.3966         -DE/DX =    0.0                 !
 ! R7    R(2,10)                 1.3846         -DE/DX =    0.0001              !
 ! R8    R(3,7)                  1.3536         -DE/DX =    0.0                 !
 ! R9    R(3,8)                  1.3815         -DE/DX =    0.0                 !
 ! R10   R(3,9)                  1.1832         -DE/DX =    0.0                 !
 ! A1    A(2,1,4)              112.0169         -DE/DX =    0.0                 !
 ! A2    A(2,1,5)              112.1272         -DE/DX =    0.0                 !
 ! A3    A(2,1,7)              103.167          -DE/DX =    0.0                 !
 ! A4    A(4,1,5)              110.7084         -DE/DX =    0.0                 !
 ! A5    A(4,1,7)              109.1583         -DE/DX =    0.0                 !
 ! A6    A(5,1,7)              109.3535         -DE/DX =    0.0                 !
 ! A7    A(1,2,6)              116.4101         -DE/DX =    0.0                 !
 ! A8    A(1,2,8)              103.8089         -DE/DX =    0.0                 !
 ! A9    A(1,2,10)             110.3062         -DE/DX =    0.0                 !
 ! A10   A(6,2,8)              109.64           -DE/DX =    0.0                 !
 ! A11   A(6,2,10)             107.3155         -DE/DX =    0.0                 !
 ! A12   A(8,2,10)             109.2049         -DE/DX =    0.0                 !
 ! A13   A(7,3,8)              109.5375         -DE/DX =   -0.0001              !
 ! A14   A(7,3,9)              126.106          -DE/DX =    0.0                 !
 ! A15   A(8,3,9)              124.3494         -DE/DX =    0.0                 !
 ! A16   A(1,7,3)              109.7349         -DE/DX =    0.0001              !
 ! A17   A(2,8,3)              109.9515         -DE/DX =    0.0                 !
 ! D1    D(4,1,2,6)            -22.3405         -DE/DX =    0.0                 !
 ! D2    D(4,1,2,8)             98.224          -DE/DX =    0.0                 !
 ! D3    D(4,1,2,10)          -144.8952         -DE/DX =    0.0                 !
 ! D4    D(5,1,2,6)            102.8414         -DE/DX =    0.0                 !
 ! D5    D(5,1,2,8)           -136.5941         -DE/DX =    0.0                 !
 ! D6    D(5,1,2,10)           -19.7133         -DE/DX =    0.0                 !
 ! D7    D(7,1,2,6)           -139.6084         -DE/DX =    0.0                 !
 ! D8    D(7,1,2,8)            -19.0439         -DE/DX =    0.0                 !
 ! D9    D(7,1,2,10)            97.8369         -DE/DX =    0.0                 !
 ! D10   D(2,1,7,3)             14.4072         -DE/DX =    0.0                 !
 ! D11   D(4,1,7,3)           -104.8579         -DE/DX =    0.0                 !
 ! D12   D(5,1,7,3)            133.8907         -DE/DX =    0.0                 !
 ! D13   D(1,2,8,3)             17.6064         -DE/DX =    0.0                 !
 ! D14   D(6,2,8,3)            142.6388         -DE/DX =    0.0                 !
 ! D15   D(10,2,8,3)          -100.0418         -DE/DX =    0.0                 !
 ! D16   D(8,3,7,1)             -4.1733         -DE/DX =    0.0                 !
 ! D17   D(9,3,7,1)            174.8851         -DE/DX =    0.0                 !
 ! D18   D(7,3,8,2)             -9.2729         -DE/DX =    0.0                 !
 ! D19   D(9,3,8,2)            171.6485         -DE/DX =    0.0                 !
 --------------------------------------------------------------------------------
 GradGradGradGradGradGradGradGradGradGradGradGradGradGradGradGradGradGrad


 ----------------------------------------------------------------------

 Electric dipole moment (input orientation):
 (Debye = 10**-18 statcoulomb cm , SI units = C m)
                  (au)            (Debye)         (10**-30 SI)
   Tot        0.195788D+01      0.497643D+01      0.165996D+02
   x         -0.409838D+00     -0.104170D+01     -0.347475D+01
   y         -0.179715D+01     -0.456791D+01     -0.152369D+02
   z         -0.659976D+00     -0.167749D+01     -0.559551D+01

 Dipole polarizability, Alpha (input orientation).
 (esu units = cm**3 , SI units = C**2 m**2 J**-1)
 Alpha(0;0):
               (au)            (10**-24 esu)      (10**-40 SI)
   iso        0.433002D+02      0.641643D+01      0.713924D+01
   aniso      0.192358D+02      0.285045D+01      0.317155D+01
   xx         0.394387D+02      0.584422D+01      0.650257D+01
   yx        -0.192949D+01     -0.285921D+00     -0.318130D+00
   yy         0.552542D+02      0.818783D+01      0.911019D+01
   zx        -0.220412D+01     -0.326617D+00     -0.363411D+00
   zy         0.176330D+01      0.261294D+00      0.290729D+00
   zz         0.352078D+02      0.521726D+01      0.580498D+01

 ----------------------------------------------------------------------

 Dipole orientation:
     6         -1.73286701         -0.42550970         -0.73931180
     6          0.95840484         -1.25174638         -1.37259092
     6         -1.57017987         -1.87631020         -4.79301686
     1         -2.64896567         -1.71987978          0.58089809
     1         -1.80470410          1.50472248         -0.03330102
     1          1.88049237         -2.48661984         -0.01089949
     8         -2.99707598         -0.55395833         -3.13215258
     8          0.70528675         -2.50776475         -3.67996430
     8         -2.16004384         -2.45051181         -6.87181560
     9          2.49798894          0.83910521         -1.69515391

 Electric dipole moment (dipole orientation):
 (Debye = 10**-18 statcoulomb cm , SI units = C m)
                  (au)            (Debye)         (10**-30 SI)
   Tot        0.195788D+01      0.497643D+01      0.165996D+02
   x          0.000000D+00      0.000000D+00      0.000000D+00
   y          0.000000D+00      0.000000D+00      0.000000D+00
   z          0.195788D+01      0.497643D+01      0.165996D+02

 Dipole polarizability, Alpha (dipole orientation).
 (esu units = cm**3 , SI units = C**2 m**2 J**-1)
 Alpha(0;0):
               (au)            (10**-24 esu)      (10**-40 SI)
   iso        0.433002D+02      0.641643D+01      0.713924D+01
   aniso      0.192358D+02      0.285045D+01      0.317155D+01
   xx         0.411149D+02      0.609260D+01      0.677893D+01
   yx         0.396982D+00      0.588266D-01      0.654535D-01
   yy         0.364638D+02      0.540337D+01      0.601206D+01
   zx         0.448890D+01      0.665186D+00      0.740119D+00
   zy         0.604796D+01      0.896216D+00      0.997174D+00
   zz         0.523220D+02      0.775332D+01      0.862674D+01

 ----------------------------------------------------------------------
 1\1\GINC-HUSH-MIND\Freq\RB3LYP\6-311+G(d,p)\C3H3F1O3\HUSH\29-Jul-2026\
 0\\#N Geom=AllCheck Guess=TCheck SCRF=Check GenChk RB3LYP/6-311+G(d,p)
  Freq\\FEC\\0,1\C,-0.8374057323,0.5741658562,0.1171442931\C,0.54740110
 58,0.8388278333,-0.4693406299\C,-0.4154274464,2.8147754892,0.117512641
 7\H,-1.5509683642,0.2558916862,-0.6455975395\H,-0.8055971069,-0.141092
 2413,0.9367472104\H,0.7746166803,0.3489762958,-1.4142006051\O,-1.22918
 22601,1.8577301215,0.6216224317\O,0.5779241134,2.2246784644,-0.6398089
 049\O,-0.5307341449,3.9817612547,0.274756071\F,1.5301428553,0.46920887
 01,0.4332573616\\Version=ES64L-G16RevA.03\State=1-A\HF=-441.7789067\RM
 SD=2.586e-09\RMSF=5.877e-05\ZeroPoint=0.0668276\Thermal=0.0722755\Dipo
 le=-0.4098381,-1.7971525,-0.659976\DipoleDeriv=0.1389342,-0.1433733,0.
 0444874,-0.0144556,0.6397626,0.102334,0.107513,0.1982417,0.2921058,1.0
 208153,-0.2217014,0.252452,-0.3925946,1.1700402,-0.0603151,0.3581245,-
 0.274482,0.7720247,1.3252581,-0.0473044,-0.5276208,-0.0619971,2.569349
 3,0.1749499,-0.6090125,0.1751313,0.7727436,0.0028302,-0.0168276,-0.065
 7832,-0.0023692,-0.0021862,-0.020471,-0.071962,-0.0916586,-0.0130706,0
 .0824114,0.0156627,-0.0123626,0.0036057,-0.0096439,0.0170424,0.0035762
 ,0.064883,0.0172158,0.0133775,0.0475585,0.0207241,0.0265411,0.0021664,
 -0.043987,-0.0097437,-0.0515948,-0.0452972,-0.600745,-0.3122865,0.1891
 818,-0.2256577,-1.2588593,0.015109,0.2162777,0.1336698,-0.3861772,-0.7
 497293,0.3129694,0.2729391,0.3999714,-1.2100398,-0.1145859,0.3041523,-
 0.2617995,-0.5027994,-0.4800981,0.0973157,0.068293,0.0966044,-1.470722
 1,-0.1264648,0.0805997,-0.1351451,-0.4081761,-0.7530544,0.2679869,-0.2
 423109,0.1703516,-0.4298671,0.0563884,-0.3795251,0.2427543,-0.4985695\
 Polar=39.4387307,-1.9294898,55.2541933,-2.2041217,1.7633005,35.207792\
 Quadrupole=-0.8536385,-1.58989,2.4435285,2.862412,0.5148564,1.0462321\
 PG=C01 [X(C3H3F1O3)]\NImag=0\\0.50170474,0.06461879,0.53155783,0.07235
 743,-0.07799409,0.58245930,-0.15171275,-0.00318710,0.04419855,0.489495
 99,-0.03245906,-0.06333517,0.01210974,-0.02738497,0.48737307,0.0297328
 1,-0.00305304,-0.09942877,-0.07119566,0.12462319,0.59890726,0.01458687
 ,-0.02411341,-0.01665754,0.00269467,0.06055706,-0.01451665,0.36506666,
 -0.00524662,-0.06565447,-0.00101283,0.03090612,-0.05208443,-0.01749710
 ,-0.04354797,1.14969471,-0.01772007,0.01084807,0.00451275,-0.00559078,
 -0.04906335,0.01352464,-0.10934385,0.08962010,0.29678351,-0.17065276,-
 0.05016980,-0.12286086,-0.01288140,-0.00404201,-0.02299422,-0.00163543
 ,-0.00085889,0.00233255,0.17646949,-0.04410480,-0.06409309,-0.03998207
 ,-0.00311248,-0.00089946,-0.00163094,0.00334137,0.00199831,-0.00800340
 ,0.04904502,0.07999966,-0.12268688,-0.04310757,-0.18083860,0.00721608,
 0.00369916,0.01040280,0.00363177,0.00229197,-0.00359523,0.13084183,0.0
 5756095,0.18969624,-0.05053796,0.00331994,-0.00808626,0.00311384,-0.01
 863046,0.02232303,-0.00527385,-0.00083557,0.00264364,0.00154058,0.0132
 6636,-0.01711844,0.04961043,0.00426941,-0.15485528,0.12963272,-0.00237
 730,-0.00204850,0.00370626,0.00781646,-0.00155195,-0.00131983,-0.00017
 421,0.00876624,-0.00618548,-0.00609366,0.18003219,-0.00494262,0.141644
 58,-0.21730892,-0.00375482,0.00639565,-0.00842773,0.00361893,-0.002094
 36,-0.00116610,0.00060656,0.01313784,-0.01422301,0.00589472,-0.1431434
 5,0.22338106,-0.00100642,0.01100923,0.01904843,-0.06774339,0.02734263,
 0.06611374,-0.00210953,-0.00160727,0.00263985,0.00064639,0.00041845,-0
 .00048163,-0.00164099,-0.00052627,0.00089601,0.07300868,0.00048779,0.0
 0678705,0.00513313,0.01939536,-0.09968904,-0.10159351,-0.00968185,-0.0
 0421923,0.00214072,0.00041673,0.00059251,-0.00037673,0.00009355,-0.000
 44387,0.00011731,-0.03195448,0.11777810,0.00081401,-0.00528984,-0.0037
 4703,0.05935842,-0.10987626,-0.25603088,0.00147261,0.00127663,0.000322
 49,0.00049941,0.00029294,0.00079316,0.00011575,0.00002448,0.00007975,-
 0.04937596,0.11109419,0.27650876,-0.09059535,0.01279015,0.02238071,-0.
 02288695,0.01420577,0.02969038,-0.14429226,-0.03113654,0.05966862,0.01
 332075,-0.01874099,-0.00396127,0.00296738,-0.00119050,-0.00032724,-0.0
 0303493,-0.00111208,0.00056854,0.27799013,0.03733606,-0.15639844,-0.04
 951689,0.01315110,-0.03183028,-0.01450978,-0.06160331,-0.14480221,0.03
 512390,0.00698781,-0.02556942,-0.01448076,0.01240330,-0.03062478,-0.01
 490956,0.00213293,0.00332133,0.00028778,0.04565159,0.45137407,0.024782
 81,-0.02834081,-0.08885793,0.01858998,-0.00236284,-0.02037069,0.055225
 14,0.01490843,-0.09869366,0.00954493,-0.02451116,-0.00368006,-0.005186
 38,0.01711233,0.01559505,0.00262212,0.00078018,0.00037900,-0.15197268,
 0.02097077,0.18346803,-0.01081125,-0.01931193,0.01742128,-0.09010617,-
 0.01863662,0.02456954,-0.13493471,-0.00983718,0.05716945,-0.00002393,-
 0.00069305,-0.00086385,-0.00375857,-0.00086890,0.00068115,0.00558530,0
 .01561791,-0.00107142,-0.04712072,-0.02014807,0.04677052,0.28413254,-0
 .01687502,-0.04337660,0.01447334,-0.04653736,-0.19168036,0.00641880,0.
 00936631,-0.09825318,0.00039405,-0.00167953,0.00161801,0.00176299,-0.0
 0485157,0.00198502,0.00098137,-0.00189122,-0.03002857,0.00437473,-0.00
 052117,0.01383472,-0.00277175,-0.02171389,0.43648864,0.01604989,0.0043
 9271,-0.00313043,0.01820454,0.00750121,-0.09046017,0.05324794,0.009059
 85,-0.09973717,0.00130632,0.00147139,-0.00023214,0.00037465,0.00122857
 ,0.00039597,-0.00368541,-0.02738877,0.00968779,0.04787243,0.01686178,-
 0.01241397,-0.14213618,-0.01622779,0.18794496,-0.00195578,0.00109093,0
 .00645456,-0.00237367,-0.00775208,0.00979712,-0.09761200,0.06764114,0.
 01409091,0.00009303,-0.00008625,-0.00055154,0.00097212,-0.00192098,-0.
 00130956,0.00057454,0.00299307,-0.00084877,0.01513035,-0.03900120,-0.0
 0144962,-0.00074031,0.05373020,0.01501051,0.08672269,-0.00913427,0.006
 91993,0.00777630,0.00039404,0.01375407,-0.00921997,0.06771390,-0.78760
 800,-0.09357994,0.00101979,-0.00270472,-0.00112732,0.00085774,-0.00227
 574,-0.00119632,0.00028957,-0.00234529,0.00048802,-0.02110456,-0.08419
 225,0.00696280,0.03415239,-0.05579427,-0.02723152,-0.07822220,0.917174
 71,0.00491035,-0.00095792,0.00258966,0.00514354,0.00783102,-0.00346058
 ,0.01399110,-0.09345822,-0.10060225,-0.00066379,0.00189737,0.00044735,
 -0.00034268,-0.00020128,-0.00011008,-0.00063568,-0.00106124,0.00010866
 ,-0.00003032,0.02014043,0.01993743,0.01457774,-0.04425815,0.00566938,-
 0.03883909,0.11335407,0.07267599,-0.03901935,0.00395320,-0.03425630,-0
 .14760017,0.00679973,-0.07352008,0.00350958,-0.00547720,-0.00589031,-0
 .00687672,0.00066637,0.00397394,0.00300703,0.00106595,-0.00136314,-0.0
 0427964,0.00374400,-0.01153259,-0.00147840,0.00308978,0.00107318,-0.00
 222219,0.03097325,-0.00624469,-0.00081096,0.00403361,0.00188883,0.1957
 7083,0.00110773,0.00244824,-0.00061935,0.01875259,-0.05955990,0.012756
 09,-0.00984855,0.00248045,0.01383968,-0.00054491,0.00029197,-0.0000372
 1,0.00047036,0.00101667,-0.00093306,-0.00521357,0.00824701,-0.00267267
 ,0.00115833,0.00488726,-0.00274794,0.04143932,-0.03479341,0.03033256,0
 .00152737,-0.00292844,-0.00328607,-0.04884868,0.07791014,-0.00329773,0
 .00185792,0.00374998,-0.07216985,-0.00085751,-0.14465587,0.00933056,-0
 .00309447,-0.01134898,0.00138727,-0.00023292,0.00122950,-0.00061804,-0
 .00085431,0.00178401,-0.03714147,0.01115472,-0.02810168,-0.00388917,0.
 00003233,0.00463679,-0.01711822,0.03485241,0.00227579,-0.00235451,0.00
 377386,0.00274443,0.12587116,-0.04663202,0.16768602\\0.00008824,-0.000
 10060,-0.00003732,0.00006453,-0.00004215,0.00002024,0.00004094,-0.0001
 2728,0.00005835,0.00001833,-0.00000308,0.00001171,-0.00002708,0.000039
 38,-0.00000150,-0.00000346,0.00001823,-0.00000118,-0.00012595,0.000130
 76,0.00007918,0.00002584,0.00004622,-0.00004549,-0.00001384,0.00002966
 ,-0.00003128,-0.00006757,0.00000887,-0.00005271\\\@


 ... THE UNIVERSE IS NOT ONLY QUEERER THAN WE SUPPOSE,
 BUT QUEERER THAN WE CAN SUPPOSE ... 

                                   -- J. B. S. HALDANE
 Job cpu time:       0 days  0 hours  6 minutes 15.5 seconds.
 Elapsed time:       0 days  0 hours  0 minutes 47.0 seconds.
 File lengths (MBytes):  RWF=     37 Int=      0 D2E=      0 Chk=      4 Scr=      1
 Normal termination of Gaussian 16 at Wed Jul 29 17:15:22 2026.
