%chk=FEC.chk
# opt freq b3lyp/6-311+g(d,p)

FEC

0 1
 C                 -0.81945399    0.61011526    0.14282912
 C                  0.56495177    0.86691925   -0.42166259
 C                 -0.40974993    2.74573014    0.08090056
 H                 -1.29092174   -0.25341009   -0.27781578
 H                 -0.76727129    0.48261569    1.20392328
 H                  0.51778170    0.95880300   -1.48666604
 O                 -1.49363531    1.81929076   -0.18194209
 O                  0.89311819    2.11625163    0.17296131
 O                 -0.58410410    3.98455278    0.21687719
 F                  1.45005440   -0.10594479   -0.11731263

