 Entering Gaussian System, Link 0=g16
 Initial command:
 /home/hush/g16/l1.exe "/home/hush/g16/Scratch/Gau-681282.inp" -scrdir="/home/hush/g16/Scratch/"
 Default CPUs for threads: 0
 Entering Link 1 = /home/hush/g16/l1.exe PID=    681284.
  
 Copyright (c) 1988,1990,1992,1993,1995,1998,2003,2009,2016,
            Gaussian, Inc.  All Rights Reserved.
  
 This is part of the Gaussian(R) 16 program.  It is based on
 the Gaussian(R) 09 system (copyright 2009, Gaussian, Inc.),
 the Gaussian(R) 03 system (copyright 2003, Gaussian, Inc.),
 the Gaussian(R) 98 system (copyright 1998, Gaussian, Inc.),
 the Gaussian(R) 94 system (copyright 1995, Gaussian, Inc.),
 the Gaussian 92(TM) system (copyright 1992, Gaussian, Inc.),
 the Gaussian 90(TM) system (copyright 1990, Gaussian, Inc.),
 the Gaussian 88(TM) system (copyright 1988, Gaussian, Inc.),
 the Gaussian 86(TM) system (copyright 1986, Carnegie Mellon
 University), and the Gaussian 82(TM) system (copyright 1983,
 Carnegie Mellon University). Gaussian is a federally registered
 trademark of Gaussian, Inc.
  
 This software contains proprietary and confidential information,
 including trade secrets, belonging to Gaussian, Inc.
  
 This software is provided under written license and may be
 used, copied, transmitted, or stored only in accord with that
 written license.
  
 The following legend is applicable only to US Government
 contracts under FAR:
  
                    RESTRICTED RIGHTS LEGEND
  
 Use, reproduction and disclosure by the US Government is
 subject to restrictions as set forth in subparagraphs (a)
 and (c) of the Commercial Computer Software - Restricted
 Rights clause in FAR 52.227-19.
  
 Gaussian, Inc.
 340 Quinnipiac St., Bldg. 40, Wallingford CT 06492
  
  
 ---------------------------------------------------------------
 Warning -- This program may not be used in any manner that
 competes with the business of Gaussian, Inc. or will provide
 assistance to any competitor of Gaussian, Inc.  The licensee
 of this program is prohibited from giving any competitor of
 Gaussian, Inc. access to this program.  By using this program,
 the user acknowledges that Gaussian, Inc. is engaged in the
 business of creating and licensing software in the field of
 computational chemistry and represents and warrants to the
 licensee that it is not a competitor of Gaussian, Inc. and that
 it will not use this program in any manner prohibited above.
 ---------------------------------------------------------------
  

 Cite this work as:
 Gaussian 16, Revision A.03,
 M. J. Frisch, G. W. Trucks, H. B. Schlegel, G. E. Scuseria, 
 M. A. Robb, J. R. Cheeseman, G. Scalmani, V. Barone, 
 G. A. Petersson, H. Nakatsuji, X. Li, M. Caricato, A. V. Marenich, 
 J. Bloino, B. G. Janesko, R. Gomperts, B. Mennucci, H. P. Hratchian, 
 J. V. Ortiz, A. F. Izmaylov, J. L. Sonnenberg, D. Williams-Young, 
 F. Ding, F. Lipparini, F. Egidi, J. Goings, B. Peng, A. Petrone, 
 T. Henderson, D. Ranasinghe, V. G. Zakrzewski, J. Gao, N. Rega, 
 G. Zheng, W. Liang, M. Hada, M. Ehara, K. Toyota, R. Fukuda, 
 J. Hasegawa, M. Ishida, T. Nakajima, Y. Honda, O. Kitao, H. Nakai, 
 T. Vreven, K. Throssell, J. A. Montgomery, Jr., J. E. Peralta, 
 F. Ogliaro, M. J. Bearpark, J. J. Heyd, E. N. Brothers, K. N. Kudin, 
 V. N. Staroverov, T. A. Keith, R. Kobayashi, J. Normand, 
 K. Raghavachari, A. P. Rendell, J. C. Burant, S. S. Iyengar, 
 J. Tomasi, M. Cossi, J. M. Millam, M. Klene, C. Adamo, R. Cammi, 
 J. W. Ochterski, R. L. Martin, K. Morokuma, O. Farkas, 
 J. B. Foresman, and D. J. Fox, Gaussian, Inc., Wallingford CT, 2016.
 
 ******************************************
 Gaussian 16:  ES64L-G16RevA.03 25-Dec-2016
                30-Jul-2026 
 ******************************************
 %mem=5GB
 %nprocshared=8
 Will use up to    8 processors via shared memory.
 %chk=FEC_opt.chk
 -------------------
 # b3lyp/def2TZVP SP
 -------------------
 1/38=1,172=1/1;
 2/12=2,17=6,18=5,40=1/2;
 3/5=44,7=101,11=2,25=1,30=1,74=-5/1,2,3;
 4//1;
 5/5=2,38=5/2;
 6/7=2,8=2,9=2,10=2,28=1/1;
 99/5=1,9=1/99;
 -------
 FEC_opt
 -------
 Symbolic Z-matrix:
 Charge =  0 Multiplicity = 1
 C                     0.68912   1.23856   0.18708 
 C                     1.10225  -0.21073   0.43323 
 C                    -1.12615  -0.12581  -0.01712 
 H                     0.70081   1.82914   1.1054 
 H                     1.29491   1.71236  -0.58291 
 H                     1.69611  -0.39994   1.32535 
 O                    -0.66174   1.11858  -0.27801 
 O                    -0.11304  -0.89281   0.52492 
 O                    -2.2297   -0.51089  -0.20088 
 F                     1.81697  -0.69696  -0.64836 
 
                          Input orientation:                          
 ---------------------------------------------------------------------
 Center     Atomic      Atomic             Coordinates (Angstroms)
 Number     Number       Type             X           Y           Z
 ---------------------------------------------------------------------
      1          6           0        0.689120    1.238556    0.187079
      2          6           0        1.102250   -0.210731    0.433233
      3          6           0       -1.126152   -0.125809   -0.017119
      4          1           0        0.700813    1.829139    1.105404
      5          1           0        1.294914    1.712358   -0.582908
      6          1           0        1.696106   -0.399936    1.325353
      7          8           0       -0.661739    1.118585   -0.278014
      8          8           0       -0.113040   -0.892813    0.524921
      9          8           0       -2.229700   -0.510895   -0.200877
     10          9           0        1.816965   -0.696964   -0.648360
 ---------------------------------------------------------------------
                    Distance matrix (angstroms):
                    1          2          3          4          5
     1  C    0.000000
     2  C    1.526991   0.000000
     3  C    2.279999   2.275039   0.000000
     4  H    1.091900   2.184957   2.901668   0.000000
     5  H    1.088281   2.183559   3.092011   1.793597   0.000000
     6  H    2.234803   1.088275   3.137278   2.451073   2.874752
     7  O    1.433710   2.320476   1.353610   2.067675   2.067370
     8  O    2.302244   1.396629   1.381484   2.899713   3.161729
     9  O    3.424996   3.405009   1.183164   3.971150   4.184699
    10  F    2.390864   1.384588   3.063759   3.271495   2.466100
                    6          7          8          9         10
     6  H    0.000000
     7  O    3.230499   0.000000
     8  O    2.038781   2.234165   0.000000
     9  O    4.213507   2.262665   2.269998   0.000000
    10  F    1.999594   3.094729   2.267127   4.075581   0.000000
 Stoichiometry    C3H3FO3
 Framework group  C1[X(C3H3FO3)]
 Deg. of freedom    24
 Full point group                 C1      NOp   1
 Largest Abelian subgroup         C1      NOp   1
 Largest concise Abelian subgroup C1      NOp   1
                         Standard orientation:                         
 ---------------------------------------------------------------------
 Center     Atomic      Atomic             Coordinates (Angstroms)
 Number     Number       Type             X           Y           Z
 ---------------------------------------------------------------------
      1          6           0        0.689120    1.238556    0.187079
      2          6           0        1.102250   -0.210731    0.433233
      3          6           0       -1.126152   -0.125809   -0.017119
      4          1           0        0.700813    1.829139    1.105404
      5          1           0        1.294914    1.712358   -0.582908
      6          1           0        1.696106   -0.399936    1.325353
      7          8           0       -0.661739    1.118585   -0.278014
      8          8           0       -0.113040   -0.892813    0.524921
      9          8           0       -2.229700   -0.510895   -0.200877
     10          9           0        1.816965   -0.696964   -0.648360
 ---------------------------------------------------------------------
 Rotational constants (GHZ):           5.5129359           2.4022401           1.9310000
 Standard basis: def2TZVP (5D, 7F)
 There are   270 symmetry adapted cartesian basis functions of A   symmetry.
 There are   235 symmetry adapted basis functions of A   symmetry.
   235 basis functions,   381 primitive gaussians,   270 cartesian basis functions
    27 alpha electrons       27 beta electrons
       nuclear repulsion energy       322.0437786245 Hartrees.
 NAtoms=   10 NActive=   10 NUniq=   10 SFac= 1.00D+00 NAtFMM=   60 NAOKFM=F Big=F
 Integral buffers will be    131072 words long.
 Raffenetti 2 integral format.
 Two-electron integral symmetry is turned on.
 One-electron integrals computed using PRISM.
   1 Symmetry operations used in ECPInt.
 ECPInt:  NShTT=    4005 NPrTT=   12724 LenC2=    3929 LenP2D=   10143.
 LDataN:  DoStor=T MaxTD1= 6 Len=  172
 NBasis=   235 RedAO= T EigKep=  4.07D-04  NBF=   235
 NBsUse=   235 1.00D-06 EigRej= -1.00D+00 NBFU=   235
 ExpMin= 9.52D-02 ExpMax= 3.55D+04 ExpMxC= 1.21D+03 IAcc=3 IRadAn=         5 AccDes= 0.00D+00
 Harris functional with IExCor=  402 and IRadAn=       5 diagonalized for initial guess.
 HarFok:  IExCor=  402 AccDes= 0.00D+00 IRadAn=         5 IDoV= 1 UseB2=F ITyADJ=14
 ICtDFT=  3500011 ScaDFX=  1.000000  1.000000  1.000000  1.000000
 FoFCou: FMM=F IPFlag=           0 FMFlag=      100000 FMFlg1=           0
         NFxFlg=           0 DoJE=T BraDBF=F KetDBF=T FulRan=T
         wScrn=  0.000000 ICntrl=       500 IOpCl=  0 I1Cent=   200000004 NGrid=           0
         NMat0=    1 NMatS0=      1 NMatT0=    0 NMatD0=    1 NMtDS0=    0 NMtDT0=    0
 Petite list used in FoFCou.
 Keep R1 ints in memory in canonical form, NReq=394442688.
 Requested convergence on RMS density matrix=1.00D-08 within 128 cycles.
 Requested convergence on MAX density matrix=1.00D-06.
 Requested convergence on             energy=1.00D-06.
 No special actions if energy rises.
 Integral accuracy reduced to 1.0D-05 until final iterations.
 Initial convergence to 1.0D-05 achieved.  Increase integral accuracy.
 SCF Done:  E(RB3LYP) =  -441.834476172     A.U. after   13 cycles
            NFock= 13  Conv=0.66D-08     -V/T= 2.0043

 **********************************************************************

            Population analysis using the SCF density.

 **********************************************************************

 Orbital symmetries:
       Occupied  (A) (A) (A) (A) (A) (A) (A) (A) (A) (A) (A) (A)
                 (A) (A) (A) (A) (A) (A) (A) (A) (A) (A) (A) (A)
                 (A) (A) (A)
       Virtual   (A) (A) (A) (A) (A) (A) (A) (A) (A) (A) (A) (A)
                 (A) (A) (A) (A) (A) (A) (A) (A) (A) (A) (A) (A)
                 (A) (A) (A) (A) (A) (A) (A) (A) (A) (A) (A) (A)
                 (A) (A) (A) (A) (A) (A) (A) (A) (A) (A) (A) (A)
                 (A) (A) (A) (A) (A) (A) (A) (A) (A) (A) (A) (A)
                 (A) (A) (A) (A) (A) (A) (A) (A) (A) (A) (A) (A)
                 (A) (A) (A) (A) (A) (A) (A) (A) (A) (A) (A) (A)
                 (A) (A) (A) (A) (A) (A) (A) (A) (A) (A) (A) (A)
                 (A) (A) (A) (A) (A) (A) (A) (A) (A) (A) (A) (A)
                 (A) (A) (A) (A) (A) (A) (A) (A) (A) (A) (A) (A)
                 (A) (A) (A) (A) (A) (A) (A) (A) (A) (A) (A) (A)
                 (A) (A) (A) (A) (A) (A) (A) (A) (A) (A) (A) (A)
                 (A) (A) (A) (A) (A) (A) (A) (A) (A) (A) (A) (A)
                 (A) (A) (A) (A) (A) (A) (A) (A) (A) (A) (A) (A)
                 (A) (A) (A) (A) (A) (A) (A) (A) (A) (A) (A) (A)
                 (A) (A) (A) (A) (A) (A) (A) (A) (A) (A) (A) (A)
                 (A) (A) (A) (A) (A) (A) (A) (A) (A) (A) (A) (A)
                 (A) (A) (A) (A)
 The electronic state is 1-A.
 Alpha  occ. eigenvalues --  -24.70609 -19.21285 -19.21060 -19.13727 -10.36877
 Alpha  occ. eigenvalues --  -10.34822 -10.27759  -1.24609  -1.18087  -1.07727
 Alpha  occ. eigenvalues --   -1.06988  -0.80561  -0.70837  -0.64801  -0.58683
 Alpha  occ. eigenvalues --   -0.57507  -0.54127  -0.51145  -0.48800  -0.47162
 Alpha  occ. eigenvalues --   -0.45196  -0.42641  -0.40926  -0.38455  -0.36745
 Alpha  occ. eigenvalues --   -0.33785  -0.32549
 Alpha virt. eigenvalues --    0.00572   0.01854   0.03167   0.05404   0.07419
 Alpha virt. eigenvalues --    0.08618   0.10394   0.12662   0.14980   0.18087
 Alpha virt. eigenvalues --    0.20244   0.20751   0.23233   0.24641   0.26953
 Alpha virt. eigenvalues --    0.27101   0.30922   0.32258   0.33119   0.33736
 Alpha virt. eigenvalues --    0.35398   0.36513   0.38612   0.40782   0.42091
 Alpha virt. eigenvalues --    0.47032   0.48342   0.50544   0.51856   0.52787
 Alpha virt. eigenvalues --    0.54364   0.57458   0.58600   0.60302   0.62842
 Alpha virt. eigenvalues --    0.64446   0.70923   0.72367   0.73296   0.76581
 Alpha virt. eigenvalues --    0.79581   0.82003   0.83332   0.84145   0.87828
 Alpha virt. eigenvalues --    0.89849   0.91054   0.98067   0.99789   1.01278
 Alpha virt. eigenvalues --    1.02910   1.07253   1.07871   1.12984   1.17280
 Alpha virt. eigenvalues --    1.26038   1.28483   1.36971   1.37047   1.40053
 Alpha virt. eigenvalues --    1.47864   1.48015   1.49358   1.51300   1.55901
 Alpha virt. eigenvalues --    1.59998   1.60847   1.70354   1.73073   1.74171
 Alpha virt. eigenvalues --    1.79123   1.81237   1.83148   1.85022   1.88153
 Alpha virt. eigenvalues --    1.89336   1.91551   1.94423   1.96550   2.00263
 Alpha virt. eigenvalues --    2.02669   2.04130   2.09217   2.11737   2.16552
 Alpha virt. eigenvalues --    2.20088   2.20264   2.22675   2.27504   2.28039
 Alpha virt. eigenvalues --    2.31532   2.33140   2.39241   2.46809   2.47238
 Alpha virt. eigenvalues --    2.51701   2.55971   2.61134   2.66532   2.70152
 Alpha virt. eigenvalues --    2.71366   2.74311   2.76663   2.81099   2.82050
 Alpha virt. eigenvalues --    2.88509   2.89087   2.90875   2.92833   2.96318
 Alpha virt. eigenvalues --    2.98576   2.99599   3.00297   3.02823   3.04045
 Alpha virt. eigenvalues --    3.09511   3.10464   3.11363   3.15403   3.20833
 Alpha virt. eigenvalues --    3.23745   3.24257   3.28461   3.28808   3.32171
 Alpha virt. eigenvalues --    3.34841   3.38186   3.42064   3.49188   3.50805
 Alpha virt. eigenvalues --    3.52709   3.56273   3.60418   3.64807   3.67042
 Alpha virt. eigenvalues --    3.70356   3.76621   3.83358   3.92522   3.99033
 Alpha virt. eigenvalues --    4.02824   4.03332   4.08106   4.12547   4.25025
 Alpha virt. eigenvalues --    4.30420   4.31874   4.44041   4.60550   4.63900
 Alpha virt. eigenvalues --    4.69262   4.73135   5.13404   5.14587   5.17481
 Alpha virt. eigenvalues --    5.18313   5.34219   5.38246   5.41801   5.45556
 Alpha virt. eigenvalues --    5.51572   5.61905   5.67513   5.69115   5.73897
 Alpha virt. eigenvalues --    5.77016   5.95623   5.97427   6.05169   6.17450
 Alpha virt. eigenvalues --    6.20468   6.24346   6.33749   6.42085   6.44452
 Alpha virt. eigenvalues --    6.58521   6.63077   6.67428   6.73717   6.75207
 Alpha virt. eigenvalues --    6.78411   6.80409   6.80904   6.84480   6.85521
 Alpha virt. eigenvalues --    6.94692   6.98448   7.01630   7.05332   7.14649
 Alpha virt. eigenvalues --    7.21007   7.21297   7.25406   7.28358   7.36721
 Alpha virt. eigenvalues --    7.42298   8.34465   8.36692   8.76939   8.78927
 Alpha virt. eigenvalues --    8.96270  22.29732  22.45617  23.35050  43.81461
 Alpha virt. eigenvalues --   43.87527  44.07865  57.19201
          Condensed to atoms (all electrons):
               1          2          3          4          5          6
     1  C    4.888857   0.315585  -0.047986   0.375268   0.400608  -0.077104
     2  C    0.315585   4.546992  -0.037487  -0.027798  -0.028774   0.439850
     3  C   -0.047986  -0.037487   4.305440   0.002239   0.003242   0.003194
     4  H    0.375268  -0.027798   0.002239   0.610042  -0.042227   0.000238
     5  H    0.400608  -0.028774   0.003242  -0.042227   0.557624   0.003106
     6  H   -0.077104   0.439850   0.003194   0.000238   0.003106   0.622384
     7  O    0.258763  -0.046397   0.354410  -0.038546  -0.031805   0.003319
     8  O   -0.056292   0.311727   0.319702   0.002673   0.003808  -0.045462
     9  O    0.001599  -0.000435   0.733570   0.000517   0.000041  -0.000263
    10  F   -0.047089   0.288122   0.007844   0.004287   0.001413  -0.050173
               7          8          9         10
     1  C    0.258763  -0.056292   0.001599  -0.047089
     2  C   -0.046397   0.311727  -0.000435   0.288122
     3  C    0.354410   0.319702   0.733570   0.007844
     4  H   -0.038546   0.002673   0.000517   0.004287
     5  H   -0.031805   0.003808   0.000041   0.001413
     6  H    0.003319  -0.045462  -0.000263  -0.050173
     7  O    7.901856  -0.081462  -0.081119   0.001315
     8  O   -0.081462   7.909795  -0.080109  -0.052674
     9  O   -0.081119  -0.080109   7.665656  -0.000137
    10  F    0.001315  -0.052674  -0.000137   9.065154
 Mulliken charges:
               1
     1  C   -0.012209
     2  C    0.238615
     3  C    0.355832
     4  H    0.113306
     5  H    0.132964
     6  H    0.100912
     7  O   -0.240333
     8  O   -0.231706
     9  O   -0.239319
    10  F   -0.218063
 Sum of Mulliken charges =  -0.00000
 Mulliken charges with hydrogens summed into heavy atoms:
               1
     1  C    0.234061
     2  C    0.339527
     3  C    0.355832
     7  O   -0.240333
     8  O   -0.231706
     9  O   -0.239319
    10  F   -0.218063
 Electronic spatial extent (au):  <R**2>=            612.4617
 Charge=             -0.0000 electrons
 Dipole moment (field-independent basis, Debye):
    X=              3.6286    Y=              2.4304    Z=              1.9461  Tot=              4.7813
 Quadrupole moment (field-independent basis, Debye-Ang):
   XX=            -45.1385   YY=            -38.9392   ZZ=            -36.9074
   XY=              1.3513   XZ=              1.6380   YZ=              0.6187
 Traceless Quadrupole moment (field-independent basis, Debye-Ang):
   XX=             -4.8102   YY=              1.3891   ZZ=              3.4210
   XY=              1.3513   XZ=              1.6380   YZ=              0.6187
 Octapole moment (field-independent basis, Debye-Ang**2):
  XXX=             20.8747  YYY=             -0.2174  ZZZ=             -2.0373  XYY=              6.7071
  XXY=              4.6747  XXZ=              5.8722  XZZ=              3.0589  YZZ=             -0.2712
  YYZ=             -0.2572  XYZ=             -2.4210
 Hexadecapole moment (field-independent basis, Debye-Ang**3):
 XXXX=           -469.6327 YYYY=           -194.2225 ZZZZ=            -75.1348 XXXY=            -11.9719
 XXXZ=             -3.3386 YYYX=             -1.7822 YYYZ=              3.2208 ZZZX=             -3.2996
 ZZZY=              2.0309 XXYY=           -105.4495 XXZZ=            -79.7886 YYZZ=            -43.5213
 XXYZ=             -3.7153 YYXZ=             -2.2383 ZZXY=             -1.7495
 N-N= 3.220437786245D+02 E-N=-1.684783378940D+03  KE= 4.399575134404D+02
 1\1\GINC-HUSH-MIND\SP\RB3LYP\def2TZVP\C3H3F1O3\HUSH\30-Jul-2026\0\\# b
 3lyp/def2TZVP SP\\FEC_opt\\0,1\C,0,0.6891198,1.23855568,0.18707922\C,0
 ,1.10225044,-0.21073107,0.43323262\C,0,-1.12615172,-0.12580852,-0.0171
 191\H,0,0.70081291,1.82913887,1.10540376\H,0,1.29491418,1.71235766,-0.
 58290761\H,0,1.69610603,-0.39993609,1.32535302\O,0,-0.66173912,1.11858
 465,-0.27801368\O,0,-0.11304004,-0.89281276,0.52492052\O,0,-2.2296998,
 -0.51089489,-0.20087721\F,0,1.81696527,-0.69696367,-0.6483603\\Version
 =ES64L-G16RevA.03\State=1-A\HF=-441.8344762\RMSD=6.555e-09\Dipole=1.42
 75954,0.9562089,0.7656382\Quadrupole=-3.5762393,1.0327967,2.5434426,1.
 0046744,1.2177888,0.4600045\PG=C01 [X(C3H3F1O3)]\\@


 "PERFECTION IS NOT AN ACCIDENT"
         --  EAGLE ELECTRIC MANUFACTURING CO.,INC. NY
 Job cpu time:       0 days  0 hours  1 minutes 18.9 seconds.
 Elapsed time:       0 days  0 hours  0 minutes 12.9 seconds.
 File lengths (MBytes):  RWF=     27 Int=      0 D2E=      0 Chk=      4 Scr=      1
 Normal termination of Gaussian 16 at Thu Jul 30 23:40:07 2026.
