%chk=FEMC.chk
# opt freq b3lyp/6-311+g(d,p)

FEMC

0 1
 C        -2.38553388    1.62259401    0.35842320
 O        -1.87219136    2.34611105    1.61723317
 O        -3.92553379    1.62214224    0.35869462
 O        -1.65900727    1.11414876   -0.53444470
 C        -0.44219136    2.34609343    1.61723317
 H        -0.08551883    2.84765477    2.49251651
 H        -0.08553745    1.33728855    1.61395991
 H        -0.08551825    2.85332379    0.74522305
 C        -4.40220902    0.95040059   -0.81025529
 H        -4.04429042   -0.05795766   -0.81306771
 H        -4.04680164    1.45745689   -1.68288321
 C        -5.94220743    0.94848687   -0.80914436
 F        -6.39378580    2.22071456   -0.80544598
 F        -6.39061881    0.30861371    0.29175962
 F        -6.39221573    0.31445470   -1.91277280
