%chk=FTFSI.chk
# opt freq b3lyp/6-311+g(d,p)

FTFSI

-1 2
 N         0.73330000    0.70180000    0.00000000
 S         1.54058172    0.41054105    1.35835382
 S         0.91670000    0.03650000   -1.45100000
 O         1.76879107    1.67467724    2.05448092
 O         2.62347995   -0.56824353    1.30066326
 O         2.10363134    0.40908691   -2.21676043
 O        -0.37844102    0.00830280   -2.12666812
 C         0.22196629   -0.41984238    2.43689534
 F         0.70742416   -0.59294600    3.68064817
 F        -0.88909582    0.32529047    2.52895340
 F        -0.12161783   -1.62449340    1.95959070
 H         0.94795627    1.66257646   -0.17558841
 F         1.15075515   -1.49440361   -1.09092733
