 Entering Gaussian System, Link 0=g16
 Initial command:
 /home/hush/g16/l1.exe "/home/hush/g16/Scratch/Gau-128938.inp" -scrdir="/home/hush/g16/Scratch/"
 Default is to use a total of  12 processors:
                               12 via shared-memory
                                1 via Linda
 Entering Link 1 = /home/hush/g16/l1.exe PID=    128940.
  
 Copyright (c) 1988,1990,1992,1993,1995,1998,2003,2009,2016,
            Gaussian, Inc.  All Rights Reserved.
  
 This is part of the Gaussian(R) 16 program.  It is based on
 the Gaussian(R) 09 system (copyright 2009, Gaussian, Inc.),
 the Gaussian(R) 03 system (copyright 2003, Gaussian, Inc.),
 the Gaussian(R) 98 system (copyright 1998, Gaussian, Inc.),
 the Gaussian(R) 94 system (copyright 1995, Gaussian, Inc.),
 the Gaussian 92(TM) system (copyright 1992, Gaussian, Inc.),
 the Gaussian 90(TM) system (copyright 1990, Gaussian, Inc.),
 the Gaussian 88(TM) system (copyright 1988, Gaussian, Inc.),
 the Gaussian 86(TM) system (copyright 1986, Carnegie Mellon
 University), and the Gaussian 82(TM) system (copyright 1983,
 Carnegie Mellon University). Gaussian is a federally registered
 trademark of Gaussian, Inc.
  
 This software contains proprietary and confidential information,
 including trade secrets, belonging to Gaussian, Inc.
  
 This software is provided under written license and may be
 used, copied, transmitted, or stored only in accord with that
 written license.
  
 The following legend is applicable only to US Government
 contracts under FAR:
  
                    RESTRICTED RIGHTS LEGEND
  
 Use, reproduction and disclosure by the US Government is
 subject to restrictions as set forth in subparagraphs (a)
 and (c) of the Commercial Computer Software - Restricted
 Rights clause in FAR 52.227-19.
  
 Gaussian, Inc.
 340 Quinnipiac St., Bldg. 40, Wallingford CT 06492
  
  
 ---------------------------------------------------------------
 Warning -- This program may not be used in any manner that
 competes with the business of Gaussian, Inc. or will provide
 assistance to any competitor of Gaussian, Inc.  The licensee
 of this program is prohibited from giving any competitor of
 Gaussian, Inc. access to this program.  By using this program,
 the user acknowledges that Gaussian, Inc. is engaged in the
 business of creating and licensing software in the field of
 computational chemistry and represents and warrants to the
 licensee that it is not a competitor of Gaussian, Inc. and that
 it will not use this program in any manner prohibited above.
 ---------------------------------------------------------------
  

 Cite this work as:
 Gaussian 16, Revision A.03,
 M. J. Frisch, G. W. Trucks, H. B. Schlegel, G. E. Scuseria, 
 M. A. Robb, J. R. Cheeseman, G. Scalmani, V. Barone, 
 G. A. Petersson, H. Nakatsuji, X. Li, M. Caricato, A. V. Marenich, 
 J. Bloino, B. G. Janesko, R. Gomperts, B. Mennucci, H. P. Hratchian, 
 J. V. Ortiz, A. F. Izmaylov, J. L. Sonnenberg, D. Williams-Young, 
 F. Ding, F. Lipparini, F. Egidi, J. Goings, B. Peng, A. Petrone, 
 T. Henderson, D. Ranasinghe, V. G. Zakrzewski, J. Gao, N. Rega, 
 G. Zheng, W. Liang, M. Hada, M. Ehara, K. Toyota, R. Fukuda, 
 J. Hasegawa, M. Ishida, T. Nakajima, Y. Honda, O. Kitao, H. Nakai, 
 T. Vreven, K. Throssell, J. A. Montgomery, Jr., J. E. Peralta, 
 F. Ogliaro, M. J. Bearpark, J. J. Heyd, E. N. Brothers, K. N. Kudin, 
 V. N. Staroverov, T. A. Keith, R. Kobayashi, J. Normand, 
 K. Raghavachari, A. P. Rendell, J. C. Burant, S. S. Iyengar, 
 J. Tomasi, M. Cossi, J. M. Millam, M. Klene, C. Adamo, R. Cammi, 
 J. W. Ochterski, R. L. Martin, K. Morokuma, O. Farkas, 
 J. B. Foresman, and D. J. Fox, Gaussian, Inc., Wallingford CT, 2016.
 
 ******************************************
 Gaussian 16:  ES64L-G16RevA.03 25-Dec-2016
                29-Jul-2026 
 ******************************************
 %chk=gau.chk
 ----------------------------------------------------------------
 # B3LYP/def2TZVP pop=MK IOp(6/33=2,6/42=6) scrf(solvent=acetone)
 ----------------------------------------------------------------
 1/38=1,172=1/1;
 2/12=2,17=6,18=5,40=1/2;
 3/5=44,7=101,11=2,25=1,30=1,70=2201,72=19,74=-5/1,2,3;
 4//1;
 5/5=2,38=5,53=19/2;
 6/7=2,8=2,9=2,10=2,15=8,20=1,28=1,33=2,42=6/1,2;
 99/5=1,9=1/99;
 ----
 test
 ----
 Symbolic Z-matrix:
 Charge =  0 Multiplicity = 1
 C                    -0.11146   0.8524    0.0002 
 C                     0.06121  -0.55291  -0.00015 
 C                    -1.02782  -1.42636   0.00032 
 C                    -2.30595  -0.88514   0.00023 
 C                    -2.49867   0.50671  -0.0001 
 C                    -1.41665   1.37232  -0.00043 
 C                     1.14878   1.54901   0.00048 
 C                     2.21508   0.71246   0.00019 
 H                    -0.88056  -2.49971   0.00036 
 H                    -3.16499  -1.54579   0.00024 
 H                    -3.50648   0.90511  -0.00028 
 H                    -1.56913   2.44573  -0.00095 
 H                     1.23726   2.62745   0.00038 
 H                     3.26296   0.97382  -0.00008 
 S                     1.76461  -0.97985  -0.00025 
 
                          Input orientation:                          
 ---------------------------------------------------------------------
 Center     Atomic      Atomic             Coordinates (Angstroms)
 Number     Number       Type             X           Y           Z
 ---------------------------------------------------------------------
      1          6           0       -0.111458    0.852402    0.000199
      2          6           0        0.061213   -0.552909   -0.000154
      3          6           0       -1.027816   -1.426364    0.000323
      4          6           0       -2.305949   -0.885144    0.000231
      5          6           0       -2.498670    0.506709   -0.000103
      6          6           0       -1.416655    1.372321   -0.000426
      7          6           0        1.148776    1.549009    0.000477
      8          6           0        2.215082    0.712463    0.000189
      9          1           0       -0.880563   -2.499711    0.000363
     10          1           0       -3.164989   -1.545787    0.000243
     11          1           0       -3.506477    0.905108   -0.000284
     12          1           0       -1.569130    2.445735   -0.000949
     13          1           0        1.237263    2.627448    0.000376
     14          1           0        3.262959    0.973818   -0.000080
     15         16           0        1.764612   -0.979846   -0.000255
 ---------------------------------------------------------------------
                    Distance matrix (angstroms):
                    1          2          3          4          5
     1  C    0.000000
     2  C    1.415880   0.000000
     3  C    2.456113   1.396033   0.000000
     4  C    2.799081   2.390363   1.387999   0.000000
     5  C    2.412113   2.770523   2.429030   1.405132   0.000000
     6  C    1.404939   2.427057   2.825568   2.426312   1.385655
     7  C    1.439948   2.366612   3.686516   4.226135   3.793449
     8  C    2.330745   2.498063   3.884710   4.795004   4.718241
     9  H    3.439213   2.162633   1.083400   2.153730   3.414211
    10  H    3.882701   3.375528   2.140507   1.083698   2.157944
    11  H    3.395429   3.854118   3.402870   2.155521   1.083696
    12  H    2.159518   3.413193   3.909754   3.411401   2.150318
    13  H    2.229313   3.390836   4.643704   4.989254   4.295897
    14  H    3.376601   3.547122   4.916465   5.870986   5.780533
    15  S    2.622360   1.756087   2.827903   4.071662   4.515022
                    6          7          8          9         10
     6  C    0.000000
     7  C    2.571508   0.000000
     8  C    3.691196   1.355293   0.000000
     9  H    3.908967   4.528835   4.461063   0.000000
    10  H    3.401768   5.309080   5.834798   2.475596   0.000000
    11  H    2.141412   4.699573   5.724801   4.299793   2.474571
    12  H    1.084189   2.862015   4.162270   4.993151   4.298723
    13  H    2.935750   1.082064   2.150186   5.547337   6.065948
    14  H    4.696551   2.191031   1.079978   5.406864   6.904124
    15  S    3.956406   2.602760   1.751237   3.050729   4.961982
                   11         12         13         14         15
    11  H    0.000000
    12  H    2.475247   0.000000
    13  H    5.046734   2.812270   0.000000
    14  H    6.769785   5.051299   2.614946   0.000000
    15  S    5.597985   4.780004   3.645637   2.462081   0.000000
 Stoichiometry    C8H6S
 Framework group  C1[X(C8H6S)]
 Deg. of freedom    39
 Full point group                 C1      NOp   1
 Largest Abelian subgroup         C1      NOp   1
 Largest concise Abelian subgroup C1      NOp   1
                         Standard orientation:                         
 ---------------------------------------------------------------------
 Center     Atomic      Atomic             Coordinates (Angstroms)
 Number     Number       Type             X           Y           Z
 ---------------------------------------------------------------------
      1          6           0       -0.111458    0.852402    0.000199
      2          6           0        0.061213   -0.552909   -0.000154
      3          6           0       -1.027816   -1.426364    0.000323
      4          6           0       -2.305949   -0.885144    0.000231
      5          6           0       -2.498670    0.506709   -0.000103
      6          6           0       -1.416655    1.372321   -0.000426
      7          6           0        1.148776    1.549009    0.000477
      8          6           0        2.215082    0.712463    0.000189
      9          1           0       -0.880563   -2.499711    0.000363
     10          1           0       -3.164989   -1.545787    0.000243
     11          1           0       -3.506477    0.905108   -0.000284
     12          1           0       -1.569130    2.445735   -0.000949
     13          1           0        1.237263    2.627448    0.000376
     14          1           0        3.262959    0.973818   -0.000080
     15         16           0        1.764612   -0.979846   -0.000255
 ---------------------------------------------------------------------
 Rotational constants (GHZ):           3.1448425           1.3025241           0.9210469
 Standard basis: def2TZVP (5D, 7F)
 There are   366 symmetry adapted cartesian basis functions of A   symmetry.
 There are   321 symmetry adapted basis functions of A   symmetry.
   321 basis functions,   525 primitive gaussians,   366 cartesian basis functions
    35 alpha electrons       35 beta electrons
       nuclear repulsion energy       465.9620671163 Hartrees.
 NAtoms=   15 NActive=   15 NUniq=   15 SFac= 1.00D+00 NAtFMM=   60 NAOKFM=F Big=F
 Integral buffers will be    131072 words long.
 Raffenetti 2 integral format.
 Two-electron integral symmetry is turned on.
 ------------------------------------------------------------------------------
 Polarizable Continuum Model (PCM)
 =================================
 Model                : PCM.
 Atomic radii         : UFF (Universal Force Field).
 Polarization charges : Total charges.
 Charge compensation  : None.
 Solution method      : On-the-fly selection.
 Cavity type          : Scaled VdW (van der Waals Surface) (Alpha=1.100).
 Cavity algorithm     : GePol (No added spheres)
                        Default sphere list used, NSphG=   15.
                        Lebedev-Laikov grids with approx.  5.0 points / Ang**2.
                        Smoothing algorithm: York/Karplus (Gamma=1.0000).
                        Polarization charges: spherical gaussians, with
                                              point-specific exponents (IZeta= 3).
                        Self-potential: point-specific (ISelfS= 7).
                        Self-field    : sphere-specific E.n sum rule (ISelfD= 2).
 Solvent              : Acetone, Eps=  20.493000 Eps(inf)=   1.846337
 ------------------------------------------------------------------------------
 Spheres list:
 ISph  on   Nord     Re0    Alpha      Xe            Ye            Ze
    1   C      1    1.9255  1.100     -0.111458      0.852402      0.000199
    2   C      2    1.9255  1.100      0.061213     -0.552909     -0.000154
    3   C      3    1.9255  1.100     -1.027816     -1.426364      0.000323
    4   C      4    1.9255  1.100     -2.305949     -0.885144      0.000231
    5   C      5    1.9255  1.100     -2.498670      0.506709     -0.000103
    6   C      6    1.9255  1.100     -1.416655      1.372321     -0.000426
    7   C      7    1.9255  1.100      1.148776      1.549009      0.000477
    8   C      8    1.9255  1.100      2.215082      0.712463      0.000189
    9   H      9    1.4430  1.100     -0.880563     -2.499711      0.000363
   10   H     10    1.4430  1.100     -3.164989     -1.545787      0.000243
   11   H     11    1.4430  1.100     -3.506477      0.905108     -0.000284
   12   H     12    1.4430  1.100     -1.569130      2.445735     -0.000949
   13   H     13    1.4430  1.100      1.237263      2.627448      0.000376
   14   H     14    1.4430  1.100      3.262959      0.973818     -0.000080
   15   S     15    2.0175  1.100      1.764612     -0.979846     -0.000255
 ------------------------------------------------------------------------------
 One-electron integrals computed using PRISM.
   1 Symmetry operations used in ECPInt.
 ECPInt:  NShTT=    7875 NPrTT=   25206 LenC2=    7680 LenP2D=   19379.
 LDataN:  DoStor=T MaxTD1= 6 Len=  172
 NBasis=   321 RedAO= T EigKep=  8.04D-06  NBF=   321
 NBsUse=   321 1.00D-06 EigRej= -1.00D+00 NBFU=   321
 ExpMin= 9.52D-02 ExpMax= 6.07D+04 ExpMxC= 2.07D+03 IAcc=3 IRadAn=         5 AccDes= 0.00D+00
 Harris functional with IExCor=  402 and IRadAn=       5 diagonalized for initial guess.
 HarFok:  IExCor=  402 AccDes= 0.00D+00 IRadAn=         5 IDoV= 1 UseB2=F ITyADJ=14
 ICtDFT=  3500011 ScaDFX=  1.000000  1.000000  1.000000  1.000000
 FoFCou: FMM=F IPFlag=           0 FMFlag=      100000 FMFlg1=           0
         NFxFlg=           0 DoJE=T BraDBF=F KetDBF=T FulRan=T
         wScrn=  0.000000 ICntrl=       500 IOpCl=  0 I1Cent=   200000004 NGrid=           0
         NMat0=    1 NMatS0=      1 NMatT0=    0 NMatD0=    1 NMtDS0=    0 NMtDT0=    0
 Petite list used in FoFCou.
 Requested convergence on RMS density matrix=1.00D-08 within 128 cycles.
 Requested convergence on MAX density matrix=1.00D-06.
 Requested convergence on             energy=1.00D-06.
 No special actions if energy rises.
 Inv3:  Mode=1 IEnd=     6032172.
 Iteration    1 A*A^-1 deviation from unit magnitude is 4.88D-15 for   1415.
 Iteration    1 A*A^-1 deviation from orthogonality  is 1.86D-15 for    976    352.
 Iteration    1 A^-1*A deviation from unit magnitude is 4.66D-15 for   1415.
 Iteration    1 A^-1*A deviation from orthogonality  is 2.05D-15 for    988    361.
