%chk=NA.chk
# sp M062X/def2TZVP scrf=(smd,solvent=n-hexadecane) empiricaldispersion=gd3 int=ultrafine

NA

0 1
 C                  2.42882310   -0.70745705   -0.00000208
 C                  1.24259929   -1.40082303    0.00000343
 C                  0.00001428   -0.71542408    0.00000043
 C                 -0.00001596    0.71541896    0.00000097
 C                  1.24257722    1.40082750    0.00000370
 C                  2.42880625    0.70747891   -0.00000237
 H                 -1.23997337   -2.48566217    0.00000625
 H                  3.37134785   -1.24275864   -0.00000518
 H                  1.24001161   -2.48564956    0.00000125
 C                 -1.24258170   -1.40083472    0.00000016
 C                 -1.24260236    1.40082958   -0.00000058
 H                  1.23997978    2.48565519    0.00000025
 H                  3.37132689    1.24278782   -0.00000628
 C                 -2.42881909    0.70746061    0.00000003
 C                 -2.42880267   -0.70747564   -0.00000296
 H                 -1.23999975    2.48565435    0.00000379
 H                 -3.37135599    1.24274384   -0.00000217
 H                 -3.37132723   -1.24277711   -0.00000228

