%chk=NMP-BzTh.chk
# sp M062X/def2TZVP scrf=(smd,solvent=n-hexadecane) empiricaldispersion=gd3 int=ultrafine

BzTh

0 1
 C                 -1.49525633   -0.14860244   -0.97245783
 C                 -1.58756900   -0.63235261    0.35622667
 C                 -2.22079988    0.10153410    1.36098752
 C                 -2.76202037    1.33811400    1.03449572
 C                 -2.67453709    1.83814985   -0.27557818
 C                 -2.04961560    1.10636770   -1.27371719
 C                 -0.79420340   -1.06826627   -1.82984351
 C                 -0.37094064   -2.17890099   -1.17876864
 H                 -2.28906272   -0.28226849    2.37193402
 H                 -3.25618811    1.92349311    1.80090957
 H                 -3.10264144    2.80658569   -0.50626012
 H                 -1.98567005    1.49489372   -2.28400771
 H                 -0.61397783   -0.89048429   -2.88176435
 H                  0.19596137   -3.00604546   -1.57851631
 S                 -0.81010263   -2.19699731    0.51320149
 C                  2.39736648   -0.10201983   -0.20087747
 N                  1.84192069    0.47186203    0.90153845
 C                  1.77787625    2.18381888   -0.71861578
 H                  2.64383177    2.83545872   -0.58317578
 H                  1.03684139    2.72735492   -1.30473440
 C                  1.22035598    1.76797276    0.65673052
 H                  0.13078599    1.66967010    0.64829520
 H                  1.49006366    2.47316355    1.44822091
 C                  2.21140858    0.86091195   -1.36681292
 H                  1.43884413    0.44174967   -2.01576028
 H                  3.13169037    0.92934623   -1.94735558
 O                  2.93467293   -1.20082952   -0.24441879
 C                  1.76778124   -0.17284386    2.19124145
 H                  0.72771983   -0.26185415    2.51851455
 H                  2.20135502   -1.16809652    2.10566002
 H                  2.32218297    0.39929273    2.94333535

