%chk=NMP.chk
# sp M062X/def2TZVP scrf=(smd,solvent=n-hexadecane) empiricaldispersion=gd3 int=ultrafine

NMP

0 1
 C                 -0.20607429    0.85626735   -0.00008882
 N                 -0.54574601   -0.45717888   -0.00006043
 C                  1.83463108   -0.48686511    0.00021401
 H                  2.44833024   -0.68912204   -0.87761726
 H                  2.44826500   -0.68895829    0.87812768
 C                  0.57416962   -1.38946976    0.00024633
 H                  0.52991877   -2.03442191    0.88405833
 H                  0.53007047   -2.03472460   -0.88334973
 C                  1.31150010    0.96313152    0.00007310
 H                  1.62211853    1.53318087    0.87807251
 H                  1.62232636    1.53312727   -0.87788602
 O                 -1.00232896    1.78670471   -0.00024021
 C                 -1.92968791   -0.89133166   -0.00016970
 H                 -2.45340041   -0.52322274    0.88626391
 H                 -2.45437634   -0.51883496   -0.88415161
 H                 -1.96163042   -1.98080317   -0.00282267

