 Entering Gaussian System, Link 0=g16
 Initial command:
 /home/hush/g16/l1.exe "/home/hush/g16/Scratch/Gau-61701.inp" -scrdir="/home/hush/g16/Scratch/"
 Default CPUs for threads: 0
 Entering Link 1 = /home/hush/g16/l1.exe PID=     61703.
  
 Copyright (c) 1988,1990,1992,1993,1995,1998,2003,2009,2016,
            Gaussian, Inc.  All Rights Reserved.
  
 This is part of the Gaussian(R) 16 program.  It is based on
 the Gaussian(R) 09 system (copyright 2009, Gaussian, Inc.),
 the Gaussian(R) 03 system (copyright 2003, Gaussian, Inc.),
 the Gaussian(R) 98 system (copyright 1998, Gaussian, Inc.),
 the Gaussian(R) 94 system (copyright 1995, Gaussian, Inc.),
 the Gaussian 92(TM) system (copyright 1992, Gaussian, Inc.),
 the Gaussian 90(TM) system (copyright 1990, Gaussian, Inc.),
 the Gaussian 88(TM) system (copyright 1988, Gaussian, Inc.),
 the Gaussian 86(TM) system (copyright 1986, Carnegie Mellon
 University), and the Gaussian 82(TM) system (copyright 1983,
 Carnegie Mellon University). Gaussian is a federally registered
 trademark of Gaussian, Inc.
  
 This software contains proprietary and confidential information,
 including trade secrets, belonging to Gaussian, Inc.
  
 This software is provided under written license and may be
 used, copied, transmitted, or stored only in accord with that
 written license.
  
 The following legend is applicable only to US Government
 contracts under FAR:
  
                    RESTRICTED RIGHTS LEGEND
  
 Use, reproduction and disclosure by the US Government is
 subject to restrictions as set forth in subparagraphs (a)
 and (c) of the Commercial Computer Software - Restricted
 Rights clause in FAR 52.227-19.
  
 Gaussian, Inc.
 340 Quinnipiac St., Bldg. 40, Wallingford CT 06492
  
  
 ---------------------------------------------------------------
 Warning -- This program may not be used in any manner that
 competes with the business of Gaussian, Inc. or will provide
 assistance to any competitor of Gaussian, Inc.  The licensee
 of this program is prohibited from giving any competitor of
 Gaussian, Inc. access to this program.  By using this program,
 the user acknowledges that Gaussian, Inc. is engaged in the
 business of creating and licensing software in the field of
 computational chemistry and represents and warrants to the
 licensee that it is not a competitor of Gaussian, Inc. and that
 it will not use this program in any manner prohibited above.
 ---------------------------------------------------------------
  

 Cite this work as:
 Gaussian 16, Revision A.03,
 M. J. Frisch, G. W. Trucks, H. B. Schlegel, G. E. Scuseria, 
 M. A. Robb, J. R. Cheeseman, G. Scalmani, V. Barone, 
 G. A. Petersson, H. Nakatsuji, X. Li, M. Caricato, A. V. Marenich, 
 J. Bloino, B. G. Janesko, R. Gomperts, B. Mennucci, H. P. Hratchian, 
 J. V. Ortiz, A. F. Izmaylov, J. L. Sonnenberg, D. Williams-Young, 
 F. Ding, F. Lipparini, F. Egidi, J. Goings, B. Peng, A. Petrone, 
 T. Henderson, D. Ranasinghe, V. G. Zakrzewski, J. Gao, N. Rega, 
 G. Zheng, W. Liang, M. Hada, M. Ehara, K. Toyota, R. Fukuda, 
 J. Hasegawa, M. Ishida, T. Nakajima, Y. Honda, O. Kitao, H. Nakai, 
 T. Vreven, K. Throssell, J. A. Montgomery, Jr., J. E. Peralta, 
 F. Ogliaro, M. J. Bearpark, J. J. Heyd, E. N. Brothers, K. N. Kudin, 
 V. N. Staroverov, T. A. Keith, R. Kobayashi, J. Normand, 
 K. Raghavachari, A. P. Rendell, J. C. Burant, S. S. Iyengar, 
 J. Tomasi, M. Cossi, J. M. Millam, M. Klene, C. Adamo, R. Cammi, 
 J. W. Ochterski, R. L. Martin, K. Morokuma, O. Farkas, 
 J. B. Foresman, and D. J. Fox, Gaussian, Inc., Wallingford CT, 2016.
 
 ******************************************
 Gaussian 16:  ES64L-G16RevA.03 25-Dec-2016
                29-Jul-2026 
 ******************************************
 %mem=5GB
 %nprocshared=8
 Will use up to    8 processors via shared memory.
 %chk=NO3.chk
 -----------------------------
 # opt freq b3lyp/6-311+g(d,p)
 -----------------------------
 1/18=20,19=15,26=3,38=1/1,3;
 2/9=110,12=2,17=6,18=5,40=1/2;
 3/5=4,6=6,7=111,11=2,25=1,30=1,71=1,74=-5/1,2,3;
 4//1;
 5/5=2,38=5/2;
 6/7=2,8=2,9=2,10=2,28=1/1;
 7//1,2,3,16;
 1/18=20,19=15,26=3/3(2);
 2/9=110/2;
 99//99;
 2/9=110/2;
 3/5=4,6=6,7=111,11=2,25=1,30=1,71=1,74=-5/1,2,3;
 4/5=5,16=3,69=1/1;
 5/5=2,38=5/2;
 7//1,2,3,16;
 1/18=20,19=15,26=3/3(-5);
 2/9=110/2;
 6/7=2,8=2,9=2,10=2,19=2,28=1/1;
 99/9=1/99;
 ---
 NO3
 ---
 Symbolic Z-matrix:
 Charge = -1 Multiplicity = 1
 N                     0.23912   0.00001  -0.00009 
 O                    -0.45713   1.086     0. 
 O                    -0.45708  -1.08595   0. 
 O                     1.44422  -0.00001   0.00005 
 

 GradGradGradGradGradGradGradGradGradGradGradGradGradGradGradGradGradGrad
 Berny optimization.
 Initialization pass.
                           ----------------------------
                           !    Initial Parameters    !
                           ! (Angstroms and Degrees)  !
 --------------------------                            --------------------------
 ! Name  Definition              Value          Derivative Info.                !
 --------------------------------------------------------------------------------
 ! R1    R(1,2)                  1.29           estimate D2E/DX2                !
 ! R2    R(1,3)                  1.29           estimate D2E/DX2                !
 ! R3    R(1,4)                  1.2051         estimate D2E/DX2                !
 ! A1    A(2,1,3)              114.6716         estimate D2E/DX2                !
 ! A2    A(2,1,4)              122.6655         estimate D2E/DX2                !
 ! A3    A(3,1,4)              122.6629         estimate D2E/DX2                !
 ! D1    D(2,1,4,3)            179.9813         estimate D2E/DX2                !
 --------------------------------------------------------------------------------
 Trust Radius=3.00D-01 FncErr=1.00D-07 GrdErr=1.00D-06 EigMax=2.50D+02 EigMin=1.00D-04
 Number of steps in this run=     20 maximum allowed number of steps=    100.
 GradGradGradGradGradGradGradGradGradGradGradGradGradGradGradGradGradGrad

                          Input orientation:                          
 ---------------------------------------------------------------------
 Center     Atomic      Atomic             Coordinates (Angstroms)
 Number     Number       Type             X           Y           Z
 ---------------------------------------------------------------------
      1          7           0        0.239120    0.000006   -0.000092
      2          8           0       -0.457131    1.086002    0.000004
      3          8           0       -0.457079   -1.085945    0.000004
      4          8           0        1.444220   -0.000012    0.000049
 ---------------------------------------------------------------------
                    Distance matrix (angstroms):
                    1          2          3          4
     1  N    0.000000
     2  O    1.290020   0.000000
     3  O    1.289955   2.171947   0.000000
     4  O    1.205100   2.189649   2.189564   0.000000
 Stoichiometry    NO3(1-)
 Framework group  C1[X(NO3)]
 Deg. of freedom     6
 Full point group                 C1      NOp   1
 Largest Abelian subgroup         C1      NOp   1
 Largest concise Abelian subgroup C1      NOp   1
                         Standard orientation:                         
 ---------------------------------------------------------------------
 Center     Atomic      Atomic             Coordinates (Angstroms)
 Number     Number       Type             X           Y           Z
 ---------------------------------------------------------------------
      1          7           0        0.048348   -0.000090    0.000086
      2          8           0       -0.650077   -1.084689   -0.000010
      3          8           0       -0.645673    1.087254   -0.000010
      4          8           0        1.253446   -0.002487   -0.000055
 ---------------------------------------------------------------------
 Rotational constants (GHZ):          13.3957446          13.0959724           6.6220812
 Standard basis: 6-311+G(d,p) (5D, 7F)
 There are    92 symmetry adapted cartesian basis functions of A   symmetry.
 There are    88 symmetry adapted basis functions of A   symmetry.
    88 basis functions,   144 primitive gaussians,    92 cartesian basis functions
    16 alpha electrons       16 beta electrons
       nuclear repulsion energy       117.0626619336 Hartrees.
 NAtoms=    4 NActive=    4 NUniq=    4 SFac= 1.00D+00 NAtFMM=   60 NAOKFM=F Big=F
 Integral buffers will be    131072 words long.
 Raffenetti 2 integral format.
 Two-electron integral symmetry is turned on.
 One-electron integrals computed using PRISM.
 NBasis=    88 RedAO= T EigKep=  1.36D-03  NBF=    88
 NBsUse=    88 1.00D-06 EigRej= -1.00D+00 NBFU=    88
 ExpMin= 6.39D-02 ExpMax= 8.59D+03 ExpMxC= 1.30D+03 IAcc=3 IRadAn=         5 AccDes= 0.00D+00
 Harris functional with IExCor=  402 and IRadAn=       5 diagonalized for initial guess.
 HarFok:  IExCor=  402 AccDes= 0.00D+00 IRadAn=         5 IDoV= 1 UseB2=F ITyADJ=14
 ICtDFT=  3500011 ScaDFX=  1.000000  1.000000  1.000000  1.000000
 FoFCou: FMM=F IPFlag=           0 FMFlag=      100000 FMFlg1=           0
         NFxFlg=           0 DoJE=T BraDBF=F KetDBF=T FulRan=T
         wScrn=  0.000000 ICntrl=       500 IOpCl=  0 I1Cent=   200000004 NGrid=           0
         NMat0=    1 NMatS0=      1 NMatT0=    0 NMatD0=    1 NMtDS0=    0 NMtDT0=    0
 Petite list used in FoFCou.
 Keep R1 ints in memory in canonical form, NReq=15004326.
 Requested convergence on RMS density matrix=1.00D-08 within 128 cycles.
 Requested convergence on MAX density matrix=1.00D-06.
 Requested convergence on             energy=1.00D-06.
 No special actions if energy rises.
 Integral accuracy reduced to 1.0D-05 until final iterations.
 Initial convergence to 1.0D-05 achieved.  Increase integral accuracy.
 SCF Done:  E(RB3LYP) =  -280.452563371     A.U. after   13 cycles
            NFock= 13  Conv=0.58D-08     -V/T= 2.0027

 **********************************************************************

            Population analysis using the SCF density.

 **********************************************************************

 Orbital symmetries:
       Occupied  (A) (A) (A) (A) (A) (A) (A) (A) (A) (A) (A) (A)
                 (A) (A) (A) (A)
       Virtual   (A) (A) (A) (A) (A) (A) (A) (A) (A) (A) (A) (A)
                 (A) (A) (A) (A) (A) (A) (A) (A) (A) (A) (A) (A)
                 (A) (A) (A) (A) (A) (A) (A) (A) (A) (A) (A) (A)
                 (A) (A) (A) (A) (A) (A) (A) (A) (A) (A) (A) (A)
                 (A) (A) (A) (A) (A) (A) (A) (A) (A) (A) (A) (A)
                 (A) (A) (A) (A) (A) (A) (A) (A) (A) (A) (A) (A)
 The electronic state is 1-A.
 Alpha  occ. eigenvalues --  -18.94296 -18.91527 -18.91525 -14.36273  -1.03637
 Alpha  occ. eigenvalues --   -0.83517  -0.78600  -0.39840  -0.33448  -0.31086
 Alpha  occ. eigenvalues --   -0.30699  -0.11788  -0.11451  -0.10541  -0.08311
 Alpha  occ. eigenvalues --   -0.04108
 Alpha virt. eigenvalues --    0.16261   0.20026   0.24034   0.24226   0.27904
 Alpha virt. eigenvalues --    0.33997   0.34144   0.35188   0.36547   0.37003
 Alpha virt. eigenvalues --    0.41768   0.42669   0.43643   0.44336   0.45353
 Alpha virt. eigenvalues --    0.49308   0.53515   0.57376   0.57516   0.62728
 Alpha virt. eigenvalues --    0.93218   1.05666   1.07658   1.12597   1.22676
 Alpha virt. eigenvalues --    1.23482   1.25079   1.25354   1.25364   1.34632
 Alpha virt. eigenvalues --    1.35424   1.37167   1.37786   1.72055   1.84816
 Alpha virt. eigenvalues --    1.85892   1.92449   1.92481   2.39681   2.39947
 Alpha virt. eigenvalues --    2.52071   2.99728   3.02544   3.02660   3.03227
 Alpha virt. eigenvalues --    3.03534   3.05682   3.11608   3.11691   3.47526
 Alpha virt. eigenvalues --    3.47862   3.58284   3.58585   3.77411   3.88969
 Alpha virt. eigenvalues --    3.91604   3.98914   4.61149   4.67330   5.18099
 Alpha virt. eigenvalues --    5.18126   5.20479   5.25413   5.29515   5.30430
 Alpha virt. eigenvalues --    5.55657   6.26509   6.38157  35.50091  50.03658
 Alpha virt. eigenvalues --   50.14027  50.16736
          Condensed to atoms (all electrons):
               1          2          3          4
     1  N    6.702018   0.235432   0.235421   0.145113
     2  O    0.235432   8.635049  -0.313387  -0.291647
     3  O    0.235421  -0.313387   8.635056  -0.291698
     4  O    0.145113  -0.291647  -0.291698   8.589409
 Mulliken charges:
               1
     1  N   -0.317984
     2  O   -0.265447
     3  O   -0.265392
     4  O   -0.151177
 Sum of Mulliken charges =  -1.00000
 Mulliken charges with hydrogens summed into heavy atoms:
               1
     1  N   -0.317984
     2  O   -0.265447
     3  O   -0.265392
     4  O   -0.151177
 Electronic spatial extent (au):  <R**2>=            199.5564
 Charge=             -1.0000 electrons
 Dipole moment (field-independent basis, Debye):
    X=              0.6973    Y=             -0.0011    Z=              0.0001  Tot=              0.6973
 Quadrupole moment (field-independent basis, Debye-Ang):
   XX=            -30.6326   YY=            -31.4302   ZZ=            -23.0054
   XY=             -0.0019   XZ=              0.0003   YZ=             -0.0000
 Traceless Quadrupole moment (field-independent basis, Debye-Ang):
   XX=             -2.2766   YY=             -3.0741   ZZ=              5.3507
   XY=             -0.0019   XZ=              0.0003   YZ=             -0.0000
 Octapole moment (field-independent basis, Debye-Ang**2):
  XXX=             -1.6438  YYY=             -0.0201  ZZZ=             -0.0003  XYY=              3.5492
  XXY=              0.0179  XXZ=             -0.0003  XZZ=              0.5753  YZZ=             -0.0008
  YYZ=             -0.0005  XYZ=             -0.0000
 Hexadecapole moment (field-independent basis, Debye-Ang**3):
 XXXX=           -121.1881 YYYY=           -124.7630 ZZZZ=            -21.3363 XXXY=             -0.0025
 XXXZ=              0.0011 YYYX=             -0.0095 YYYZ=             -0.0000 ZZZX=              0.0011
 ZZZY=             -0.0000 XXYY=            -40.4194 XXZZ=            -22.9205 YYZZ=            -23.5246
 XXYZ=              0.0000 YYXZ=              0.0008 ZZXY=             -0.0021
 N-N= 1.170626619336D+02 E-N=-9.044412912322D+02  KE= 2.797033287714D+02
 Calling FoFJK, ICntrl=      2127 FMM=F ISym2X=0 I1Cent= 0 IOpClX= 0 NMat=1 NMatS=1 NMatT=0.
 ***** Axes restored to original set *****
 -------------------------------------------------------------------
 Center     Atomic                   Forces (Hartrees/Bohr)
 Number     Number              X              Y              Z
 -------------------------------------------------------------------
      1        7          -0.090942606    0.000020503    0.000056685
      2        8           0.022454777   -0.005411136   -0.000020806
      3        8           0.022422807    0.005380036   -0.000020805
      4        8           0.046065022    0.000010598   -0.000015074
 -------------------------------------------------------------------
 Cartesian Forces:  Max     0.090942606 RMS     0.030900072

 GradGradGradGradGradGradGradGradGradGradGradGradGradGradGradGradGradGrad
 Berny optimization.
 FormGI is forming the generalized inverse of G from B-inverse, IUseBI=4.
 Internal  Forces:  Max     0.046065020 RMS     0.022953419
 Search for a local minimum.
 Step number   1 out of a maximum of   20
 All quantities printed in internal units (Hartrees-Bohrs-Radians)
 Mixed Optimization -- RFO/linear search
 Second derivative matrix not updated -- first step.
 The second derivative matrix:
                          R1        R2        R3        A1        A2
           R1           0.70043
           R2           0.00000   0.70062
           R3           0.00000   0.00000   1.02302
           A1           0.00000   0.00000   0.00000   0.25000
           A2           0.00000   0.00000   0.00000   0.00000   0.25000
           A3           0.00000   0.00000   0.00000   0.00000   0.00000
           D1           0.00000   0.00000   0.00000   0.00000   0.00000
                          A3        D1
           A3           0.25000
           D1           0.00000   0.03873
 ITU=  0
     Eigenvalues ---    0.03873   0.25000   0.25000   0.70043   0.70062
     Eigenvalues ---    1.02302
 RFO step:  Lambda=-6.78347253D-03 EMin= 3.87295866D-02
 Linear search not attempted -- first point.
 Iteration  1 RMS(Cart)=  0.04504626 RMS(Int)=  0.00173041
 Iteration  2 RMS(Cart)=  0.00175289 RMS(Int)=  0.00000053
 Iteration  3 RMS(Cart)=  0.00000054 RMS(Int)=  0.00000007
 Variable       Old X    -DE/DX   Delta X   Delta X   Delta X     New X
                                 (Linear)    (Quad)   (Total)
    R1        2.43779  -0.01667   0.00000  -0.02358  -0.02358   2.41421
    R2        2.43766  -0.01663   0.00000  -0.02351  -0.02351   2.41415
    R3        2.27731   0.04607   0.00000   0.04473   0.04473   2.32204
    A1        2.00140   0.02597   0.00000   0.10112   0.10112   2.10252
    A2        2.14092  -0.01300   0.00000  -0.05061  -0.05061   2.09031
    A3        2.14087  -0.01297   0.00000  -0.05051  -0.05051   2.09036
    D1        3.14127   0.00004   0.00000   0.00087   0.00087  -3.14105
         Item               Value     Threshold  Converged?
 Maximum Force            0.046065     0.000450     NO 
 RMS     Force            0.022953     0.000300     NO 
 Maximum Displacement     0.069727     0.001800     NO 
 RMS     Displacement     0.044314     0.001200     NO 
 Predicted change in Energy=-3.454311D-03
 GradGradGradGradGradGradGradGradGradGradGradGradGradGradGradGradGradGrad

                          Input orientation:                          
 ---------------------------------------------------------------------
 Center     Atomic      Atomic             Coordinates (Angstroms)
 Number     Number       Type             X           Y           Z
 ---------------------------------------------------------------------
      1          7           0        0.202222   -0.000002    0.000141
      2          8           0       -0.432042    1.108973   -0.000071
      3          8           0       -0.432043   -1.108942   -0.000071
      4          8           0        1.430993    0.000023   -0.000034
 ---------------------------------------------------------------------
                    Distance matrix (angstroms):
                    1          2          3          4
     1  N    0.000000
     2  O    1.277543   0.000000
     3  O    1.277514   2.217915   0.000000
     4  O    1.228771   2.168103   2.168112   0.000000
 Stoichiometry    NO3(1-)
 Framework group  C1[X(NO3)]
 Deg. of freedom     6
 Full point group                 C1      NOp   1
 Largest Abelian subgroup         C1      NOp   1
 Largest concise Abelian subgroup C1      NOp   1
                         Standard orientation:                         
 ---------------------------------------------------------------------
 Center     Atomic      Atomic             Coordinates (Angstroms)
 Number     Number       Type             X           Y           Z
 ---------------------------------------------------------------------
      1          7           0        0.000015   -0.010260   -0.000154
      2          8           0       -1.108914    0.624086    0.000057
      3          8           0        1.109002    0.623923    0.000057
      4          8           0       -0.000101   -1.239031    0.000021
 ---------------------------------------------------------------------
 Rotational constants (GHZ):          13.6540560          12.8462185           6.6189121
 Standard basis: 6-311+G(d,p) (5D, 7F)
 There are    92 symmetry adapted cartesian basis functions of A   symmetry.
 There are    88 symmetry adapted basis functions of A   symmetry.
    88 basis functions,   144 primitive gaussians,    92 cartesian basis functions
    16 alpha electrons       16 beta electrons
       nuclear repulsion energy       117.0205792465 Hartrees.
 NAtoms=    4 NActive=    4 NUniq=    4 SFac= 1.00D+00 NAtFMM=   60 NAOKFM=F Big=F
 Integral buffers will be    131072 words long.
 Raffenetti 2 integral format.
 Two-electron integral symmetry is turned on.
 One-electron integrals computed using PRISM.
 NBasis=    88 RedAO= T EigKep=  1.40D-03  NBF=    88
 NBsUse=    88 1.00D-06 EigRej= -1.00D+00 NBFU=    88
 Initial guess from the checkpoint file:  "NO3.chk"
 B after Tr=    -0.000000    0.000000   -0.000000
         Rot=    0.707789    0.000000    0.000000    0.706424 Ang=  89.89 deg.
 ExpMin= 6.39D-02 ExpMax= 8.59D+03 ExpMxC= 1.30D+03 IAcc=2 IRadAn=         4 AccDes= 0.00D+00
 Harris functional with IExCor=  402 and IRadAn=       4 diagonalized for initial guess.
 HarFok:  IExCor=  402 AccDes= 0.00D+00 IRadAn=         4 IDoV= 1 UseB2=F ITyADJ=14
 ICtDFT=  3500011 ScaDFX=  1.000000  1.000000  1.000000  1.000000
 FoFCou: FMM=F IPFlag=           0 FMFlag=      100000 FMFlg1=           0
         NFxFlg=           0 DoJE=T BraDBF=F KetDBF=T FulRan=T
         wScrn=  0.000000 ICntrl=       500 IOpCl=  0 I1Cent=   200000004 NGrid=           0
         NMat0=    1 NMatS0=      1 NMatT0=    0 NMatD0=    1 NMtDS0=    0 NMtDT0=    0
 Petite list used in FoFCou.
 Keep R1 ints in memory in canonical form, NReq=15004326.
 Requested convergence on RMS density matrix=1.00D-08 within 128 cycles.
 Requested convergence on MAX density matrix=1.00D-06.
 Requested convergence on             energy=1.00D-06.
 No special actions if energy rises.
 Integral accuracy reduced to 1.0D-05 until final iterations.
 Initial convergence to 1.0D-05 achieved.  Increase integral accuracy.
 SCF Done:  E(RB3LYP) =  -280.456244111     A.U. after   12 cycles
            NFock= 12  Conv=0.43D-08     -V/T= 2.0028
 Calling FoFJK, ICntrl=      2127 FMM=F ISym2X=0 I1Cent= 0 IOpClX= 0 NMat=1 NMatS=1 NMatT=0.
 ***** Axes restored to original set *****
 -------------------------------------------------------------------
 Center     Atomic                   Forces (Hartrees/Bohr)
 Number     Number              X              Y              Z
 -------------------------------------------------------------------
      1        7          -0.032804979    0.000023058   -0.000107241
      2        8           0.002238569   -0.014084512    0.000036952
      3        8           0.002236931    0.014067890    0.000036950
      4        8           0.028329479   -0.000006437    0.000033338
 -------------------------------------------------------------------
 Cartesian Forces:  Max     0.032804979 RMS     0.013799263

 GradGradGradGradGradGradGradGradGradGradGradGradGradGradGradGradGradGrad
 Berny optimization.
 Using GEDIIS/GDIIS optimizer.
 FormGI is forming the generalized inverse of G from B-inverse, IUseBI=4.
 Internal  Forces:  Max     0.028329474 RMS     0.013399730
 Search for a local minimum.
 Step number   2 out of a maximum of   20
 All quantities printed in internal units (Hartrees-Bohrs-Radians)
 Mixed Optimization -- RFO/linear search
 Update second derivatives using D2CorX and points    1    2
 DE= -3.68D-03 DEPred=-3.45D-03 R= 1.07D+00
 TightC=F SS=  1.41D+00  RLast= 1.36D-01 DXNew= 5.0454D-01 4.0748D-01
 Trust test= 1.07D+00 RLast= 1.36D-01 DXMaxT set to 4.07D-01
 The second derivative matrix:
                          R1        R2        R3        A1        A2
           R1           0.66128
           R2          -0.03905   0.66166
           R3           0.10383   0.10362   0.75990
           A1           0.04412   0.04411  -0.07497   0.34387
           A2          -0.02208  -0.02208   0.03751  -0.04700   0.27354
           A3          -0.02204  -0.02204   0.03746  -0.04686   0.02347
           D1           0.00002   0.00002   0.00010   0.00050  -0.00025
                          A3        D1
           A3           0.27340
           D1          -0.00025   0.03873
 ITU=  1  0
 Use linear search instead of GDIIS.
     Eigenvalues ---    0.03873   0.25000   0.32493   0.59191   0.70052
     Eigenvalues ---    0.85628
 RFO step:  Lambda=-1.99438115D-03 EMin= 3.87303034D-02
 Quartic linear search produced a step of  0.11354.
 Iteration  1 RMS(Cart)=  0.01964500 RMS(Int)=  0.00003011
 Iteration  2 RMS(Cart)=  0.00003113 RMS(Int)=  0.00000030
 Iteration  3 RMS(Cart)=  0.00000000 RMS(Int)=  0.00000030
 Variable       Old X    -DE/DX   Delta X   Delta X   Delta X     New X
                                 (Linear)    (Quad)   (Total)
    R1        2.41421  -0.01334  -0.00268  -0.02553  -0.02821   2.38600
    R2        2.41415  -0.01332  -0.00267  -0.02549  -0.02816   2.38599
    R3        2.32204   0.02833   0.00508   0.03910   0.04417   2.36622
    A1        2.10252  -0.00812   0.01148  -0.01689  -0.00541   2.09711
    A2        2.09031   0.00407  -0.00575   0.00847   0.00272   2.09303
    A3        2.09036   0.00405  -0.00573   0.00842   0.00268   2.09304
    D1       -3.14105  -0.00007   0.00010  -0.00185  -0.00175   3.14039
         Item               Value     Threshold  Converged?
 Maximum Force            0.028329     0.000450     NO 
 RMS     Force            0.013400     0.000300     NO 
 Maximum Displacement     0.028931     0.001800     NO 
 RMS     Displacement     0.019626     0.001200     NO 
 Predicted change in Energy=-1.035595D-03
 GradGradGradGradGradGradGradGradGradGradGradGradGradGradGradGradGradGrad

                          Input orientation:                          
 ---------------------------------------------------------------------
 Center     Atomic      Atomic             Coordinates (Angstroms)
 Number     Number       Type             X           Y           Z
 ---------------------------------------------------------------------
      1          7           0        0.194156    0.000010   -0.000337
      2          8           0       -0.435665    1.094323    0.000087
      3          8           0       -0.435664   -1.094300    0.000087
      4          8           0        1.446303    0.000018    0.000128
 ---------------------------------------------------------------------
                    Distance matrix (angstroms):
                    1          2          3          4
     1  N    0.000000
     2  O    1.262614   0.000000
     3  O    1.262611   2.188623   0.000000
     4  O    1.252148   2.176995   2.177001   0.000000
 Stoichiometry    NO3(1-)
 Framework group  C1[X(NO3)]
 Deg. of freedom     6
 Full point group                 C1      NOp   1
 Largest Abelian subgroup         C1      NOp   1
 Largest concise Abelian subgroup C1      NOp   1
                         Standard orientation:                         
 ---------------------------------------------------------------------
 Center     Atomic      Atomic             Coordinates (Angstroms)
 Number     Number       Type             X           Y           Z
 ---------------------------------------------------------------------
      1          7           0        0.000003   -0.001934    0.000339
      2          8           0       -1.094171    0.628129   -0.000085
      3          8           0        1.094452    0.627644   -0.000085
      4          8           0       -0.000283   -1.254081   -0.000126
 ---------------------------------------------------------------------
 Rotational constants (GHZ):          13.3813963          13.1923866           6.6431100
 Standard basis: 6-311+G(d,p) (5D, 7F)
 There are    92 symmetry adapted cartesian basis functions of A   symmetry.
 There are    88 symmetry adapted basis functions of A   symmetry.
    88 basis functions,   144 primitive gaussians,    92 cartesian basis functions
    16 alpha electrons       16 beta electrons
       nuclear repulsion energy       117.1951868790 Hartrees.
 NAtoms=    4 NActive=    4 NUniq=    4 SFac= 1.00D+00 NAtFMM=   60 NAOKFM=F Big=F
 Integral buffers will be    131072 words long.
 Raffenetti 2 integral format.
 Two-electron integral symmetry is turned on.
 One-electron integrals computed using PRISM.
 NBasis=    88 RedAO= T EigKep=  1.42D-03  NBF=    88
 NBsUse=    88 1.00D-06 EigRej= -1.00D+00 NBFU=    88
 Initial guess from the checkpoint file:  "NO3.chk"
 B after Tr=    -0.000000    0.000000    0.000000
         Rot=    1.000000   -0.000000   -0.000000    0.000074 Ang=  -0.01 deg.
 ExpMin= 6.39D-02 ExpMax= 8.59D+03 ExpMxC= 1.30D+03 IAcc=2 IRadAn=         4 AccDes= 0.00D+00
 Harris functional with IExCor=  402 and IRadAn=       4 diagonalized for initial guess.
 HarFok:  IExCor=  402 AccDes= 0.00D+00 IRadAn=         4 IDoV= 1 UseB2=F ITyADJ=14
 ICtDFT=  3500011 ScaDFX=  1.000000  1.000000  1.000000  1.000000
 FoFCou: FMM=F IPFlag=           0 FMFlag=      100000 FMFlg1=           0
         NFxFlg=           0 DoJE=T BraDBF=F KetDBF=T FulRan=T
         wScrn=  0.000000 ICntrl=       500 IOpCl=  0 I1Cent=   200000004 NGrid=           0
         NMat0=    1 NMatS0=      1 NMatT0=    0 NMatD0=    1 NMtDS0=    0 NMtDT0=    0
 Petite list used in FoFCou.
 Keep R1 ints in memory in canonical form, NReq=15004326.
 Requested convergence on RMS density matrix=1.00D-08 within 128 cycles.
 Requested convergence on MAX density matrix=1.00D-06.
 Requested convergence on             energy=1.00D-06.
 No special actions if energy rises.
 Integral accuracy reduced to 1.0D-05 until final iterations.
 Initial convergence to 1.0D-05 achieved.  Increase integral accuracy.
 SCF Done:  E(RB3LYP) =  -280.457485381     A.U. after   12 cycles
            NFock= 12  Conv=0.40D-08     -V/T= 2.0027
 Calling FoFJK, ICntrl=      2127 FMM=F ISym2X=0 I1Cent= 0 IOpClX= 0 NMat=1 NMatS=1 NMatT=0.
 ***** Axes restored to original set *****
 -------------------------------------------------------------------
 Center     Atomic                   Forces (Hartrees/Bohr)
 Number     Number              X              Y              Z
 -------------------------------------------------------------------
      1        7          -0.006420905    0.000003953    0.000236348
      2        8          -0.000380302   -0.002081985   -0.000079428
      3        8          -0.000379154    0.002079987   -0.000079428
      4        8           0.007180361   -0.000001955   -0.000077492
 -------------------------------------------------------------------
 Cartesian Forces:  Max     0.007180361 RMS     0.002912752

 GradGradGradGradGradGradGradGradGradGradGradGradGradGradGradGradGradGrad
 Berny optimization.
 Using GEDIIS/GDIIS optimizer.
 FormGI is forming the generalized inverse of G from B-inverse, IUseBI=4.
 Internal  Forces:  Max     0.007180332 RMS     0.003021108
 Search for a local minimum.
 Step number   3 out of a maximum of   20
 All quantities printed in internal units (Hartrees-Bohrs-Radians)
 Mixed Optimization -- RFO/linear search
 Update second derivatives using D2CorX and points    1    2    3
 DE= -1.24D-03 DEPred=-1.04D-03 R= 1.20D+00
 TightC=F SS=  1.41D+00  RLast= 5.99D-02 DXNew= 6.8530D-01 1.7968D-01
 Trust test= 1.20D+00 RLast= 5.99D-02 DXMaxT set to 4.07D-01
 The second derivative matrix:
                          R1        R2        R3        A1        A2
           R1           0.65877
           R2          -0.04157   0.65913
           R3           0.13459   0.13434   0.64166
           A1           0.03102   0.03104  -0.04688   0.34548
           A2          -0.01552  -0.01552   0.02343  -0.04781   0.27394
           A3          -0.01550  -0.01551   0.02345  -0.04767   0.02387
           D1           0.00125   0.00125  -0.00219   0.00036  -0.00018
                          A3        D1
           A3           0.27380
           D1          -0.00018   0.03876
 ITU=  1  1  0
 Use linear search instead of GDIIS.
     Eigenvalues ---    0.03874   0.25000   0.33433   0.49782   0.70052
     Eigenvalues ---    0.82014
 RFO step:  Lambda=-1.13277068D-05 EMin= 3.87409644D-02
 Quartic linear search produced a step of  0.26623.
 Iteration  1 RMS(Cart)=  0.00582855 RMS(Int)=  0.00000592
 Iteration  2 RMS(Cart)=  0.00000427 RMS(Int)=  0.00000265
 Iteration  3 RMS(Cart)=  0.00000000 RMS(Int)=  0.00000265
 Variable       Old X    -DE/DX   Delta X   Delta X   Delta X     New X
                                 (Linear)    (Quad)   (Total)
    R1        2.38600  -0.00161  -0.00751   0.00205  -0.00546   2.38053
    R2        2.38599  -0.00161  -0.00750   0.00205  -0.00545   2.38054
    R3        2.36622   0.00718   0.01176   0.00162   0.01338   2.37960
    A1        2.09711  -0.00217  -0.00144  -0.00168  -0.00313   2.09399
    A2        2.09303   0.00109   0.00073   0.00085   0.00157   2.09460
    A3        2.09304   0.00109   0.00071   0.00084   0.00155   2.09459
    D1        3.14039   0.00016  -0.00047   0.00568   0.00522  -3.13758
         Item               Value     Threshold  Converged?
 Maximum Force            0.007180     0.000450     NO 
 RMS     Force            0.003021     0.000300     NO 
 Maximum Displacement     0.010285     0.001800     NO 
 RMS     Displacement     0.005827     0.001200     NO 
 Predicted change in Energy=-6.085002D-05
 GradGradGradGradGradGradGradGradGradGradGradGradGradGradGradGradGradGrad

                          Input orientation:                          
 ---------------------------------------------------------------------
 Center     Atomic      Atomic             Coordinates (Angstroms)
 Number     Number       Type             X           Y           Z
 ---------------------------------------------------------------------
      1          7           0        0.192518    0.000014    0.001086
      2          8           0       -0.437569    1.090837   -0.000387
      3          8           0       -0.437565   -1.090814   -0.000387
      4          8           0        1.451746    0.000014   -0.000348
 ---------------------------------------------------------------------
                    Distance matrix (angstroms):
                    1          2          3          4
     1  N    0.000000
     2  O    1.259724   0.000000
     3  O    1.259726   2.181650   0.000000
     4  O    1.259229   2.181606   2.181605   0.000000
 Stoichiometry    NO3(1-)
 Framework group  C1[X(NO3)]
 Deg. of freedom     6
 Full point group                 C1      NOp   1
 Largest Abelian subgroup         C1      NOp   1
 Largest concise Abelian subgroup C1      NOp   1
                         Standard orientation:                         
 ---------------------------------------------------------------------
 Center     Atomic      Atomic             Coordinates (Angstroms)
 Number     Number       Type             X           Y           Z
 ---------------------------------------------------------------------
      1          7           0        0.000000   -0.000243   -0.001130
      2          8           0       -1.093798    0.624665    0.000342
      3          8           0        1.087828    0.635004    0.000342
      4          8           0        0.005970   -1.259457    0.000304
 ---------------------------------------------------------------------
 Rotational constants (GHZ):          13.2775695          13.2768413           6.6386067
 Standard basis: 6-311+G(d,p) (5D, 7F)
 There are    92 symmetry adapted cartesian basis functions of A   symmetry.
 There are    88 symmetry adapted basis functions of A   symmetry.
    88 basis functions,   144 primitive gaussians,    92 cartesian basis functions
    16 alpha electrons       16 beta electrons
       nuclear repulsion energy       117.1534346984 Hartrees.
 NAtoms=    4 NActive=    4 NUniq=    4 SFac= 1.00D+00 NAtFMM=   60 NAOKFM=F Big=F
 Integral buffers will be    131072 words long.
 Raffenetti 2 integral format.
 Two-electron integral symmetry is turned on.
 One-electron integrals computed using PRISM.
 NBasis=    88 RedAO= T EigKep=  1.42D-03  NBF=    88
 NBsUse=    88 1.00D-06 EigRej= -1.00D+00 NBFU=    88
 Initial guess from the checkpoint file:  "NO3.chk"
 B after Tr=     0.000000    0.000000   -0.000000
         Rot=    0.999997    0.000000    0.000000   -0.002481 Ang=   0.28 deg.
 Keep R1 ints in memory in canonical form, NReq=15004326.
 Requested convergence on RMS density matrix=1.00D-08 within 128 cycles.
 Requested convergence on MAX density matrix=1.00D-06.
 Requested convergence on             energy=1.00D-06.
 No special actions if energy rises.
 SCF Done:  E(RB3LYP) =  -280.457548738     A.U. after    9 cycles
            NFock=  9  Conv=0.78D-08     -V/T= 2.0027
 Calling FoFJK, ICntrl=      2127 FMM=F ISym2X=0 I1Cent= 0 IOpClX= 0 NMat=1 NMatS=1 NMatT=0.
 ***** Axes restored to original set *****
 -------------------------------------------------------------------
 Center     Atomic                   Forces (Hartrees/Bohr)
 Number     Number              X              Y              Z
 -------------------------------------------------------------------
      1        7          -0.000446486   -0.000001489   -0.000788298
      2        8          -0.000214926    0.000495940    0.000262866
      3        8          -0.000214813   -0.000494775    0.000262867
      4        8           0.000876225    0.000000324    0.000262565
 -------------------------------------------------------------------
 Cartesian Forces:  Max     0.000876225 RMS     0.000445231

 GradGradGradGradGradGradGradGradGradGradGradGradGradGradGradGradGradGrad
 Berny optimization.
 Using GEDIIS/GDIIS optimizer.
 FormGI is forming the generalized inverse of G from B-inverse, IUseBI=4.
 Internal  Forces:  Max     0.000875925 RMS     0.000485671
 Search for a local minimum.
 Step number   4 out of a maximum of   20
 All quantities printed in internal units (Hartrees-Bohrs-Radians)
 Mixed Optimization -- En-DIIS/RFO-DIIS
 Update second derivatives using D2CorX and points    1    2    3    4
 DE= -6.34D-05 DEPred=-6.09D-05 R= 1.04D+00
 TightC=F SS=  1.41D+00  RLast= 1.67D-02 DXNew= 6.8530D-01 5.0246D-02
 Trust test= 1.04D+00 RLast= 1.67D-02 DXMaxT set to 4.07D-01
 The second derivative matrix:
                          R1        R2        R3        A1        A2
           R1           0.67610
           R2          -0.02427   0.67642
           R3           0.12484   0.12463   0.54863
           A1           0.04451   0.04449  -0.04079   0.33992
           A2          -0.02227  -0.02227   0.02040  -0.04503   0.27255
           A3          -0.02222  -0.02222   0.02040  -0.04489   0.02248
           D1          -0.01023  -0.01021   0.02542  -0.00723   0.00362
                          A3        D1
           A3           0.27241
           D1           0.00360   0.04238
 ITU=  1  1  1  0
 Use linear search instead of GDIIS.
     Eigenvalues ---    0.04011   0.25000   0.31227   0.48873   0.70052
     Eigenvalues ---    0.78677
 RFO step:  Lambda=-9.65726583D-06 EMin= 4.01050082D-02
 Quartic linear search produced a step of  0.02146.
 Iteration  1 RMS(Cart)=  0.00322421 RMS(Int)=  0.00002258
 Iteration  2 RMS(Cart)=  0.00001278 RMS(Int)=  0.00001853
 Iteration  3 RMS(Cart)=  0.00000000 RMS(Int)=  0.00001853
 Variable       Old X    -DE/DX   Delta X   Delta X   Delta X     New X
                                 (Linear)    (Quad)   (Total)
    R1        2.38053   0.00054  -0.00012   0.00028   0.00016   2.38070
    R2        2.38054   0.00054  -0.00012   0.00028   0.00016   2.38070
    R3        2.37960   0.00088   0.00029   0.00191   0.00219   2.38179
    A1        2.09399   0.00010  -0.00007   0.00027   0.00017   2.09416
    A2        2.09460  -0.00005   0.00003  -0.00011  -0.00010   2.09449
    A3        2.09459  -0.00005   0.00003  -0.00011  -0.00010   2.09449
    D1       -3.13758  -0.00054   0.00011  -0.01410  -0.01398   3.13162
         Item               Value     Threshold  Converged?
 Maximum Force            0.000876     0.000450     NO 
 RMS     Force            0.000486     0.000300     NO 
 Maximum Displacement     0.007207     0.001800     NO 
 RMS     Displacement     0.003223     0.001200     NO 
 Predicted change in Energy=-4.863452D-06
 GradGradGradGradGradGradGradGradGradGradGradGradGradGradGradGradGradGrad

                          Input orientation:                          
 ---------------------------------------------------------------------
 Center     Atomic      Atomic             Coordinates (Angstroms)
 Number     Number       Type             X           Y           Z
 ---------------------------------------------------------------------
      1          7           0        0.192199    0.000013   -0.002728
      2          8           0       -0.437828    1.090965    0.000885
      3          8           0       -0.437825   -1.090942    0.000885
      4          8           0        1.452584    0.000015    0.000924
 ---------------------------------------------------------------------
                    Distance matrix (angstroms):
                    1          2          3          4
     1  N    0.000000
     2  O    1.259811   0.000000
     3  O    1.259813   2.181908   0.000000
     4  O    1.260390   2.182620   2.182621   0.000000
 Stoichiometry    NO3(1-)
 Framework group  C1[X(NO3)]
 Deg. of freedom     6
 Full point group                 C1      NOp   1
 Largest Abelian subgroup         C1      NOp   1
 Largest concise Abelian subgroup C1      NOp   1
                         Standard orientation:                         
 ---------------------------------------------------------------------
 Center     Atomic      Atomic             Coordinates (Angstroms)
 Number     Number       Type             X           Y           Z
 ---------------------------------------------------------------------
      1          7           0       -0.000086   -0.000001    0.002807
      2          8           0       -0.629732   -1.091173   -0.000806
      3          8           0       -0.630492    1.090735   -0.000806
      4          8           0        1.260299    0.000439   -0.000845
 ---------------------------------------------------------------------
 Rotational constants (GHZ):          13.2736659          13.2621116           6.6339679
 Standard basis: 6-311+G(d,p) (5D, 7F)
 There are    92 symmetry adapted cartesian basis functions of A   symmetry.
 There are    88 symmetry adapted basis functions of A   symmetry.
    88 basis functions,   144 primitive gaussians,    92 cartesian basis functions
    16 alpha electrons       16 beta electrons
       nuclear repulsion energy       117.1122559193 Hartrees.
 NAtoms=    4 NActive=    4 NUniq=    4 SFac= 1.00D+00 NAtFMM=   60 NAOKFM=F Big=F
 Integral buffers will be    131072 words long.
 Raffenetti 2 integral format.
 Two-electron integral symmetry is turned on.
 One-electron integrals computed using PRISM.
 NBasis=    88 RedAO= T EigKep=  1.42D-03  NBF=    88
 NBsUse=    88 1.00D-06 EigRej= -1.00D+00 NBFU=    88
 Initial guess from the checkpoint file:  "NO3.chk"
 B after Tr=    -0.000000    0.000000   -0.000000
         Rot=    0.708658   -0.000000   -0.000000   -0.705553 Ang= -89.75 deg.
 Keep R1 ints in memory in canonical form, NReq=15004326.
 Requested convergence on RMS density matrix=1.00D-08 within 128 cycles.
 Requested convergence on MAX density matrix=1.00D-06.
 Requested convergence on             energy=1.00D-06.
 No special actions if energy rises.
 SCF Done:  E(RB3LYP) =  -280.457543955     A.U. after    9 cycles
            NFock=  9  Conv=0.14D-08     -V/T= 2.0028
 Calling FoFJK, ICntrl=      2127 FMM=F ISym2X=0 I1Cent= 0 IOpClX= 0 NMat=1 NMatS=1 NMatT=0.
 ***** Axes restored to original set *****
 -------------------------------------------------------------------
 Center     Atomic                   Forces (Hartrees/Bohr)
 Number     Number              X              Y              Z
 -------------------------------------------------------------------
      1        7           0.000324015   -0.000001107    0.001958402
      2        8          -0.000038400    0.000252941   -0.000652547
      3        8          -0.000037919   -0.000251917   -0.000652549
      4        8          -0.000247697    0.000000083   -0.000653305
 -------------------------------------------------------------------
 Cartesian Forces:  Max     0.001958402 RMS     0.000671471

 GradGradGradGradGradGradGradGradGradGradGradGradGradGradGradGradGradGrad
 Berny optimization.
 Using GEDIIS/GDIIS optimizer.
 FormGI is forming the generalized inverse of G from B-inverse, IUseBI=4.
 Internal  Forces:  Max     0.001346387 RMS     0.000536771
 Search for a local minimum.
 Step number   5 out of a maximum of   20
 All quantities printed in internal units (Hartrees-Bohrs-Radians)
 Mixed Optimization -- En-DIIS/RFO-DIIS
 Swapping is turned off.
 Update second derivatives using D2CorX and points    1    2    3    4    5
 DE=  4.78D-06 DEPred=-4.86D-06 R=-9.83D-01
 Trust test=-9.83D-01 RLast= 1.42D-02 DXMaxT set to 2.04D-01
 The second derivative matrix:
                          R1        R2        R3        A1        A2
           R1           0.66700
           R2          -0.03334   0.66736
           R3           0.11299   0.11287   0.36996
           A1           0.05766   0.05761  -0.03996   0.34209
           A2          -0.02884  -0.02881   0.02038  -0.04609   0.27306
           A3          -0.02877  -0.02875   0.02035  -0.04593   0.02299
           D1           0.00480   0.00475  -0.02059   0.00344  -0.00163
                          A3        D1
           A3           0.27291
           D1          -0.00164   0.13206
 ITU= -1  1  1  1  0
     Eigenvalues ---    0.12903   0.24202   0.25000   0.42873   0.70052
     Eigenvalues ---    0.72413
 En-DIIS/RFO-DIIS/Sim-DIIS IScMMF=       -3 using points:     5    4
 RFO step:  Lambda=-1.38849532D-05.
 DidBck=T Rises=T En-DIIS coefs:    0.41748    0.58252
 Iteration  1 RMS(Cart)=  0.00228768 RMS(Int)=  0.00000676
 Iteration  2 RMS(Cart)=  0.00000666 RMS(Int)=  0.00000109
 Iteration  3 RMS(Cart)=  0.00000000 RMS(Int)=  0.00000109
 Variable       Old X    -DE/DX   Delta X   Delta X   Delta X     New X
                                 (Linear)    (Quad)   (Total)
    R1        2.38070   0.00024  -0.00010   0.00042   0.00033   2.38102
    R2        2.38070   0.00024  -0.00009   0.00042   0.00033   2.38103
    R3        2.38179  -0.00025  -0.00128   0.00099  -0.00029   2.38151
    A1        2.09416   0.00015  -0.00010   0.00027   0.00017   2.09432
    A2        2.09449  -0.00007   0.00006  -0.00013  -0.00006   2.09443
    A3        2.09449  -0.00007   0.00006  -0.00012  -0.00006   2.09443
    D1        3.13162   0.00135   0.00815   0.00198   0.01012  -3.14144
         Item               Value     Threshold  Converged?
 Maximum Force            0.001346     0.000450     NO 
 RMS     Force            0.000537     0.000300     NO 
 Maximum Displacement     0.005217     0.001800     NO 
 RMS     Displacement     0.002288     0.001200     NO 
 Predicted change in Energy=-6.942569D-06
 GradGradGradGradGradGradGradGradGradGradGradGradGradGradGradGradGradGrad

                          Input orientation:                          
 ---------------------------------------------------------------------
 Center     Atomic      Atomic             Coordinates (Angstroms)
 Number     Number       Type             X           Y           Z
 ---------------------------------------------------------------------
      1          7           0        0.192238    0.000013    0.000033
      2          8           0       -0.437794    1.091167   -0.000036
      3          8           0       -0.437791   -1.091144   -0.000036
      4          8           0        1.452477    0.000015    0.000004
 ---------------------------------------------------------------------
                    Distance matrix (angstroms):
                    1          2          3          4
     1  N    0.000000
     2  O    1.259984   0.000000
     3  O    1.259985   2.182312   0.000000
     4  O    1.260239   2.182599   2.182600   0.000000
 Stoichiometry    NO3(1-)
 Framework group  C1[X(NO3)]
 Deg. of freedom     6
 Full point group                 C1      NOp   1
 Largest Abelian subgroup         C1      NOp   1
 Largest concise Abelian subgroup C1      NOp   1
                         Standard orientation:                         
 ---------------------------------------------------------------------
 Center     Atomic      Atomic             Coordinates (Angstroms)
 Number     Number       Type             X           Y           Z
 ---------------------------------------------------------------------
      1          7           0       -0.000046   -0.000000   -0.000043
      2          8           0       -0.628967   -1.091796    0.000026
      3          8           0       -0.631186    1.090515    0.000026
      4          8           0        1.260193    0.001281   -0.000014
 ---------------------------------------------------------------------
 Rotational constants (GHZ):          13.2688005          13.2641333           6.6332333
 Standard basis: 6-311+G(d,p) (5D, 7F)
 There are    92 symmetry adapted cartesian basis functions of A   symmetry.
 There are    88 symmetry adapted basis functions of A   symmetry.
    88 basis functions,   144 primitive gaussians,    92 cartesian basis functions
    16 alpha electrons       16 beta electrons
       nuclear repulsion energy       117.1060576637 Hartrees.
 NAtoms=    4 NActive=    4 NUniq=    4 SFac= 1.00D+00 NAtFMM=   60 NAOKFM=F Big=F
 Integral buffers will be    131072 words long.
 Raffenetti 2 integral format.
 Two-electron integral symmetry is turned on.
 One-electron integrals computed using PRISM.
 NBasis=    88 RedAO= T EigKep=  1.42D-03  NBF=    88
 NBsUse=    88 1.00D-06 EigRej= -1.00D+00 NBFU=    88
 Initial guess from the checkpoint file:  "NO3.chk"
 B after Tr=    -0.000000   -0.000000    0.000000
         Rot=    1.000000    0.000000   -0.000000   -0.000334 Ang=  -0.04 deg.
 Keep R1 ints in memory in canonical form, NReq=15004326.
 Requested convergence on RMS density matrix=1.00D-08 within 128 cycles.
 Requested convergence on MAX density matrix=1.00D-06.
 Requested convergence on             energy=1.00D-06.
 No special actions if energy rises.
 SCF Done:  E(RB3LYP) =  -280.457550840     A.U. after    9 cycles
            NFock=  9  Conv=0.54D-09     -V/T= 2.0028
 Calling FoFJK, ICntrl=      2127 FMM=F ISym2X=0 I1Cent= 0 IOpClX= 0 NMat=1 NMatS=1 NMatT=0.
 ***** Axes restored to original set *****
 -------------------------------------------------------------------
 Center     Atomic                   Forces (Hartrees/Bohr)
 Number     Number              X              Y              Z
 -------------------------------------------------------------------
      1        7           0.000151032   -0.000000612   -0.000029946
      2        8           0.000001567    0.000065721    0.000009981
      3        8           0.000001941   -0.000065073    0.000009981
      4        8          -0.000154540   -0.000000036    0.000009983
 -------------------------------------------------------------------
 Cartesian Forces:  Max     0.000154540 RMS     0.000068586

 GradGradGradGradGradGradGradGradGradGradGradGradGradGradGradGradGradGrad
 Berny optimization.
 Using GEDIIS/GDIIS optimizer.
 FormGI is forming the generalized inverse of G from B-inverse, IUseBI=4.
 Internal  Forces:  Max     0.000154540 RMS     0.000070660
 Search for a local minimum.
 Step number   6 out of a maximum of   20
 All quantities printed in internal units (Hartrees-Bohrs-Radians)
 Mixed Optimization -- En-DIIS/RFO-DIIS
 Swapping is turned off.
 Update second derivatives using D2CorX and points    1    2    3    4    5
                                                      6
 DE= -6.88D-06 DEPred=-6.94D-06 R= 9.92D-01
 TightC=F SS=  1.41D+00  RLast= 1.01D-02 DXNew= 3.4265D-01 3.0413D-02
 Trust test= 9.92D-01 RLast= 1.01D-02 DXMaxT set to 2.04D-01
 The second derivative matrix:
                          R1        R2        R3        A1        A2
           R1           0.62469
           R2          -0.07547   0.62542
           R3           0.08122   0.08130   0.50867
           A1           0.06496   0.06491  -0.04541   0.33155
           A2          -0.03227  -0.03225   0.02284  -0.04102   0.27063
           A3          -0.03222  -0.03220   0.02284  -0.04087   0.02055
           D1           0.00092   0.00093   0.00074  -0.00234   0.00120
                          A3        D1
           A3           0.27048
           D1           0.00120   0.13507
 ITU=  1 -1  1  1  1  0
     Eigenvalues ---    0.13502   0.25000   0.27210   0.50205   0.65681
     Eigenvalues ---    0.70053
 En-DIIS/RFO-DIIS/Sim-DIIS IScMMF=       -3 using points:     6    5    4
 RFO step:  Lambda=-7.62523267D-08.
 DidBck=F Rises=F RFO-DIIS coefs:    0.85876    0.04849    0.09275
 Iteration  1 RMS(Cart)=  0.00013687 RMS(Int)=  0.00000060
 Iteration  2 RMS(Cart)=  0.00000000 RMS(Int)=  0.00000060
 Variable       Old X    -DE/DX   Delta X   Delta X   Delta X     New X
                                 (Linear)    (Quad)   (Total)
    R1        2.38102   0.00006  -0.00006   0.00021   0.00015   2.38118
    R2        2.38103   0.00006  -0.00006   0.00021   0.00015   2.38118
    R3        2.38151  -0.00015  -0.00016  -0.00018  -0.00035   2.38116
    A1        2.09432   0.00005  -0.00004   0.00007   0.00003   2.09436
    A2        2.09443  -0.00003   0.00002  -0.00004  -0.00002   2.09441
    A3        2.09443  -0.00003   0.00002  -0.00004  -0.00002   2.09441
    D1       -3.14144  -0.00002  -0.00013  -0.00002  -0.00015   3.14159
         Item               Value     Threshold  Converged?
 Maximum Force            0.000155     0.000450     YES
 RMS     Force            0.000071     0.000300     YES
 Maximum Displacement     0.000239     0.001800     YES
 RMS     Displacement     0.000137     0.001200     YES
 Predicted change in Energy=-3.800642D-08
 Optimization completed.
    -- Stationary point found.
                           ----------------------------
                           !   Optimized Parameters   !
                           ! (Angstroms and Degrees)  !
 --------------------------                            --------------------------
 ! Name  Definition              Value          Derivative Info.                !
 --------------------------------------------------------------------------------
 ! R1    R(1,2)                  1.26           -DE/DX =    0.0001              !
 ! R2    R(1,3)                  1.26           -DE/DX =    0.0001              !
 ! R3    R(1,4)                  1.2602         -DE/DX =   -0.0002              !
 ! A1    A(2,1,3)              119.9959         -DE/DX =    0.0001              !
 ! A2    A(2,1,4)              120.002          -DE/DX =    0.0                 !
 ! A3    A(3,1,4)              120.002          -DE/DX =    0.0                 !
 ! D1    D(2,1,4,3)            180.0087         -DE/DX =    0.0                 !
 --------------------------------------------------------------------------------
 GradGradGradGradGradGradGradGradGradGradGradGradGradGradGradGradGradGrad

                          Input orientation:                          
 ---------------------------------------------------------------------
 Center     Atomic      Atomic             Coordinates (Angstroms)
 Number     Number       Type             X           Y           Z
 ---------------------------------------------------------------------
      1          7           0        0.192238    0.000013    0.000033
      2          8           0       -0.437794    1.091167   -0.000036
      3          8           0       -0.437791   -1.091144   -0.000036
      4          8           0        1.452477    0.000015    0.000004
 ---------------------------------------------------------------------
                    Distance matrix (angstroms):
                    1          2          3          4
     1  N    0.000000
     2  O    1.259984   0.000000
     3  O    1.259985   2.182312   0.000000
     4  O    1.260239   2.182599   2.182600   0.000000
 Stoichiometry    NO3(1-)
 Framework group  C1[X(NO3)]
 Deg. of freedom     6
 Full point group                 C1      NOp   1
 Largest Abelian subgroup         C1      NOp   1
 Largest concise Abelian subgroup C1      NOp   1
                         Standard orientation:                         
 ---------------------------------------------------------------------
 Center     Atomic      Atomic             Coordinates (Angstroms)
 Number     Number       Type             X           Y           Z
 ---------------------------------------------------------------------
      1          7           0       -0.000046   -0.000000   -0.000043
      2          8           0       -0.628967   -1.091796    0.000026
      3          8           0       -0.631186    1.090515    0.000026
      4          8           0        1.260193    0.001281   -0.000014
 ---------------------------------------------------------------------
 Rotational constants (GHZ):          13.2688005          13.2641333           6.6332333

 **********************************************************************

            Population analysis using the SCF density.

 **********************************************************************

 Orbital symmetries:
       Occupied  (A) (A) (A) (A) (A) (A) (A) (A) (A) (A) (A) (A)
                 (A) (A) (A) (A)
       Virtual   (A) (A) (A) (A) (A) (A) (A) (A) (A) (A) (A) (A)
                 (A) (A) (A) (A) (A) (A) (A) (A) (A) (A) (A) (A)
                 (A) (A) (A) (A) (A) (A) (A) (A) (A) (A) (A) (A)
                 (A) (A) (A) (A) (A) (A) (A) (A) (A) (A) (A) (A)
                 (A) (A) (A) (A) (A) (A) (A) (A) (A) (A) (A) (A)
                 (A) (A) (A) (A) (A) (A) (A) (A) (A) (A) (A) (A)
 The electronic state is 1-A.
 Alpha  occ. eigenvalues --  -18.92418 -18.92417 -18.92413 -14.36291  -1.02973
 Alpha  occ. eigenvalues --   -0.81370  -0.81360  -0.39688  -0.33161  -0.30729
 Alpha  occ. eigenvalues --   -0.30729  -0.11615  -0.11612  -0.09523  -0.09519
 Alpha  occ. eigenvalues --   -0.04417
 Alpha virt. eigenvalues --    0.16241   0.20103   0.24125   0.24125   0.27948
 Alpha virt. eigenvalues --    0.34211   0.34658   0.34660   0.36765   0.36765
 Alpha virt. eigenvalues --    0.42278   0.42745   0.43986   0.43986   0.45382
 Alpha virt. eigenvalues --    0.49383   0.57125   0.57127   0.58075   0.58085
 Alpha virt. eigenvalues --    0.93318   1.07341   1.07351   1.11420   1.22759
 Alpha virt. eigenvalues --    1.24306   1.24306   1.25220   1.25224   1.34678
 Alpha virt. eigenvalues --    1.36317   1.36949   1.36950   1.72053   1.85437
 Alpha virt. eigenvalues --    1.85439   1.92247   1.92248   2.41888   2.41921
 Alpha virt. eigenvalues --    2.49073   3.02068   3.02098   3.02104   3.02264
 Alpha virt. eigenvalues --    3.03836   3.03840   3.11435   3.11585   3.53044
 Alpha virt. eigenvalues --    3.53062   3.53693   3.53722   3.79944   3.88533
 Alpha virt. eigenvalues --    3.88559   3.98841   4.64565   4.64583   5.18001
 Alpha virt. eigenvalues --    5.18003   5.20378   5.25459   5.30229   5.30243
 Alpha virt. eigenvalues --    5.54996   6.34432   6.34470  35.47995  50.03313
 Alpha virt. eigenvalues --   50.15097  50.15109
          Condensed to atoms (all electrons):
               1          2          3          4
     1  N    6.690863   0.208278   0.208279   0.208341
     2  O    0.208278   8.614154  -0.297311  -0.297124
     3  O    0.208279  -0.297311   8.614154  -0.297124
     4  O    0.208341  -0.297124  -0.297124   8.614151
 Mulliken charges:
               1
     1  N   -0.315761
     2  O   -0.227997
     3  O   -0.227998
     4  O   -0.228244
 Sum of Mulliken charges =  -1.00000
 Mulliken charges with hydrogens summed into heavy atoms:
               1
     1  N   -0.315761
     2  O   -0.227997
     3  O   -0.227998
     4  O   -0.228244
 Electronic spatial extent (au):  <R**2>=            199.2985
 Charge=             -1.0000 electrons
 Dipole moment (field-independent basis, Debye):
    X=             -0.0015    Y=             -0.0000    Z=             -0.0001  Tot=              0.0016
 Quadrupole moment (field-independent basis, Debye-Ang):
   XX=            -31.0239   YY=            -31.0211   ZZ=            -22.9846
   XY=              0.0000   XZ=              0.0002   YZ=              0.0000
 Traceless Quadrupole moment (field-independent basis, Debye-Ang):
   XX=             -2.6807   YY=             -2.6779   ZZ=              5.3586
   XY=              0.0000   XZ=              0.0002   YZ=              0.0000
 Octapole moment (field-independent basis, Debye-Ang**2):
  XXX=             -3.0610  YYY=              0.0093  ZZZ=              0.0001  XYY=              3.0541
  XXY=             -0.0093  XXZ=              0.0002  XZZ=             -0.0017  YZZ=             -0.0000
  YYZ=              0.0001  XYZ=              0.0000
 Hexadecapole moment (field-independent basis, Debye-Ang**3):
 XXXX=           -122.2587 YYYY=           -122.2195 ZZZZ=            -21.2479 XXXY=              0.0000
 XXXZ=              0.0013 YYYX=              0.0000 YYYZ=              0.0000 ZZZX=              0.0010
 ZZZY=              0.0000 XXYY=            -40.7464 XXZZ=            -23.1585 YYZZ=            -23.1517
 XXYZ=              0.0000 YYXZ=              0.0002 ZZXY=              0.0000
 N-N= 1.171060576637D+02 E-N=-9.045293877615D+02  KE= 2.796861028942D+02
 1\1\GINC-HUSH-MIND\FOpt\RB3LYP\6-311+G(d,p)\N1O3(1-)\HUSH\29-Jul-2026\
 0\\# opt freq b3lyp/6-311+g(d,p)\\NO3\\-1,1\N,0.1922380673,0.000013026
 9,0.0000328307\O,-0.4377943886,1.0911673395,-0.0000356716\O,-0.4377909
 472,-1.0911444621,-0.0000356755\O,1.4524772684,0.0000150957,0.00000351
 63\\Version=ES64L-G16RevA.03\State=1-A\HF=-280.4575508\RMSD=5.397e-10\
 RMSF=6.859e-05\Dipole=-0.0006097,0.0000024,0.0000317\Quadrupole=-1.993
 0503,-1.990963,3.9840133,-0.0000035,-0.000124,0.\PG=C01 [X(N1O3)]\\@


 FRICTION IS A DRAG,
 AND ENTROPY AIN'T WHAT IT USED TO BE.
 Job cpu time:       0 days  0 hours  1 minutes 10.1 seconds.
 Elapsed time:       0 days  0 hours  0 minutes  9.2 seconds.
 File lengths (MBytes):  RWF=     10 Int=      0 D2E=      0 Chk=      2 Scr=      1
 Normal termination of Gaussian 16 at Wed Jul 29 17:12:14 2026.
 Link1:  Proceeding to internal job step number  2.
 ----------------------------------------------------------------------
 #N Geom=AllCheck Guess=TCheck SCRF=Check GenChk RB3LYP/6-311+G(d,p) Fr
 eq
 ----------------------------------------------------------------------
 1/10=4,29=7,30=1,38=1,40=1/1,3;
 2/12=2,40=1/2;
 3/5=4,6=6,7=111,11=2,14=-4,25=1,30=1,70=2,71=2,74=-5,116=1,140=1/1,2,3;
 4/5=101/1;
 5/5=2,38=6,98=1/2;
 8/6=4,10=90,11=11/1;
 11/6=1,8=1,9=11,15=111,16=1/1,2,10;
 10/6=1/2;
 6/7=2,8=2,9=2,10=2,28=1/1;
 7/8=1,10=1,25=1/1,2,3,16;
 1/10=4,30=1/3;
 99//99;
 Structure from the checkpoint file:  "NO3.chk"
 ---
 NO3
 ---
 Charge = -1 Multiplicity = 1
 Redundant internal coordinates found in file.  (old form).
 N,0,0.1922380673,0.0000130269,0.0000328307
 O,0,-0.4377943886,1.0911673395,-0.0000356716
 O,0,-0.4377909472,-1.0911444621,-0.0000356755
 O,0,1.4524772684,0.0000150957,0.0000035163
 Recover connectivity data from disk.

 GradGradGradGradGradGradGradGradGradGradGradGradGradGradGradGradGradGrad
 Berny optimization.
 Initialization pass.
                           ----------------------------
                           !    Initial Parameters    !
                           ! (Angstroms and Degrees)  !
 --------------------------                            --------------------------
 ! Name  Definition              Value          Derivative Info.                !
 --------------------------------------------------------------------------------
 ! R1    R(1,2)                  1.26           calculate D2E/DX2 analytically  !
 ! R2    R(1,3)                  1.26           calculate D2E/DX2 analytically  !
 ! R3    R(1,4)                  1.2602         calculate D2E/DX2 analytically  !
 ! A1    A(2,1,3)              119.9959         calculate D2E/DX2 analytically  !
 ! A2    A(2,1,4)              120.002          calculate D2E/DX2 analytically  !
 ! A3    A(3,1,4)              120.002          calculate D2E/DX2 analytically  !
 ! D1    D(2,1,4,3)           -179.9913         calculate D2E/DX2 analytically  !
 --------------------------------------------------------------------------------
 Trust Radius=3.00D-01 FncErr=1.00D-07 GrdErr=1.00D-07 EigMax=2.50D+02 EigMin=1.00D-04
 Number of steps in this run=      2 maximum allowed number of steps=      2.
 GradGradGradGradGradGradGradGradGradGradGradGradGradGradGradGradGradGrad

                          Input orientation:                          
 ---------------------------------------------------------------------
 Center     Atomic      Atomic             Coordinates (Angstroms)
 Number     Number       Type             X           Y           Z
 ---------------------------------------------------------------------
      1          7           0        0.192238    0.000013    0.000033
      2          8           0       -0.437794    1.091167   -0.000036
      3          8           0       -0.437791   -1.091144   -0.000036
      4          8           0        1.452477    0.000015    0.000004
 ---------------------------------------------------------------------
                    Distance matrix (angstroms):
                    1          2          3          4
     1  N    0.000000
     2  O    1.259984   0.000000
     3  O    1.259985   2.182312   0.000000
     4  O    1.260239   2.182599   2.182600   0.000000
 Stoichiometry    NO3(1-)
 Framework group  C1[X(NO3)]
 Deg. of freedom     6
 Full point group                 C1      NOp   1
 Largest Abelian subgroup         C1      NOp   1
 Largest concise Abelian subgroup C1      NOp   1
                         Standard orientation:                         
 ---------------------------------------------------------------------
 Center     Atomic      Atomic             Coordinates (Angstroms)
 Number     Number       Type             X           Y           Z
 ---------------------------------------------------------------------
      1          7           0       -0.000046   -0.000000   -0.000043
      2          8           0       -0.628967   -1.091796    0.000026
      3          8           0       -0.631186    1.090515    0.000026
      4          8           0        1.260193    0.001281   -0.000014
 ---------------------------------------------------------------------
 Rotational constants (GHZ):          13.2688005          13.2641333           6.6332333
 Standard basis: 6-311+G(d,p) (5D, 7F)
 There are    92 symmetry adapted cartesian basis functions of A   symmetry.
 There are    88 symmetry adapted basis functions of A   symmetry.
    88 basis functions,   144 primitive gaussians,    92 cartesian basis functions
    16 alpha electrons       16 beta electrons
       nuclear repulsion energy       117.1060576637 Hartrees.
 NAtoms=    4 NActive=    4 NUniq=    4 SFac= 1.00D+00 NAtFMM=   60 NAOKFM=F Big=F
 Integral buffers will be    131072 words long.
 Raffenetti 2 integral format.
 Two-electron integral symmetry is turned on.
 One-electron integrals computed using PRISM.
 NBasis=    88 RedAO= T EigKep=  1.42D-03  NBF=    88
 NBsUse=    88 1.00D-06 EigRej= -1.00D+00 NBFU=    88
 Initial guess from the checkpoint file:  "NO3.chk"
 B after Tr=    -0.000000   -0.000000   -0.000000
         Rot=    1.000000   -0.000000   -0.000000   -0.000000 Ang=   0.00 deg.
 Keep R1 ints in memory in canonical form, NReq=15004326.
 Requested convergence on RMS density matrix=1.00D-08 within 128 cycles.
 Requested convergence on MAX density matrix=1.00D-06.
 Requested convergence on             energy=1.00D-06.
 No special actions if energy rises.
 SCF Done:  E(RB3LYP) =  -280.457550840     A.U. after    1 cycles
            NFock=  1  Conv=0.16D-09     -V/T= 2.0028
 DoSCS=F DFT=T ScalE2(SS,OS)=  1.000000  1.000000
 Range of M.O.s used for correlation:     1    88
 NBasis=    88 NAE=    16 NBE=    16 NFC=     0 NFV=     0
 NROrb=     88 NOA=    16 NOB=    16 NVA=    72 NVB=    72

 **** Warning!!: The largest alpha MO coefficient is  0.12145396D+02

 Symmetrizing basis deriv contribution to polar:
 IMax=3 JMax=2 DiffMx= 0.00D+00
 G2DrvN: will do     5 centers at a time, making    1 passes.
 Calling FoFCou, ICntrl=  3107 FMM=F I1Cent=   0 AccDes= 0.00D+00.
 End of G2Drv F.D. properties file   721 does not exist.
 End of G2Drv F.D. properties file   722 does not exist.
 End of G2Drv F.D. properties file   788 does not exist.
          IDoAtm=1111
          Differentiating once with respect to electric field.
                with respect to dipole field.
          Differentiating once with respect to nuclear coordinates.
 Keep R1 ints in memory in canonical form, NReq=14980166.
          There are    15 degrees of freedom in the 1st order CPHF.  IDoFFX=6 NUNeed=     3.
     12 vectors produced by pass  0 Test12= 7.68D-15 6.67D-09 XBig12= 3.71D+01 5.04D+00.
 AX will form    12 AO Fock derivatives at one time.
     12 vectors produced by pass  1 Test12= 7.68D-15 6.67D-09 XBig12= 2.67D+01 1.92D+00.
     12 vectors produced by pass  2 Test12= 7.68D-15 6.67D-09 XBig12= 1.18D-01 1.60D-01.
     12 vectors produced by pass  3 Test12= 7.68D-15 6.67D-09 XBig12= 5.63D-04 7.65D-03.
     12 vectors produced by pass  4 Test12= 7.68D-15 6.67D-09 XBig12= 3.15D-06 4.07D-04.
     12 vectors produced by pass  5 Test12= 7.68D-15 6.67D-09 XBig12= 6.72D-09 2.29D-05.
     11 vectors produced by pass  6 Test12= 7.68D-15 6.67D-09 XBig12= 6.34D-12 9.51D-07.
      3 vectors produced by pass  7 Test12= 7.68D-15 6.67D-09 XBig12= 9.56D-15 2.62D-08.
 InvSVY:  IOpt=1 It=  1 EMax= 1.11D-15
 Solved reduced A of dimension    86 with    12 vectors.
 Isotropic polarizability for W=    0.000000       27.84 Bohr**3.
 End of Minotr F.D. properties file   721 does not exist.
 End of Minotr F.D. properties file   722 does not exist.
 End of Minotr F.D. properties file   788 does not exist.

 **********************************************************************

            Population analysis using the SCF density.

 **********************************************************************

 Orbital symmetries:
       Occupied  (A) (A) (A) (A) (A) (A) (A) (A) (A) (A) (A) (A)
                 (A) (A) (A) (A)
       Virtual   (A) (A) (A) (A) (A) (A) (A) (A) (A) (A) (A) (A)
                 (A) (A) (A) (A) (A) (A) (A) (A) (A) (A) (A) (A)
                 (A) (A) (A) (A) (A) (A) (A) (A) (A) (A) (A) (A)
                 (A) (A) (A) (A) (A) (A) (A) (A) (A) (A) (A) (A)
                 (A) (A) (A) (A) (A) (A) (A) (A) (A) (A) (A) (A)
                 (A) (A) (A) (A) (A) (A) (A) (A) (A) (A) (A) (A)
 The electronic state is 1-A.
 Alpha  occ. eigenvalues --  -18.92418 -18.92417 -18.92413 -14.36291  -1.02973
 Alpha  occ. eigenvalues --   -0.81370  -0.81360  -0.39688  -0.33161  -0.30729
 Alpha  occ. eigenvalues --   -0.30729  -0.11615  -0.11612  -0.09523  -0.09519
 Alpha  occ. eigenvalues --   -0.04417
 Alpha virt. eigenvalues --    0.16241   0.20103   0.24125   0.24125   0.27948
 Alpha virt. eigenvalues --    0.34211   0.34658   0.34660   0.36765   0.36765
 Alpha virt. eigenvalues --    0.42278   0.42745   0.43986   0.43986   0.45382
 Alpha virt. eigenvalues --    0.49383   0.57125   0.57127   0.58075   0.58085
 Alpha virt. eigenvalues --    0.93318   1.07341   1.07351   1.11420   1.22759
 Alpha virt. eigenvalues --    1.24306   1.24306   1.25220   1.25224   1.34678
 Alpha virt. eigenvalues --    1.36317   1.36949   1.36950   1.72053   1.85437
 Alpha virt. eigenvalues --    1.85439   1.92247   1.92248   2.41888   2.41921
 Alpha virt. eigenvalues --    2.49073   3.02068   3.02098   3.02104   3.02264
 Alpha virt. eigenvalues --    3.03836   3.03840   3.11435   3.11585   3.53044
 Alpha virt. eigenvalues --    3.53062   3.53693   3.53722   3.79944   3.88533
 Alpha virt. eigenvalues --    3.88559   3.98841   4.64565   4.64583   5.18001
 Alpha virt. eigenvalues --    5.18003   5.20378   5.25459   5.30229   5.30243
 Alpha virt. eigenvalues --    5.54996   6.34432   6.34470  35.47995  50.03313
 Alpha virt. eigenvalues --   50.15097  50.15109
          Condensed to atoms (all electrons):
               1          2          3          4
     1  N    6.690863   0.208278   0.208279   0.208341
     2  O    0.208278   8.614154  -0.297311  -0.297124
     3  O    0.208279  -0.297311   8.614154  -0.297124
     4  O    0.208341  -0.297124  -0.297124   8.614151
 Mulliken charges:
               1
     1  N   -0.315761
     2  O   -0.227997
     3  O   -0.227998
     4  O   -0.228244
 Sum of Mulliken charges =  -1.00000
 Mulliken charges with hydrogens summed into heavy atoms:
               1
     1  N   -0.315761
     2  O   -0.227997
     3  O   -0.227998
     4  O   -0.228244
 APT charges:
               1
     1  N    1.523696
     2  O   -0.841252
     3  O   -0.841252
     4  O   -0.841192
 Sum of APT charges =  -1.00000
 APT charges with hydrogens summed into heavy atoms:
               1
     1  N    1.523696
     2  O   -0.841252
     3  O   -0.841252
     4  O   -0.841192
 Electronic spatial extent (au):  <R**2>=            199.2985
 Charge=             -1.0000 electrons
 Dipole moment (field-independent basis, Debye):
    X=             -0.0015    Y=             -0.0000    Z=             -0.0001  Tot=              0.0016
 Quadrupole moment (field-independent basis, Debye-Ang):
   XX=            -31.0239   YY=            -31.0211   ZZ=            -22.9846
   XY=              0.0000   XZ=              0.0002   YZ=              0.0000
 Traceless Quadrupole moment (field-independent basis, Debye-Ang):
   XX=             -2.6807   YY=             -2.6779   ZZ=              5.3586
   XY=              0.0000   XZ=              0.0002   YZ=              0.0000
 Octapole moment (field-independent basis, Debye-Ang**2):
  XXX=             -3.0610  YYY=              0.0093  ZZZ=              0.0001  XYY=              3.0541
  XXY=             -0.0093  XXZ=              0.0002  XZZ=             -0.0017  YZZ=             -0.0000
  YYZ=              0.0001  XYZ=              0.0000
 Hexadecapole moment (field-independent basis, Debye-Ang**3):
 XXXX=           -122.2587 YYYY=           -122.2195 ZZZZ=            -21.2479 XXXY=              0.0000
 XXXZ=              0.0013 YYYX=              0.0000 YYYZ=              0.0000 ZZZX=              0.0010
 ZZZY=              0.0000 XXYY=            -40.7464 XXZZ=            -23.1585 YYZZ=            -23.1517
 XXYZ=              0.0000 YYXZ=              0.0002 ZZXY=              0.0000
 N-N= 1.171060576637D+02 E-N=-9.045293877935D+02  KE= 2.796861029070D+02
  Exact polarizability:  33.648  -0.000  33.641  -0.000  -0.000  16.241
 Approx polarizability:  52.825  -0.000  52.812  -0.001  -0.000  19.608
 Calling FoFJK, ICntrl=    100127 FMM=F ISym2X=0 I1Cent= 0 IOpClX= 0 NMat=1 NMatS=1 NMatT=0.
 Full mass-weighted force constant matrix:
 Low frequencies ---   -7.3613    0.0011    0.0017    0.0018    0.8692    8.2506
 Low frequencies ---  709.0464  709.1690  834.7750
 Diagonal vibrational polarizability:
        8.5321341       8.5224965       0.3185689
 Harmonic frequencies (cm**-1), IR intensities (KM/Mole), Raman scattering
 activities (A**4/AMU), depolarization ratios for plane and unpolarized
 incident light, reduced masses (AMU), force constants (mDyne/A),
 and normal coordinates:
                      1                      2                      3
                      A                      A                      A
 Frequencies --    709.0464               709.1690               834.7750
 Red. masses --     15.8549                15.8551                14.4084
 Frc consts  --      4.6964                 4.6981                 5.9157
 IR Inten    --      0.0572                 0.0587                 8.2491
  Atom  AN      X      Y      Z        X      Y      Z        X      Y      Z
     1   7     0.00  -0.27  -0.00    -0.26  -0.00   0.00     0.00   0.00   0.89
     2   8    -0.48  -0.20   0.00     0.35  -0.48  -0.00    -0.00  -0.00  -0.26
     3   8     0.48  -0.20  -0.00     0.35   0.48  -0.00    -0.00   0.00  -0.26
     4   8    -0.00   0.63  -0.00    -0.47   0.00   0.00     0.00   0.00  -0.26
                      4                      5                      6
                      A                      A                      A
 Frequencies --   1065.7989              1377.4560              1378.3815
 Red. masses --     15.9949                14.5238                14.5240
 Frc consts  --     10.7049                16.2362                16.2583
 IR Inten    --      0.0014               601.3377               601.4735
  Atom  AN      X      Y      Z        X      Y      Z        X      Y      Z
     1   7    -0.00  -0.00  -0.00     0.86  -0.00  -0.00     0.00   0.86  -0.00
     2   8    -0.29  -0.50   0.00    -0.17  -0.14   0.00    -0.13  -0.33   0.00
     3   8    -0.29   0.50   0.00    -0.17   0.14   0.00     0.13  -0.33  -0.00
     4   8     0.58   0.00  -0.00    -0.41  -0.00  -0.00    -0.00  -0.09  -0.00

 -------------------
 - Thermochemistry -
 -------------------
 Temperature   298.150 Kelvin.  Pressure   1.00000 Atm.
 Atom     1 has atomic number  7 and mass  14.00307
 Atom     2 has atomic number  8 and mass  15.99491
 Atom     3 has atomic number  8 and mass  15.99491
 Atom     4 has atomic number  8 and mass  15.99491
 Molecular mass:    61.98782 amu.
 Principal axes and moments of inertia in atomic units:
                           1         2         3
     Eigenvalues --   136.01389 136.06175 272.07564
           X            1.00000  -0.00000   0.00002
           Y            0.00000   1.00000   0.00000
           Z           -0.00002  -0.00000   1.00000
 This molecule is an asymmetric top.
 Rotational symmetry number  1.
 Rotational temperatures (Kelvin)      0.63680     0.63658     0.31835
 Rotational constants (GHZ):          13.26880    13.26413     6.63323
 Zero-point vibrational energy      36334.3 (Joules/Mol)
                                    8.68412 (Kcal/Mol)
 Vibrational temperatures:   1020.16  1020.34  1201.06  1533.45  1981.85
          (Kelvin)           1983.18
 
 Zero-point correction=                           0.013839 (Hartree/Particle)
 Thermal correction to Energy=                    0.017003
 Thermal correction to Enthalpy=                  0.017948
 Thermal correction to Gibbs Free Energy=        -0.011659
 Sum of electronic and zero-point Energies=           -280.443712
 Sum of electronic and thermal Energies=              -280.440547
 Sum of electronic and thermal Enthalpies=            -280.439603
 Sum of electronic and thermal Free Energies=         -280.469209
 
                     E (Thermal)             CV                S
                      KCal/Mol        Cal/Mol-Kelvin    Cal/Mol-Kelvin
 Total                   10.670              8.719             62.311
 Electronic               0.000              0.000              0.000
 Translational            0.889              2.981             38.292
 Rotational               0.889              2.981             23.136
 Vibrational              8.892              2.758              0.883
                       Q            Log10(Q)             Ln(Q)
 Total Bot       0.230444D+06          5.362565         12.347763
 Total V=0       0.534646D+12         11.728066         27.004870
 Vib (Bot)       0.472935D-06         -6.325198        -14.564307
 Vib (V=0)       0.109724D+01          0.040302          0.092800
 Electronic      0.100000D+01          0.000000          0.000000
 Translational   0.191829D+08          7.282913         16.769528
 Rotational      0.254010D+05          4.404850         10.142542
 ***** Axes restored to original set *****
 -------------------------------------------------------------------
 Center     Atomic                   Forces (Hartrees/Bohr)
 Number     Number              X              Y              Z
 -------------------------------------------------------------------
      1        7           0.000151032   -0.000000611   -0.000029946
      2        8           0.000001567    0.000065722    0.000009981
      3        8           0.000001941   -0.000065075    0.000009981
      4        8          -0.000154541   -0.000000036    0.000009983
 -------------------------------------------------------------------
 Cartesian Forces:  Max     0.000154541 RMS     0.000068587
 FormGI is forming the generalized inverse of G from B-inverse, IUseBI=4.

 GradGradGradGradGradGradGradGradGradGradGradGradGradGradGradGradGradGrad
 Berny optimization.
 Internal  Forces:  Max     0.000154541 RMS     0.000070661
 Search for a local minimum.
 Step number   1 out of a maximum of    2
 All quantities printed in internal units (Hartrees-Bohrs-Radians)
 Second derivative matrix not updated -- analytic derivatives used.
 The second derivative matrix:
                          R1        R2        R3        A1        A2
           R1           0.50767
           R2           0.09018   0.50767
           R3           0.09008   0.09008   0.50671
           A1           0.02933   0.02933  -0.05853   0.25100
           A2           0.02922  -0.05856   0.02926  -0.12550   0.25092
           A3          -0.05856   0.02922   0.02926  -0.12550  -0.12542
           D1          -0.00001  -0.00001  -0.00001   0.00001  -0.00001
                          A3        D1
           A3           0.25092
           D1          -0.00001   0.13505
 ITU=  0
     Eigenvalues ---    0.13505   0.30658   0.30676   0.48690   0.48707
     Eigenvalues ---    0.68758
 Angle between quadratic step and forces=  16.94 degrees.
 Linear search not attempted -- first point.
 Iteration  1 RMS(Cart)=  0.00014614 RMS(Int)=  0.00000000
 Iteration  2 RMS(Cart)=  0.00000000 RMS(Int)=  0.00000001
 Variable       Old X    -DE/DX   Delta X   Delta X   Delta X     New X
                                 (Linear)    (Quad)   (Total)
    R1        2.38102   0.00006   0.00000   0.00014   0.00014   2.38116
    R2        2.38103   0.00006   0.00000   0.00014   0.00014   2.38116
    R3        2.38151  -0.00015   0.00000  -0.00034  -0.00034   2.38116
    A1        2.09432   0.00005   0.00000   0.00007   0.00007   2.09439
    A2        2.09443  -0.00003   0.00000  -0.00003  -0.00003   2.09440
    A3        2.09443  -0.00003   0.00000  -0.00003  -0.00003   2.09440
    D1       -3.14144  -0.00002   0.00000  -0.00015  -0.00015   3.14159
         Item               Value     Threshold  Converged?
 Maximum Force            0.000155     0.000450     YES
 RMS     Force            0.000071     0.000300     YES
 Maximum Displacement     0.000258     0.001800     YES
 RMS     Displacement     0.000146     0.001200     YES
 Predicted change in Energy=-3.866576D-08
 Optimization completed.
    -- Stationary point found.
                           ----------------------------
                           !   Optimized Parameters   !
                           ! (Angstroms and Degrees)  !
 --------------------------                            --------------------------
 ! Name  Definition              Value          Derivative Info.                !
 --------------------------------------------------------------------------------
 ! R1    R(1,2)                  1.26           -DE/DX =    0.0001              !
 ! R2    R(1,3)                  1.26           -DE/DX =    0.0001              !
 ! R3    R(1,4)                  1.2602         -DE/DX =   -0.0002              !
 ! A1    A(2,1,3)              119.9959         -DE/DX =    0.0001              !
 ! A2    A(2,1,4)              120.002          -DE/DX =    0.0                 !
 ! A3    A(3,1,4)              120.002          -DE/DX =    0.0                 !
 ! D1    D(2,1,4,3)            180.0087         -DE/DX =    0.0                 !
 --------------------------------------------------------------------------------
 GradGradGradGradGradGradGradGradGradGradGradGradGradGradGradGradGradGrad


 ----------------------------------------------------------------------

 Electric dipole moment (input orientation):
 (Debye = 10**-18 statcoulomb cm , SI units = C m)
                  (au)            (Debye)         (10**-30 SI)
   Tot        0.610602D-03      0.155199D-02      0.517690D-02
   x         -0.609778D-03     -0.154990D-02     -0.516991D-02
   y          0.000000D+00      0.000000D+00      0.000000D+00
   z          0.317065D-04      0.805898D-04      0.268818D-03

 Dipole polarizability, Alpha (input orientation).
 (esu units = cm**3 , SI units = C**2 m**2 J**-1)
 Alpha(0;0):
               (au)            (10**-24 esu)      (10**-40 SI)
   iso        0.278436D+02      0.412599D+01      0.459079D+01
   aniso      0.174036D+02      0.257894D+01      0.286946D+01
   xx         0.336481D+02      0.498613D+01      0.554781D+01
   yx         0.000000D+00      0.000000D+00      0.000000D+00
   yy         0.336415D+02      0.498515D+01      0.554673D+01
   zx         0.360807D-03      0.534660D-04      0.594890D-04
   zy         0.000000D+00      0.000000D+00      0.000000D+00
   zz         0.162412D+02      0.240670D+01      0.267781D+01

 ----------------------------------------------------------------------

 Dipole orientation:
     7          0.01893105          0.00138854         -0.36278105
     8         -0.03529557          2.05887033          0.83434172
     8         -0.05078143         -2.06503993          0.81802277
     8          0.14257372          0.01033561         -2.74105936

 Electric dipole moment (dipole orientation):
 (Debye = 10**-18 statcoulomb cm , SI units = C m)
                  (au)            (Debye)         (10**-30 SI)
   Tot        0.610606D-03      0.155201D-02      0.517694D-02
   x          0.000000D+00      0.000000D+00      0.000000D+00
   y          0.000000D+00      0.000000D+00      0.000000D+00
   z          0.610606D-03      0.155201D-02      0.517694D-02

 Dipole polarizability, Alpha (dipole orientation).
 (esu units = cm**3 , SI units = C**2 m**2 J**-1)
 Alpha(0;0):
               (au)            (10**-24 esu)      (10**-40 SI)
   iso        0.278436D+02      0.412599D+01      0.459079D+01
   aniso      0.174036D+02      0.257894D+01      0.286946D+01
   xx         0.162884D+02      0.241370D+01      0.268560D+01
   yx         0.687368D-01      0.101857D-01      0.113332D-01
   yy         0.336412D+02      0.498511D+01      0.554669D+01
   zx        -0.903004D+00     -0.133811D+00     -0.148885D+00
   zy         0.354255D-02      0.524952D-03      0.584088D-03
   zz         0.336011D+02      0.497917D+01      0.554007D+01

 ----------------------------------------------------------------------
 1\1\GINC-HUSH-MIND\Freq\RB3LYP\6-311+G(d,p)\N1O3(1-)\HUSH\29-Jul-2026\
 0\\#N Geom=AllCheck Guess=TCheck SCRF=Check GenChk RB3LYP/6-311+G(d,p)
  Freq\\NO3\\-1,1\N,0.1922380673,0.0000130269,0.0000328307\O,-0.4377943
 886,1.0911673395,-0.0000356716\O,-0.4377909472,-1.0911444621,-0.000035
 6755\O,1.4524772684,0.0000150957,0.0000035163\\Version=ES64L-G16RevA.0
 3\State=1-A\HF=-280.4575508\RMSD=1.623e-10\RMSF=6.859e-05\ZeroPoint=0.
 013839\Thermal=0.0170034\Dipole=-0.0006098,0.0000024,0.0000317\DipoleD
 eriv=2.246973,-0.0000025,0.000045,0.0000008,2.2471575,0.,0.000045,0.,0
 .0769576,-0.8171903,0.4596148,-0.0000031,0.4593941,-1.3476571,-0.00000
 15,-0.0000413,0.0000647,-0.35891,-0.8171873,-0.4596107,-0.0000031,-0.4
 593924,-1.3476568,0.0000015,-0.0000413,-0.0000647,-0.3589111,-1.612595
 5,-0.0000016,-0.0000387,-0.0000024,-0.5518436,0.,0.0000376,0.,-0.35913
 65\Polar=33.6480519,0.0000082,33.6414787,0.0003608,0.,16.2412023\Quadr
 upole=-1.9930504,-1.9909629,3.9840133,-0.0000035,-0.000124,0.\PG=C01 [
 X(N1O3)]\NImag=0\\0.73252778,-0.00000177,0.73340933,0.00000932,0.,0.28
 585813,-0.18988527,0.09456914,-0.00000358,0.22646352,0.09456253,-0.299
 05336,0.00000476,-0.16230838,0.41399263,-0.00000853,0.00001333,-0.0952
 6953,0.00000837,-0.00001086,0.03174142,-0.18988460,-0.09456713,-0.0000
 0358,0.04039863,0.00816920,-0.00000030,0.22646205,-0.09456069,-0.29905
 118,-0.00000476,-0.00816860,-0.11620620,-0.00000303,0.16230594,0.41399
 106,-0.00000853,-0.00001333,-0.09526975,-0.00000030,0.00000303,0.03177
 435,0.00000837,0.00001086,0.03174167,-0.35275791,-0.00000024,-0.000002
 16,-0.07697688,0.05957665,0.00000046,-0.07697608,-0.05957665,0.0000004
 6,0.50671088,-0.00000007,-0.13530479,0.,0.07590785,0.00126693,0.000000
 56,-0.07590801,0.00126632,-0.00000056,0.00000024,0.13277154,0.00000775
 ,0.,-0.09531886,-0.00000449,0.00000308,0.03175376,-0.00000449,-0.00000
 308,0.03175373,0.00000124,0.,0.03181136\\-0.00015103,0.00000061,0.0000
 2995,-0.00000157,-0.00006572,-0.00000998,-0.00000194,0.00006507,-0.000
 00998,0.00015454,0.00000004,-0.00000998\\\@


 Mondays are the potholes in the road of life.
                                -- Tom Wilson
 Job cpu time:       0 days  0 hours  0 minutes 43.1 seconds.
 Elapsed time:       0 days  0 hours  0 minutes  5.4 seconds.
 File lengths (MBytes):  RWF=     10 Int=      0 D2E=      0 Chk=      2 Scr=      1
 Normal termination of Gaussian 16 at Wed Jul 29 17:12:19 2026.
