NO3                                                                     
Freq      RB3LYP                                                      6-311+G(d,p)        
Number of atoms                            I                4
Info1-9                                    I   N=           9
          13          13        1002           0           0         100
           6          18        -502
Full Title                                 C   N=           1
NO3         
Route                                      C   N=           3
# opt freq b3lyp/6-311+g(d,p)       
Charge                                     I               -1
Multiplicity                               I                1
Number of electrons                        I               32
Number of alpha electrons                  I               16
Number of beta electrons                   I               16
Number of basis functions                  I               88
Number of independent functions            I               88
Number of point charges in /Mol/           I                0
Number of translation vectors              I                0
Atomic numbers                             I   N=           4
           7           8           8           8
Nuclear charges                            R   N=           4
  7.00000000E+00  8.00000000E+00  8.00000000E+00  8.00000000E+00
Current cartesian coordinates              R   N=          12
 -8.66735389E-05 -6.28437928E-07 -8.11108721E-05 -1.18857455E+00 -2.06319508E+00
  4.83397060E-05 -1.19276865E+00  2.06077441E+00  4.83470149E-05  2.38141904E+00
  2.42121862E-03 -2.57147078E-05
Number of symbols in /Mol/                 I                0
Force Field                                I                0
Atom Types                                 C   N=           4
                                                
Int Atom Types                             I   N=           4
           0           0           0           0
MM charges                                 R   N=           4
  0.00000000E+00  0.00000000E+00  0.00000000E+00  0.00000000E+00
Integer atomic weights                     I   N=           4
          14          16          16          16
Real atomic weights                        R   N=           4
  1.40030740E+01  1.59949146E+01  1.59949146E+01  1.59949146E+01
Atom fragment info                         I   N=           4
           0           0           0           0
Atom residue num                           I   N=           4
           0           0           0           0
Nuclear spins                              I   N=           4
           2           0           0           0
Nuclear ZEff                               R   N=           4
 -4.55000000E+00 -5.60000000E+00 -5.60000000E+00 -5.60000000E+00
Nuclear ZNuc                               R   N=           4
  7.00000000E+00  8.00000000E+00  8.00000000E+00  8.00000000E+00
Nuclear QMom                               R   N=           4
  2.04400000E+00  0.00000000E+00  0.00000000E+00  0.00000000E+00
Nuclear GFac                               R   N=           4
  4.03761000E-01  0.00000000E+00  0.00000000E+00  0.00000000E+00
MicOpt                                     I   N=           4
          -1          -1          -1          -1
Number of residues                         I                0
Number of secondary structures             I                0
Redundant internal dimensions              I   N=           4
           7           3           3           1
Redundant internal coordinate indices      I   N=          28
           1           2           0           0           1           3
           0           0           1           4           0           0
           2           1           3           0           2           1
           4           0           3           1           4           0
           2           1           4           3
Redundant internal coordinates             R   N=           7
  2.38102390E+00  2.38102584E+00  2.38150694E+00  2.09432419E+00  2.09443073E+00
  2.09443038E+00 -3.14144023E+00
ZRed-IntVec                                I   N=           7
           0           0           0           0           0           0
           0
ZRed-FPVec                                 R   N=           7
  0.00000000E+00  0.00000000E+00  0.00000000E+00  0.00000000E+00  0.00000000E+00
  0.00000000E+00  0.00000000E+00
ZRed-Constraint1                           R   N=           7
  2.38102390E+00  2.38102584E+00  2.38150694E+00  2.09432419E+00  2.09443073E+00
  2.09443038E+00 -3.14144023E+00
ZRed-Constraint2                           R   N=           7
  2.43778536E+00  2.43766073E+00  2.27730897E+00  2.00139667E+00  2.14091679E+00
  2.14087181E+00  3.14126583E+00
SymInf integers                            I   N=          26
           1           1           1           1           1           0
           0           0           0           0           0           0
           0           0           0           0           0           0
           0           0           0           0           0           0
           0           0
RotTr to input orientation                 R   N=          12
  9.99999481E-01  1.01858052E-03  0.00000000E+00  1.01858052E-03 -9.99999481E-01
 -0.00000000E+00 -0.00000000E+00 -0.00000000E+00 -1.00000000E+00  3.63363972E-01
  2.40771283E-05 -1.90698183E-05
Number of contracted shells                I               24
Number of primitive shells                 I               52
Pure/Cartesian d shells                    I                0
Pure/Cartesian f shells                    I                0
Highest angular momentum                   I                2
Largest degree of contraction              I                6
Shell types                                I   N=          24
           0          -1          -1          -1          -1          -2
           0          -1          -1          -1          -1          -2
           0          -1          -1          -1          -1          -2
           0          -1          -1          -1          -1          -2
Number of primitives per shell             I   N=          24
           6           3           1           1           1           1
           6           3           1           1           1           1
           6           3           1           1           1           1
           6           3           1           1           1           1
Shell to atom map                          I   N=          24
           1           1           1           1           1           1
           2           2           2           2           2           2
           3           3           3           3           3           3
           4           4           4           4           4           4
Primitive exponents                        R   N=          52
  6.29348000E+03  9.49044000E+02  2.18776000E+02  6.36916000E+01  1.88282000E+01
  2.72023000E+00  3.06331000E+01  7.02614000E+00  2.11205000E+00  6.84009000E-01
  2.00878000E-01  6.39000000E-02  9.13000000E-01  8.58850000E+03  1.29723000E+03
  2.99296000E+02  8.73771000E+01  2.56789000E+01  3.74004000E+00  4.21175000E+01
  9.62837000E+00  2.85332000E+00  9.05661000E-01  2.55611000E-01  8.45000000E-02
  1.29200000E+00  8.58850000E+03  1.29723000E+03  2.99296000E+02  8.73771000E+01
  2.56789000E+01  3.74004000E+00  4.21175000E+01  9.62837000E+00  2.85332000E+00
  9.05661000E-01  2.55611000E-01  8.45000000E-02  1.29200000E+00  8.58850000E+03
  1.29723000E+03  2.99296000E+02  8.73771000E+01  2.56789000E+01  3.74004000E+00
  4.21175000E+01  9.62837000E+00  2.85332000E+00  9.05661000E-01  2.55611000E-01
  8.45000000E-02  1.29200000E+00
Contraction coefficients                   R   N=          52
  1.96978815E-03  1.49612859E-02  7.35005308E-02  2.48936766E-01  6.02459433E-01
  2.56201759E-01  1.11906080E-01  9.21666655E-01 -2.56919183E-03  1.00000000E+00
  1.00000000E+00  1.00000000E+00  1.00000000E+00  1.89515008E-03  1.43859006E-02
  7.07320031E-02  2.40001011E-01  5.94797026E-01  2.80802012E-01  1.13889012E-01
  9.20811101E-01 -3.27447036E-03  1.00000000E+00  1.00000000E+00  1.00000000E+00
  1.00000000E+00  1.89515008E-03  1.43859006E-02  7.07320031E-02  2.40001011E-01
  5.94797026E-01  2.80802012E-01  1.13889012E-01  9.20811101E-01 -3.27447036E-03
  1.00000000E+00  1.00000000E+00  1.00000000E+00  1.00000000E+00  1.89515008E-03
  1.43859006E-02  7.07320031E-02  2.40001011E-01  5.94797026E-01  2.80802012E-01
  1.13889012E-01  9.20811101E-01 -3.27447036E-03  1.00000000E+00  1.00000000E+00
  1.00000000E+00  1.00000000E+00
P(S=P) Contraction coefficients            R   N=          52
  0.00000000E+00  0.00000000E+00  0.00000000E+00  0.00000000E+00  0.00000000E+00
  0.00000000E+00  3.83119186E-02  2.37403116E-01  8.17592398E-01  1.00000000E+00
  1.00000000E+00  1.00000000E+00  0.00000000E+00  0.00000000E+00  0.00000000E+00
  0.00000000E+00  0.00000000E+00  0.00000000E+00  0.00000000E+00  3.65113974E-02
  2.37152983E-01  8.19701941E-01  1.00000000E+00  1.00000000E+00  1.00000000E+00
  0.00000000E+00  0.00000000E+00  0.00000000E+00  0.00000000E+00  0.00000000E+00
  0.00000000E+00  0.00000000E+00  3.65113974E-02  2.37152983E-01  8.19701941E-01
  1.00000000E+00  1.00000000E+00  1.00000000E+00  0.00000000E+00  0.00000000E+00
  0.00000000E+00  0.00000000E+00  0.00000000E+00  0.00000000E+00  0.00000000E+00
  3.65113974E-02  2.37152983E-01  8.19701941E-01  1.00000000E+00  1.00000000E+00
  1.00000000E+00  0.00000000E+00
Coordinates of each shell                  R   N=          72
 -8.66735389E-05 -6.28437928E-07 -8.11108721E-05 -8.66735389E-05 -6.28437928E-07
 -8.11108721E-05 -8.66735389E-05 -6.28437928E-07 -8.11108721E-05 -8.66735389E-05
 -6.28437928E-07 -8.11108721E-05 -8.66735389E-05 -6.28437928E-07 -8.11108721E-05
 -8.66735389E-05 -6.28437928E-07 -8.11108721E-05 -1.18857455E+00 -2.06319508E+00
  4.83397060E-05 -1.18857455E+00 -2.06319508E+00  4.83397060E-05 -1.18857455E+00
 -2.06319508E+00  4.83397060E-05 -1.18857455E+00 -2.06319508E+00  4.83397060E-05
 -1.18857455E+00 -2.06319508E+00  4.83397060E-05 -1.18857455E+00 -2.06319508E+00
  4.83397060E-05 -1.19276865E+00  2.06077441E+00  4.83470149E-05 -1.19276865E+00
  2.06077441E+00  4.83470149E-05 -1.19276865E+00  2.06077441E+00  4.83470149E-05
 -1.19276865E+00  2.06077441E+00  4.83470149E-05 -1.19276865E+00  2.06077441E+00
  4.83470149E-05 -1.19276865E+00  2.06077441E+00  4.83470149E-05  2.38141904E+00
  2.42121862E-03 -2.57147078E-05  2.38141904E+00  2.42121862E-03 -2.57147078E-05
  2.38141904E+00  2.42121862E-03 -2.57147078E-05  2.38141904E+00  2.42121862E-03
 -2.57147078E-05  2.38141904E+00  2.42121862E-03 -2.57147078E-05  2.38141904E+00
  2.42121862E-03 -2.57147078E-05
Num ILSW                                   I              100
ILSW                                       I   N=         100
           0           0           0           0           2           0
           0           0           0           0         402          -1
           5           0           0           0           2           0
           0           0           1           0           1           0
           1           0           0           0           0           0
           0           0      100000           0          -1           0
           0           0           0           0           0           0
           0           0           0           1           0           0
           0 -2000000000           1           0           0           0
           0           0           4          52           0           0
           0           0           5           0           0           0
           0           0           0           0           0           1
           0           0           0           0           0           0
           0           0           0           0           0           0
           0           0           0           0           0           0
           0           0           0           0           0           0
           0           0           0           0
Num RLSW                                   I               52
RLSW                                       R   N=          52
  8.00000000E-01  7.20000000E-01  1.00000000E+00  8.10000000E-01  2.00000000E-01
  0.00000000E+00  0.00000000E+00  1.00000000E+00  0.00000000E+00  0.00000000E+00
  0.00000000E+00  0.00000000E+00  1.00000000E+00  0.00000000E+00  0.00000000E+00
  0.00000000E+00  0.00000000E+00  1.00000000E+00  0.00000000E+00  0.00000000E+00
  0.00000000E+00  0.00000000E+00  1.00000000E+00  0.00000000E+00  0.00000000E+00
  0.00000000E+00  0.00000000E+00  1.00000000E+00  0.00000000E+00  0.00000000E+00
  0.00000000E+00  0.00000000E+00  1.00000000E+00  0.00000000E+00  0.00000000E+00
  0.00000000E+00  0.00000000E+00  0.00000000E+00  1.00000000E+00  1.00000000E+00
  0.00000000E+00  1.00000000E+00  0.00000000E+00  0.00000000E+00  0.00000000E+00
  0.00000000E+00  0.00000000E+00  0.00000000E+00  0.00000000E+00  0.00000000E+00
  0.00000000E+00  0.00000000E+00
MxBond                                     I                3
NBond                                      I   N=           4
           3           1           1           1
IBond                                      I   N=          12
           2           3           4           1           0           0
           1           0           0           1           0           0
RBond                                      R   N=          12
  1.00000000E+00  1.00000000E+00  2.00000000E+00  1.00000000E+00  0.00000000E+00
  0.00000000E+00  1.00000000E+00  0.00000000E+00  0.00000000E+00  2.00000000E+00
  0.00000000E+00  0.00000000E+00
Virial Ratio                               R      2.002758263370059E+00
SCF Energy                                 R     -2.804575508397984E+02
Total Energy                               R     -2.804575508397984E+02
RMS Force                                  R      6.858689163425429E-05
RMS Density                                R      1.623229341750321E-10
NImag                                      I                0
Job Status                                 I                1
Nuclear derivative order                   I                2
External E-field                           R   N=          35
  0.00000000E+00  0.00000000E+00  0.00000000E+00  0.00000000E+00  0.00000000E+00
  0.00000000E+00  0.00000000E+00  0.00000000E+00  0.00000000E+00  0.00000000E+00
  0.00000000E+00  0.00000000E+00  0.00000000E+00  0.00000000E+00  0.00000000E+00
  0.00000000E+00  0.00000000E+00  0.00000000E+00  0.00000000E+00  0.00000000E+00
  0.00000000E+00  0.00000000E+00  0.00000000E+00  0.00000000E+00  0.00000000E+00
  0.00000000E+00  0.00000000E+00  0.00000000E+00  0.00000000E+00  0.00000000E+00
  0.00000000E+00  0.00000000E+00  0.00000000E+00  0.00000000E+00  0.00000000E+00
IOpCl                                      I                0
IROHF                                      I                0
Alpha Orbital Energies                     R   N=          88
 -1.89241840E+01 -1.89241686E+01 -1.89241250E+01 -1.43629141E+01 -1.02972669E+00
 -8.13697811E-01 -8.13602609E-01 -3.96880537E-01 -3.31612564E-01 -3.07294111E-01
 -3.07293769E-01 -1.16153401E-01 -1.16124409E-01 -9.52318602E-02 -9.51947913E-02
 -4.41725205E-02  1.62408385E-01  2.01030232E-01  2.41250737E-01  2.41252577E-01
  2.79484484E-01  3.42108143E-01  3.46575992E-01  3.46599773E-01  3.67645005E-01
  3.67652525E-01  4.22776801E-01  4.27451107E-01  4.39861670E-01  4.39862215E-01
  4.53821555E-01  4.93826353E-01  5.71247954E-01  5.71274086E-01  5.80750813E-01
  5.80845988E-01  9.33184295E-01  1.07341116E+00  1.07351334E+00  1.11419521E+00
  1.22758548E+00  1.24305928E+00  1.24306473E+00  1.25220454E+00  1.25224055E+00
  1.34678485E+00  1.36316667E+00  1.36949056E+00  1.36950025E+00  1.72053028E+00
  1.85436990E+00  1.85439229E+00  1.92247035E+00  1.92248410E+00  2.41887683E+00
  2.41921404E+00  2.49073377E+00  3.02067636E+00  3.02098266E+00  3.02103671E+00
  3.02264286E+00  3.03835932E+00  3.03839501E+00  3.11434911E+00  3.11585205E+00
  3.53044056E+00  3.53061786E+00  3.53693470E+00  3.53722470E+00  3.79944366E+00
  3.88533413E+00  3.88558609E+00  3.98841073E+00  4.64565347E+00  4.64583363E+00
  5.18001351E+00  5.18002544E+00  5.20377911E+00  5.25459424E+00  5.30228946E+00
  5.30242818E+00  5.54995728E+00  6.34432061E+00  6.34469527E+00  3.54799500E+01
  5.00331320E+01  5.01509661E+01  5.01510916E+01
Alpha MO coefficients                      R   N=        7744
  6.78469746E-08  1.24500201E-07 -1.71137035E-06 -3.77113097E-04  1.12109253E-10
  1.44233773E-06  2.73161848E-06  6.02236092E-04 -1.63179739E-10  1.18518202E-05
 -1.66052132E-05 -3.65672347E-03  1.51624244E-09 -6.19032562E-05  3.37333218E-05
  7.43015688E-03 -3.64383693E-09  6.53149690E-07  8.36911274E-11  4.44290755E-08
  4.61639683E-06 -6.08475102E-04  3.92486324E-01  3.34421403E-01  4.57411601E-04
  8.08689601E-04 -6.60773275E-08  9.71869891E-03  1.58386864E-04  2.00054429E-04
 -2.08894755E-08 -8.33158089E-03 -1.22691266E-03 -9.74424423E-04  1.50869481E-07
  1.08967631E-02  1.62015235E-03  1.44853498E-03 -2.20931478E-07 -6.47902829E-05
  4.18946628E-09 -1.13515028E-08 -1.46142854E-04  9.30126047E-05 -3.87168040E-01
 -3.29889439E-01 -4.52228500E-04  7.96248225E-04  6.50616641E-08 -9.58971345E-03
 -1.59372969E-04  1.99281180E-04  2.10923361E-08  8.22610018E-03  1.23028204E-03
 -9.51949428E-04 -1.50760058E-07 -1.07652042E-02 -1.62161394E-03  1.41626271E-03
  2.20708063E-07  6.41282485E-05 -4.40362901E-09 -1.12922188E-08  1.46676131E-04
  9.20831353E-05 -1.09252792E-03 -9.30659549E-04  2.17141470E-06  1.48213594E-05
  5.63913154E-11 -2.84165110E-05  2.45270321E-06 -7.56101781E-05  2.15873301E-10
  2.69393653E-05 -6.82788791E-06  1.16465190E-03 -1.01631968E-09 -3.84573915E-05
  8.22612335E-06 -1.37485117E-03  1.55847133E-09  2.89229444E-07  4.80178179E-11
 -1.22465972E-08 -7.13847365E-07 -1.61106321E-04  8.22286462E-06  1.50533968E-05
 -3.18087802E-04  2.33919155E-06  1.49941652E-08  1.74767879E-04  5.07476575E-04
 -3.73407856E-06 -2.20088995E-08  1.43613901E-03 -3.08691431E-03  2.26861074E-05
  1.97448049E-07 -7.50132397E-03  6.27251306E-03 -4.61048347E-05 -4.69469782E-07
  7.90407150E-05  1.89902705E-08 -2.95396992E-10  5.13015050E-04  5.33901557E-06
  3.57904516E-01  3.04984327E-01  4.56248392E-04  7.70173987E-04 -6.77548660E-08
  8.69844018E-03 -3.36543354E-05  5.27863047E-05  1.06045786E-08 -7.14853369E-03
  1.73393321E-04 -1.41316309E-03  1.65072500E-08  8.96239208E-03 -5.91158040E-07
  2.02249428E-03 -2.91813837E-08 -4.59563056E-05 -1.72183131E-08 -4.01171493E-09
  6.90403117E-05  1.16781055E-04  3.63411250E-01  3.09676384E-01  4.64249607E-04
 -7.80573246E-04 -6.86837446E-08  8.83481421E-03 -3.13012375E-05 -5.56703104E-05
  1.03080006E-08 -7.26547923E-03  1.53150015E-04  1.42709987E-03  1.86426300E-08
  9.11539560E-03  2.64418982E-05 -2.04270354E-03 -3.23081903E-08 -4.68659428E-05
 -1.71662115E-08  4.13658575E-09  6.74500545E-05 -1.17809266E-04 -2.09246776E-01
 -1.78261630E-01  4.46789371E-04  3.49670618E-07  1.41256114E-08 -5.34666524E-03
  3.37394853E-04  8.77252758E-07  2.86287379E-08  4.89661297E-03 -9.69341703E-04
 -9.21176958E-06 -1.42192753E-07 -6.79588780E-03  1.23186662E-03  1.09642946E-05
  2.17688949E-07  4.77019235E-05  4.17946153E-09  9.08570721E-11 -1.56304061E-04
  8.19896876E-07  1.29536306E-05  2.34336987E-05  2.01871972E-04  4.90067584E-07
  9.01002659E-09  2.75201737E-04 -3.21601645E-04 -7.81511350E-07 -1.13147757E-08
  2.25965948E-03  1.96055753E-03  4.75605432E-06  1.69335066E-07 -1.18057704E-02
 -3.98671633E-03 -9.66975231E-06 -4.51717744E-07  1.23722544E-04 -5.78740935E-09
 -3.92340860E-11 -3.25472259E-04 -2.02780373E-07  1.47670928E-01  1.25869612E-01
  2.06318412E-04  3.71920941E-04 -3.61551389E-08  3.39731807E-03 -8.09121578E-05
 -2.10751673E-04  3.61396681E-08 -2.42334352E-03 -5.91768667E-04  5.58791334E-05
 -8.98287698E-08  2.55623754E-03  8.38479185E-04  1.76297667E-04  1.36462101E-07
 -3.61578540E-06  3.61542356E-09 -7.42274497E-09 -3.51823924E-05 -8.83763349E-05
  1.48260018E-01  1.26371551E-01  2.07762599E-04 -3.72712322E-04 -3.62554923E-08
  3.41190686E-03 -8.11002484E-05  2.10285747E-04  3.61086939E-08 -2.43585420E-03
 -5.93511454E-04 -5.56288492E-05 -8.96009614E-08  2.57260738E-03  8.41287739E-04
 -1.76754790E-04  1.36127526E-07 -3.71286238E-06  3.60711869E-09  7.44729094E-09
 -3.57622297E-05  8.80924978E-05  5.10061329E-01  4.34647378E-01 -1.28251666E-03
 -1.31546145E-06 -5.74468647E-08  1.23713133E-02 -1.04871158E-05  4.64965640E-08
  1.82668664E-08 -1.01194959E-02  1.59324947E-03  7.40208170E-07 -1.85985813E-08
  1.26271551E-02 -2.47864206E-03 -1.48144191E-06  3.10904116E-08 -6.32172231E-05
  8.37293902E-09  1.78095165E-11  8.31231295E-05  2.90775651E-07  5.57549990E-01
  4.65873481E-01 -2.42269645E-07 -1.25668930E-09  2.19131016E-08  1.40992269E-02
 -1.65472068E-06 -7.19696317E-09  1.10325544E-07 -9.28156933E-03 -1.58444692E-07
 -8.27790844E-10 -1.69654004E-07 -7.39766424E-03  9.00160460E-07  7.35514826E-09
 -2.19437399E-07 -5.84511594E-04 -2.10638444E-08 -2.00331786E-11 -9.57844507E-07
  1.79465995E-09 -2.60879217E-05 -2.08561304E-05  1.41280856E-04  2.45234209E-04
 -1.43392151E-08  3.38274280E-04 -3.05177256E-04 -5.29686463E-04  3.06921251E-08
 -5.20076946E-04  6.78126971E-05  1.17457003E-04  2.30133755E-08  4.11815280E-03
  7.77142296E-04  1.34898622E-03 -4.58722115E-08  3.20626193E-04  3.31597654E-08
  5.50022877E-08  2.42994626E-04 -4.19028949E-04 -2.60877412E-05 -2.08563909E-05
  1.41778418E-04 -2.44944771E-04 -1.43399831E-08  3.38274548E-04 -3.06250320E-04
  5.29058233E-04  3.06936027E-08 -5.20067306E-04  6.80527924E-05 -1.17319990E-04
  2.30127427E-08  4.11812580E-03  7.79879829E-04 -1.34739751E-03 -4.58764433E-08
  3.20624176E-04  3.32728502E-08 -5.49371921E-08  2.41286499E-04  4.20010826E-04
 -2.60432728E-05 -2.09222196E-05 -2.82577398E-04 -2.87273992E-07 -5.52674035E-09
  3.38371101E-04  6.09534956E-04  6.19560579E-07  1.16375097E-08 -5.17920474E-04
 -1.36126825E-04 -1.37805703E-07  2.72047801E-08  4.11321723E-03 -1.55529720E-03
 -1.58238048E-06  2.57651682E-09  3.20130006E-04 -3.18311970E-08 -3.24741839E-11
 -4.83534704E-04 -9.83262130E-07 -9.48345414E-02 -1.49417322E-01 -8.83444276E-05
 -3.82872760E-07  5.40614062E-06  4.34168551E-01 -1.21011081E-04 -5.22694841E-07
  8.37851710E-06  2.00763816E-01 -2.07730552E-05 -7.03286542E-08  1.10305501E-06
  1.29357899E-01 -2.41798347E-05 -1.14099580E-07  4.77724554E-06 -1.85575878E-02
 -6.68008369E-07 -6.29273276E-10 -1.24711547E-05  2.68689889E-08 -4.75467975E-02
 -7.57574170E-02  2.34777569E-02  4.07682157E-02 -2.16051454E-06  2.17526751E-01
  3.70867810E-02  6.43982914E-02 -3.52662822E-06  1.32261635E-01  1.00328280E-02
  1.74244212E-02 -6.14224843E-07 -6.57805350E-02 -9.98805795E-03 -1.73428617E-02
 -6.77325033E-08 -5.73314190E-03 -4.99177869E-07 -9.08907891E-07 -5.57129358E-03
  9.60198596E-03 -4.75465230E-02 -7.57569806E-02  2.35604556E-02 -4.07201591E-02
 -2.16064116E-06  2.17525495E-01  3.72174411E-02 -6.43224207E-02 -3.52683186E-06
  1.32260878E-01  1.00681606E-02 -1.74038935E-02 -6.14276337E-07 -6.57801670E-02
 -1.00232461E-02  1.73224494E-02 -6.76781878E-08 -5.73311876E-03 -5.01055840E-07
  9.07940429E-07 -5.53217853E-03 -9.62451685E-03 -4.74784132E-02 -7.56487003E-02
 -4.69756595E-02 -4.77903562E-05 -6.95584707E-07  2.17213532E-01 -7.42165667E-02
 -7.55070013E-05 -1.21275782E-06  1.32081402E-01 -2.00808395E-02 -2.04288731E-05
  1.18105561E-08 -6.56910230E-02  1.99915256E-02  2.03356185E-05 -6.90915443E-07
 -5.72731526E-03  3.81951553E-07  3.86499357E-10  1.10884774E-02  2.25616548E-05
  2.15443845E-07  3.48267937E-07 -1.75197579E-04 -1.43371363E-01  6.39741091E-09
 -1.01152022E-06 -2.65829927E-04 -2.17532839E-01  9.70188673E-09 -8.38143776E-07
 -6.24912798E-05 -5.11508261E-02  2.27554100E-09 -5.14742936E-07 -8.60161634E-05
 -7.03730758E-02  3.11820347E-09  4.10050712E-08 -1.51751543E-09 -3.24349284E-06
 -1.10411414E-04  2.58458740E-02 -7.87839977E-02 -1.26062481E-01  3.21889320E-02
  4.06364629E-02 -3.46920475E-06  3.68121285E-01  4.92236760E-02  6.27970156E-02
 -5.35789734E-06  2.70015536E-01  2.05951131E-02  2.39016185E-02 -2.35467409E-06
 -1.02544346E-01 -1.85309362E-02 -1.99314491E-02  2.56754326E-06 -4.68111874E-03
 -7.74205724E-07 -1.16569939E-06 -2.87378058E-03  1.03911934E-02  7.85808932E-02
  1.25737493E-01 -3.22565231E-02  4.04268475E-02  3.46181075E-06 -3.67172274E-01
 -4.93254677E-02  6.24765319E-02  5.34640042E-06 -2.69319392E-01 -2.06435022E-02
  2.37674671E-02  2.34977891E-06  1.02280065E-01  1.85783842E-02 -1.98108140E-02
 -2.56211594E-06  4.66906154E-03  7.76034830E-07 -1.16091980E-06  2.79970544E-03
  1.03900649E-02  2.03564157E-04  3.25723434E-04  1.48010548E-04 -1.52616526E-02
  4.45818894E-09 -9.51156100E-04  2.27178912E-04 -2.26825364E-02  6.92590052E-09
 -6.97694284E-04  9.21618436E-05 -1.18716231E-02  3.29431367E-09  2.65016568E-04
 -8.10480316E-05  1.22618683E-02 -4.18956972E-09  1.21025745E-05 -2.07508565E-09
  9.20050761E-08 -3.80865681E-05  5.47071722E-03 -3.84664214E-05 -6.21445576E-05
  1.43340874E-01 -1.75179391E-04 -2.97116285E-06  1.80658080E-04  2.17509144E-01
 -2.65815965E-04 -4.50758361E-06  1.46734559E-04  5.11718617E-02 -6.24887494E-05
 -1.05983079E-06  8.72017032E-05  7.03997532E-02 -8.59961609E-05 -1.45535849E-06
 -7.16011258E-06  2.17163898E-06 -5.09811267E-09  2.58314587E-02  1.10381037E-04
  4.52244461E-02  7.23638771E-02 -3.20844069E-03 -3.21119314E-02  1.67494648E-06
 -2.11314986E-01 -5.56214685E-03 -4.91027977E-02  2.60517336E-06 -1.55010791E-01
  4.97510819E-05 -2.05549357E-02  1.10585502E-06  5.88634283E-02 -1.62280965E-03
  1.84971903E-02 -1.22142002E-06  2.68571283E-03  1.25564916E-07  7.21840269E-07
  7.10963725E-03 -2.79531526E-03  4.55767734E-02  7.29276380E-02 -3.41821463E-03
  3.22866037E-02  1.69057290E-06 -2.12961261E-01 -5.88294165E-03  4.93715356E-02
  2.62930633E-06 -1.56218451E-01 -8.45119578E-05  2.06616152E-02  1.11646056E-06
  5.93219830E-02 -1.50199402E-03 -1.85893443E-02 -1.23297168E-06  2.70664299E-03
  1.30518903E-07 -7.26828754E-07  7.11079833E-03  2.87076073E-03 -9.08821631E-02
 -1.45421136E-01 -5.91332811E-02 -9.43135382E-05 -2.00262259E-06  4.24654807E-01
 -9.10983515E-02 -1.43445681E-04 -3.11009591E-06  3.11504682E-01 -3.57444563E-02
 -6.29359716E-05 -1.48049306E-06 -1.18309626E-01  3.06073052E-02  5.85788703E-05
  1.88286305E-06 -5.40018933E-03  8.88896566E-07  1.10522475E-09  1.20312496E-02
  3.67202507E-05 -7.09676229E-02 -1.14642928E-01  5.03278078E-06 -1.46267209E-08
 -1.22387375E-05  3.68248876E-01  4.83005305E-06 -3.64653846E-08 -1.82700512E-05
  3.62687161E-01 -1.38721883E-06 -2.76788732E-08 -1.05608569E-05  6.64488413E-03
  1.87084320E-05  5.52373943E-08 -4.45365824E-06 -1.27805070E-03 -4.47557728E-08
 -3.84185916E-11 -2.68360946E-06  2.86290910E-09  5.41119277E-02  8.75217715E-02
  4.55703068E-02  7.90947685E-02 -9.55931819E-06 -2.60065946E-01  6.42783970E-02
  1.11564543E-01 -1.39323117E-05 -3.03521217E-01  2.99008586E-02  5.18872148E-02
 -8.19548605E-06 -4.55344909E-02  1.90375328E-03  3.31080328E-03  1.39488011E-06
 -5.13058981E-03 -9.46589136E-07 -1.62605508E-06 -4.21806326E-03  7.27476168E-03
  5.41118553E-02  8.75216524E-02  4.57309164E-02 -7.90016759E-02 -9.55956155E-06
 -2.60065600E-01  6.45049552E-02 -1.11433255E-01 -1.39326548E-05 -3.03520613E-01
  3.00062287E-02 -5.18261201E-02 -8.19564127E-06 -4.55344467E-02  1.91046861E-03
 -3.30691909E-03  1.39487197E-06 -5.13057581E-03 -9.49916192E-07  1.62416771E-06
 -4.18843118E-03 -7.29183886E-03  5.40993770E-02  8.75010440E-02 -9.12254599E-02
 -9.27593848E-05 -6.71427995E-06 -2.60007104E-01 -1.28682372E-01 -1.30844399E-04
 -9.91918155E-06 -3.03399448E-01 -5.98501511E-02 -6.08440116E-05 -6.32775800E-06
 -4.55444382E-02 -3.81388385E-03 -3.88119732E-06  1.51413844E-06 -5.12793448E-03
  1.34251762E-06  1.36632461E-09  8.40515324E-03  1.70945605E-05 -4.06675255E-07
 -6.75976759E-07  4.64189548E-06  4.31816693E-09  2.23903042E-01  2.87508822E-06
  7.22041281E-06  6.71537784E-09  3.48270365E-01  1.06780389E-05  4.89737705E-06
  4.58182359E-09  2.35956133E-01  1.51777236E-05  8.69307009E-07  8.28947220E-10
  4.11701032E-02  2.93843896E-06 -2.48004488E-05 -1.07295637E-07  1.88483888E-10
 -3.92781654E-12  2.97620410E-06  4.79970766E-06  8.71888548E-06  1.14400952E-05
  1.02747463E-01 -1.38382130E-05  1.28337798E-05  1.67417230E-05  1.53937779E-01
 -2.15815150E-05  6.65153607E-06  7.80724891E-06  1.04012761E-01 -1.14301009E-05
 -2.17869160E-07 -1.39424423E-07 -6.45233160E-03 -2.19102167E-06  9.01504018E-03
  1.56511477E-02 -6.11298792E-07  1.70031457E-06  2.97619768E-06  4.79969729E-06
  8.74209090E-06 -1.14226517E-05  1.02747040E-01 -1.38381840E-05  1.28677387E-05
 -1.67160597E-05  1.53937149E-01 -2.15814721E-05  6.66735610E-06 -7.79402262E-06
  1.04012304E-01 -1.14301078E-05 -2.18160653E-07  1.39005299E-07 -6.45235142E-03
 -2.19110720E-06  9.04681293E-03 -1.56327268E-02 -6.04431512E-07 -1.70281142E-06
  2.97509771E-06  4.79790907E-06 -1.10589258E-05 -1.14304569E-08  1.02646272E-01
 -1.38330805E-05 -1.61110469E-05 -1.66597853E-08  1.53787330E-01 -2.15723966E-05
 -6.83841205E-06 -7.14378370E-09  1.03903920E-01 -1.14505482E-05  3.12541227E-08
  3.63449602E-11 -6.45798595E-03 -1.21670188E-06 -1.80457844E-02 -1.83544927E-05
  1.21461367E-06  2.50290265E-09 -5.21849637E-07 -8.58511605E-07  5.09037410E-03
  1.73162621E-01 -1.08856032E-07  2.36750468E-06  7.98112588E-03  2.71490340E-01
 -1.70655430E-07  3.61200029E-06  5.88818113E-03  2.00246681E-01 -1.25873291E-07
  1.83082617E-06  6.55903273E-04  2.22511925E-02 -1.39584552E-08  1.00339866E-07
  4.89576933E-08  1.53382126E-06 -9.90678942E-05  3.02415622E-03 -4.43495679E-02
 -7.18194090E-02 -1.02242249E-01 -1.05010580E-01  9.92908893E-06  2.10703331E-01
 -1.47824327E-01 -1.49519682E-01  1.46471826E-05  3.01975469E-01 -8.12379246E-02
 -7.45395129E-02  7.36762026E-06  1.12427619E-01 -2.14917597E-03  3.18025685E-03
 -3.43733452E-07  7.63293269E-03  1.21909528E-06  1.36112723E-06  6.88760184E-04
 -1.21439995E-02  4.28194288E-02  6.93415094E-02  1.03484636E-01 -9.85448183E-02
 -9.68144796E-06 -2.03433687E-01  1.49761235E-01 -1.40167014E-01 -1.42820732E-05
 -2.91555578E-01  8.27682224E-02 -6.93850552E-02 -7.20048130E-06 -1.08547543E-01
  2.50337648E-03  3.32623936E-03  3.22800225E-07 -7.36952495E-03 -1.22911540E-06
  1.29983537E-06  7.73235964E-05 -1.21266944E-02  1.53085833E-03  2.47905424E-03
 -4.97761842E-03  7.63130299E-02 -1.67479531E-07 -7.27319548E-03 -7.13067863E-03
  1.12763024E-01 -2.53639289E-07 -1.04217027E-02 -3.69809190E-03  6.99997819E-02
 -1.20537174E-07 -3.88254119E-03  5.13064586E-05  7.27932284E-03  1.22493158E-08
 -2.63354085E-04  3.27571656E-08 -3.44596219E-07  3.97951534E-04 -1.15942971E-02
  1.51246671E-05  2.48935627E-05 -1.73166235E-01  5.09028473E-03  3.58944850E-06
 -6.85494560E-05 -2.71505385E-01  7.98072726E-03  5.62730959E-06 -1.04443834E-04
 -2.00307140E-01  5.88648501E-03  4.15082295E-06 -5.41756722E-05 -2.23159632E-02
  6.54133191E-04  4.60405189E-07 -3.03961515E-06 -1.66096274E-06  4.49537114E-08
  3.05674052E-03  9.82539539E-05  2.38310379E-02  3.85918478E-02 -2.02568200E-02
  9.97430426E-02 -3.77815466E-06 -1.13220754E-01 -3.16789430E-02  1.44347888E-01
 -5.56982495E-06 -1.62280330E-01 -2.53324496E-02  7.97842092E-02 -2.52969687E-06
 -6.04331969E-02 -6.00474078E-03  2.41373951E-03  3.34329436E-07 -4.10217902E-03
  1.57802310E-07 -9.26757438E-07 -1.17739920E-02 -8.84918688E-05  2.64821644E-02
  4.28850647E-02 -1.37903777E-02 -1.05968243E-01 -4.37493216E-06 -1.25816182E-01
 -2.23251659E-02 -1.53212846E-01 -6.45017538E-06 -1.80331656E-01 -2.01773228E-02
 -8.42074879E-02 -2.97304281E-06 -6.71539956E-02 -5.85854593E-03 -2.22789509E-03
  3.54598183E-07 -4.55845182E-03  8.13720318E-08  1.00799505E-06 -1.17913038E-02
 -6.97645018E-04 -5.03332718E-02 -8.15091037E-02  1.61105725E-01  2.48501678E-03
  5.51118282E-06  2.39135998E-01  2.30676719E-01  3.66443796E-03  8.34624920E-06
  3.42658543E-01  1.19246306E-01  2.25039772E-03  3.96732887E-06  1.27658301E-01
 -1.93044615E-03  2.19405088E-04 -4.02453808E-07  8.65893127E-03 -1.06620148E-06
 -1.15706837E-08 -1.23081426E-02 -3.77690918E-04  3.13840994E-06  5.51140845E-06
 -4.11894666E-02  7.19381120E-06  8.60608103E-07 -1.00843904E-05 -6.76878834E-02
  1.18325210E-05  1.41298048E-06 -1.02311108E-04  9.80936853E-02 -1.69496755E-05
 -2.02231877E-06 -1.59241196E-05  1.84084118E-01 -3.18231257E-05 -3.80967793E-06
  5.46217345E-07  7.13660942E-06  1.82436882E-09 -5.96632116E-02 -1.92376528E-04
 -1.00191698E-03 -1.66532396E-03  1.92566439E-01 -4.86204699E-02 -2.10665939E-05
  8.09820256E-03  2.79048688E-01 -7.15636240E-02 -3.05063586E-05  2.75971371E-02
  2.52962792E-01 -5.27603100E-02 -2.95764563E-05  1.05264254E-01  4.45062871E-02
  1.19399149E-02 -9.55371669E-06 -8.87483897E-04 -1.14185139E-06 -1.14274042E-06
  7.88969809E-03  8.64742152E-03 -1.00602954E-03 -1.67216138E-03  1.92351225E-01
  4.86868491E-02 -2.11344932E-05  8.13153541E-03  2.78731921E-01  7.16628381E-02
 -3.06046075E-05  2.77109220E-02  2.52729113E-01  5.28169552E-02 -2.96740828E-05
  1.05698814E-01  4.45590118E-02 -1.19883920E-02 -9.58997111E-06 -8.91159629E-04
 -1.14620645E-06  1.14540298E-06  7.90421285E-03 -8.62023359E-03  1.99375802E-03
  3.31458801E-03  1.08243985E-01 -1.52162247E-04  3.19868366E-05 -1.61546578E-02
  1.54938123E-01 -2.23197157E-04  4.63497806E-05 -5.51911727E-02  1.61482767E-01
 -1.72643409E-04  4.54276278E-05 -2.10932330E-01  6.52875052E-02  2.16446508E-05
  1.59411271E-05  1.78207728E-03 -2.41109057E-06 -2.29832811E-09 -7.06051620E-03
  9.50296316E-07  1.86259199E-08  3.27395652E-08 -7.11762278E-06 -4.11449059E-02
  9.74809087E-10 -7.86793632E-08 -1.17065776E-05 -6.76070172E-02  1.59394300E-09
 -4.96655499E-07  1.72257253E-05  9.82255745E-02 -2.19467300E-09  1.54616573E-08
  3.20693991E-05  1.84123464E-01 -4.19428270E-09 -1.25685541E-09  3.87474501E-09
  4.68198977E-06 -1.92325222E-04  5.96506234E-02 -1.74141979E-03 -2.89429193E-03
 -4.86216650E-02  1.36179476E-01 -2.87343620E-05  1.40661607E-02 -7.15699379E-02
  1.96049989E-01 -4.15799788E-05  4.79599593E-02 -5.27435627E-02  1.91805132E-01
 -4.12874826E-05  1.82942707E-01  1.19582603E-02  5.84101970E-02 -1.52683332E-05
 -1.54001111E-03 -8.43655674E-07 -2.11291212E-06 -8.63058565E-03  2.06158848E-03
  1.73897796E-03  2.89023629E-03  4.88027794E-02  1.36394634E-01  2.86844681E-05
 -1.40465792E-02  7.18349826E-02  1.96366715E-01  4.15077224E-05 -4.78936284E-02
  5.29553167E-02  1.92038519E-01  4.12174180E-05 -1.82691139E-01 -1.19708850E-02
  5.83574521E-02  1.52456847E-05  1.53791080E-03  8.45229310E-07 -2.10850494E-06
  8.64099320E-03  2.07616284E-03  2.37752832E-06  3.95305029E-06 -9.55038461E-05
  2.20532352E-01  3.86399705E-08 -1.92574118E-05 -1.41324635E-04  3.20209927E-01
  5.59910820E-08 -6.57541123E-05 -9.59188202E-05  2.83290802E-01  5.48229137E-08
 -2.51587198E-04  3.95537827E-05  3.76356512E-02  1.90923994E-08  2.11874058E-06
 -2.78042088E-09 -1.23185887E-07  1.78005402E-05 -1.28806893E-02 -1.55226658E-12
 -2.26974867E-12 -6.46029329E-09 -4.73401009E-06 -2.02692851E-07  1.74855951E-11
 -1.21285413E-08 -8.88523084E-06 -3.25890739E-07 -1.44222715E-10  4.22156854E-08
  3.09390159E-05 -4.99544943E-07 -9.20430249E-11  8.77089893E-08  6.42741302E-05
 -2.40752401E-07  3.98778822E-09 -6.59483279E-05 -4.83041923E-02 -2.52589020E-08
  4.62237829E-06 -7.28603452E-07 -1.19771881E-06  5.60378324E-06  2.73663168E-05
  2.16133446E-01  4.31683360E-06  7.66802282E-06  3.93590373E-05  3.15476090E-01
  1.59367152E-05  1.34132386E-05  4.21279332E-05  3.01347983E-01  6.06017255E-05
  1.11322777E-05  1.20946801E-05  8.71290111E-02 -1.80661562E-06  8.12461186E-03
  1.20001414E-02 -1.10558867E-06  1.27716910E-06  7.26595735E-07  1.19441889E-06
 -5.52289249E-06  2.73505988E-05 -2.15540224E-01 -4.30494801E-06 -7.54873058E-06
  3.93395794E-05 -3.14610193E-01 -1.58928291E-05 -1.33204897E-05  4.20678473E-05
 -3.00520740E-01 -6.04352185E-05 -1.11457621E-05  1.20279110E-05 -8.68897286E-02
  1.80209208E-06 -8.13666068E-03  1.19449103E-02  1.10279966E-06  1.27483026E-06
  1.99622706E-09  3.28177827E-09  2.84677915E-08  2.54622976E-05 -5.93922861E-04
 -1.18326003E-08  3.91537472E-08  3.74674560E-05 -8.66899275E-04 -4.37011588E-08
  6.26589804E-08  2.97393869E-05 -8.28019341E-04 -1.66354116E-07  4.07831169E-08
 -4.10638241E-06 -2.39358602E-04  2.72877423E-09  4.18647878E-05 -2.10846082E-03
 -8.98293057E-10 -1.21966854E-06  2.66011664E-10  3.81587618E-10  4.72235817E-06
 -6.45543208E-09  3.21587664E-05 -2.82940679E-09  8.86881789E-06 -1.21195844E-08
  5.17445556E-05  2.36968585E-08 -3.09011865E-05  4.21804511E-08  8.15758113E-05
  1.34528688E-08 -6.42120499E-05  8.75812491E-08  3.77360860E-05 -1.73491382E-06
  4.82936675E-02 -6.59382522E-05  6.60515415E-06  2.43249247E-08  4.17952187E-07
  6.87021392E-07 -2.85903350E-05 -1.07142540E-06 -1.24056348E-01 -2.47499214E-06
 -4.17408851E-05 -1.05345562E-06 -1.81075451E-01 -9.14754382E-06 -3.73265677E-05
 -7.09096490E-06 -1.72980342E-01 -3.47628278E-05 -2.26899617E-06 -9.30318142E-06
 -5.00326747E-02  9.60842655E-07 -2.55472477E-03 -8.10001693E-03 -4.91942981E-07
 -1.43563584E-06  4.21413155E-07  6.92710942E-07 -2.86191044E-05  1.14391933E-06
 -1.25084645E-01 -2.49549813E-06 -4.17793983E-05  1.15648133E-06 -1.82576376E-01
 -9.22325836E-06 -3.74047799E-05  7.21596731E-06 -1.74414076E-01 -3.50506839E-05
 -2.34100467E-06  9.35608488E-06 -5.04473018E-02  9.69486015E-07 -2.60998084E-03
  8.15179573E-03 -4.92506374E-07  1.43971814E-06 -8.37465708E-07 -1.37673362E-06
 -2.27888350E-05  3.68554957E-08  2.49262031E-01  4.96190637E-06 -3.23857246E-05
  5.54062179E-08  3.63825114E-01  1.83383090E-05 -3.89598780E-05  3.03734595E-08
  3.47529117E-01  6.97901738E-05 -1.53495460E-05 -2.55820130E-08  1.00497208E-01
 -1.14744672E-06 -1.66663656E-02 -2.19751076E-05  1.41504524E-06  1.32868683E-11
  1.38786147E-09  2.79630846E-09  3.04172731E-08 -9.73208173E-07  3.77881657E-14
 -1.76145527E-08  3.52636634E-08 -1.36554593E-06  3.88363766E-13 -2.80181579E-08
 -2.30304350E-07  5.38163177E-05  3.00275102E-12 -1.66115802E-07 -4.20954243E-07
  4.41661967E-05 -2.45052824E-11 -9.77358412E-10  5.84243595E-13  2.21631570E-10
  2.67630714E-08  1.89052508E-06 -1.25858998E-07 -7.15570504E-08  1.64491389E-01
 -9.47634903E-02 -3.40927682E-06 -1.23262491E-06  2.41966617E-01 -1.39399361E-01
 -5.01483876E-06  2.04231855E-05  2.27545940E-01 -1.31072859E-01 -4.71720008E-06
  4.78343816E-05  7.22265136E-02 -4.16018133E-02 -1.49829962E-06  4.42042845E-07
 -7.87227885E-07  2.35483205E-07  9.10197225E-03  5.27843689E-03  1.37769969E-07
  9.13165062E-08 -1.64298866E-01 -9.50980606E-02  3.40894431E-06  1.16158967E-06
 -2.41683384E-01 -1.39891485E-01  5.01435091E-06 -2.05581668E-05 -2.27279598E-01
 -1.31535641E-01  4.71674144E-06 -4.80762930E-05 -7.21419321E-02 -4.17486613E-02
  1.49818406E-06 -4.43693987E-07  7.86766303E-07  2.37115957E-07 -9.12337142E-03
  5.24138931E-03 -1.02389583E-08 -1.64343479E-08 -1.93168902E-04  1.89921233E-01
  3.44836080E-10  5.06327036E-08 -2.84137434E-04  2.79364503E-01  5.07303196E-10
  1.45150038E-07 -2.67243245E-04  2.62702064E-01  4.74862653E-10  4.49383566E-07
 -8.48708077E-05  8.33852323E-02  1.50430397E-10  1.18290599E-09  4.61044703E-10
 -4.72216809E-07  2.14071277E-05 -1.05215195E-02  8.58349203E-06  1.35961249E-05
  5.46803978E-06  5.07092888E-09  2.64115532E-01 -3.30476270E-05  7.93824463E-06
  7.37533645E-09  3.83252552E-01 -1.62307642E-04  1.10832398E-05  1.03032330E-08
  5.35037359E-01 -1.06077986E-03  1.44733532E-06  9.89917061E-10  7.24502027E-02
 -1.08338936E-05  6.37284184E-06  2.10622526E-08  2.49807988E-09  5.93826640E-13
 -5.24641668E-06 -8.81086010E-06  1.80438456E-06  7.98360754E-06 -1.34940419E-01
  3.24548352E-05  4.11187473E-06  1.41752370E-05 -1.95770033E-01  2.80047330E-05
  6.16836343E-07  9.58855116E-06 -2.36801404E-01  3.44332913E-04  4.66420774E-05
  8.77334727E-05 -1.89170028E-01 -1.94757742E-06  4.94698745E-03  8.58523921E-03
 -3.54314646E-07  9.65147733E-07 -5.24641929E-06 -8.81086420E-06  1.82065136E-06
 -7.97950206E-06 -1.34940266E-01  3.24548451E-05  4.14074352E-06 -1.41662395E-05
 -1.95769795E-01  2.80047298E-05  6.36403437E-07 -9.58653607E-06 -2.36801002E-01
  3.44333186E-04  4.68205106E-05 -8.76378881E-05 -1.89169626E-01 -1.94762674E-06
  4.96442996E-03 -8.57514338E-03 -3.50416628E-07 -9.66596276E-07 -5.24740150E-06
 -8.81245291E-06 -1.20331395E-05 -1.20009470E-08 -1.34903303E-01  3.24594828E-05
 -2.04504281E-05 -2.04511119E-08 -1.95710209E-01  2.80088565E-05 -1.60111846E-05
 -1.58838734E-08 -2.36708528E-01  3.44369139E-04 -1.05235217E-04 -1.06551683E-07
 -1.89052835E-01 -1.41314831E-06 -9.90445969E-03 -1.00677793E-05  7.04268655E-07
  1.45094364E-09 -1.11733184E-02 -1.60009342E-02  1.82683098E-05  6.95669664E-08
  5.59103900E-05  7.38864194E-03  3.05618028E-05  1.35941770E-07  7.53465484E-05
  3.82803053E-01  1.39800170E-06 -1.13941059E-07  1.35427262E-04  6.96827003E+00
 -6.40367909E-04 -1.16098799E-06  1.47263023E-04  2.75364468E-02  9.89747866E-07
  9.22832118E-10 -7.70000590E-06  1.09108216E-09  2.10263163E-02  3.56991925E-02
 -5.16107885E-03 -8.95762928E-03 -2.08385453E-05 -1.39106841E-01 -1.62758493E-02
 -2.82526197E-02 -3.03051679E-05 -3.50825033E-02  2.11332246E-02  3.66983354E-02
 -3.74919279E-05 -2.28270238E+00 -3.77196234E-01 -6.54866538E-01 -2.69670417E-05
  2.24114829E-03  1.45567105E-06  2.38190324E-06 -6.81134594E-05  1.19880845E-04
  2.10263137E-02  3.56991855E-02 -5.17936138E-03  8.94722537E-03 -2.08384790E-05
 -1.39106758E-01 -1.63333669E-02  2.82196428E-02 -3.03050169E-05 -3.50827092E-02
  2.12076379E-02 -3.66551672E-02 -3.74919664E-05 -2.28269809E+00 -3.78526548E-01
  6.54097353E-01 -2.69646467E-05  2.24115053E-03  1.46050933E-06 -2.37894690E-06
 -6.76186387E-05 -1.20149740E-04  2.10254984E-02  3.56972652E-02  1.03804967E-02
  1.05534534E-05 -2.11536043E-05 -1.39086940E-01  3.26713886E-02  3.32386813E-05
 -3.13082644E-05 -3.51592551E-02 -4.22877891E-02 -4.30534048E-05 -3.61595304E-05
 -2.28118591E+00  7.55544670E-01  7.68285734E-04 -5.04416625E-05  2.24108083E-03
 -2.67282209E-06 -2.72440715E-09  1.36012603E-04  2.73175404E-07 -6.90797668E-08
 -1.27132429E-07  4.04948479E-04  3.42401854E-02 -8.86089381E-09  6.80070739E-07
 -8.27599655E-07 -7.08434173E-05  2.75314627E-10 -2.64178018E-06  3.49287770E-03
  2.95365866E-01 -7.76061419E-08  7.29738236E-06  6.42712525E-02  5.43296421E+00
 -1.43648004E-06  1.46724907E-07 -1.08521119E-08 -7.16125716E-07  6.62862653E-05
 -4.45139597E-03 -1.55853070E-02 -2.72835168E-02  4.95794320E-03 -3.81823028E-02
 -3.41660994E-06  1.24582571E-01  1.39613560E-02 -5.35772789E-02 -6.15351786E-06
 -1.50382363E-01 -5.33538698E-03 -4.15871418E-02 -2.42175861E-06  5.34919486E+00
  1.05153337E+00  9.44774625E-01 -1.41494257E-04  1.82708041E-03  2.79083791E-07
  1.71816983E-07  2.89816894E-03 -2.95412705E-03  1.53559717E-02  2.68820354E-02
 -6.02610294E-03 -3.83342738E-02  3.39130162E-06 -1.22749142E-01 -1.56733959E-02
 -5.39874600E-02  6.10453575E-06  1.48167745E-01  4.49864676E-03 -4.14513521E-02
  2.40318492E-06 -5.27044491E+00 -1.06086202E+00  9.15502347E-01  1.39888777E-04
 -1.80017687E-03 -2.83690510E-07  1.62604638E-07 -2.89718938E-03 -2.89147010E-03
  2.29531984E-04  4.01816830E-04 -4.01952579E-04 -4.77671706E-02  5.80020099E-08
 -1.83475489E-03 -4.99728761E-04 -7.94350178E-02  9.81629961E-08  2.21532114E-03
 -5.37003112E-04 -3.30149659E-02  4.89376310E-08 -7.87548429E-02  2.06977406E-02
 -8.98912121E-01  1.34973804E-06 -2.68554125E-05  1.64341111E-09 -4.15427369E-07
  5.47112282E-05  2.09660837E-03  4.53555981E-06  8.07667666E-06 -3.42361559E-02
  4.05012814E-04  6.97186284E-07 -3.83827323E-05  6.93416198E-05 -8.41735724E-07
 -1.84668060E-08  1.26842555E-04 -2.95292245E-01  3.49366846E-03  6.09106573E-06
 -5.17194090E-04 -5.43361345E+00  6.42627279E-02  1.12562401E-04 -8.96168525E-06
  9.01173426E-07 -8.27620384E-09 -4.45566440E-03 -6.62473933E-05  8.72885300E-03
  1.52809481E-02  4.46814008E-02 -5.92931959E-03  9.35594309E-07 -6.97817683E-02
  7.11018451E-02 -1.54177196E-02  1.82010509E-06  8.42916012E-02  3.57906114E-02
  4.40947938E-03  6.82460727E-07 -2.99704944E+00  3.04118505E-01 -1.04360672E+00
  6.08184602E-05 -1.02347640E-03  1.69711081E-07 -3.34704221E-07  4.56045181E-04
  2.86067973E-03  9.12630411E-03  1.59767243E-02  4.45291669E-02  5.03716026E-03
  1.02306024E-06 -7.29588596E-02  7.06910560E-02  1.41802270E-02  1.97761776E-06
  8.81269517E-02  3.59271029E-02 -5.40334216E-03  7.44380753E-07 -3.13346054E+00
  2.74835411E-01  1.06809132E+00  6.44367247E-05 -1.07006525E-03  1.61785739E-07
  3.39341731E-07  3.93392145E-04 -2.93403591E-03 -1.78682324E-02 -3.12800933E-02
  3.50769461E-02 -5.77929727E-04 -4.52082646E-06  1.42831357E-01  4.51968196E-02
 -9.74443157E-04 -7.65230997E-06 -1.72470458E-01  4.44246930E-02 -3.78897558E-04
 -3.80791849E-06  6.13087769E+00 -1.54009166E+00 -1.31132684E-02 -1.05217463E-04
  2.09079643E-03 -9.50476242E-08 -5.43125945E-09 -4.59102485E-03  1.75928508E-05
 -1.18920878E-06 -1.72453501E-06 -3.42153032E-08 -1.34381900E-11 -1.54438592E-03
  3.53603801E-06  1.08130462E-06  1.01765818E-09  5.22739024E-02  2.85249923E-05
 -4.51479017E-06 -4.15738802E-09 -2.18249625E-01  8.16859810E-04  4.87570047E-05
  4.61997703E-08  2.34444924E+00 -3.56770995E-06  8.61923993E-06  3.34012113E-08
  7.49508625E-11  5.61254621E-12  1.02976403E-06  1.83361688E-06 -2.22840368E-07
  2.33316525E-06 -7.56583253E-02 -8.89993342E-06 -1.72805522E-06  9.63566721E-07
 -1.10176814E-01  2.42940447E-05  1.04532166E-05  2.20260977E-05 -1.08128668E-01
 -3.14375651E-04 -7.54111376E-05 -1.12229229E-04 -5.16198987E-01 -4.55067357E-07
 -5.33060973E-04 -9.26634188E-04 -2.30789502E-07  3.59720571E-07  1.02977574E-06
  1.83363634E-06 -2.18096630E-07 -2.33336696E-06 -7.56583670E-02 -8.90000332E-06
 -1.72610469E-06 -9.66697126E-07 -1.10176801E-01  2.42939378E-05  1.04980452E-05
 -2.20045514E-05 -1.08129000E-01 -3.14376504E-04 -7.56394235E-05  1.12078070E-04
 -5.16198076E-01 -4.55065332E-07 -5.34936808E-04  9.25539849E-04 -2.29323249E-07
 -3.60660204E-07  1.02933074E-06  1.83283384E-06 -4.26533643E-06 -4.19079293E-09
 -7.56572904E-02 -8.89645643E-06 -3.40295331E-06 -3.26957122E-09 -1.10172501E-01
  2.42837104E-05 -2.76607051E-05 -2.78101644E-08 -1.08128311E-01 -3.14427164E-04
  1.18783672E-04  1.21177557E-07 -5.16212524E-01 -5.12331875E-07  1.06462178E-03
  1.08520232E-06  4.59878090E-07  9.29917335E-10  4.14976119E-02  6.76516451E-02
 -2.55812063E-04 -1.32820464E-06  1.49489257E-06 -2.00865713E-01 -3.18056272E-04
 -1.62236586E-06  4.45524859E-06 -8.46859342E-01 -9.76864790E-04 -4.93578159E-06
  4.73906617E-07  4.60199066E+00  3.36733988E-03  2.02819690E-05  1.62997756E-04
  7.66867543E-03  2.75885941E-07  2.63536890E-10  3.95816642E-05 -8.33132939E-08
 -1.15322486E-02 -1.83979636E-02  8.09132661E-03  1.42090487E-02 -1.17894514E-05
  4.31402704E-02  2.79985591E-02  4.87290554E-02 -1.54532051E-05  2.74546502E-01
 -3.56974641E-02 -6.12235112E-02 -3.23445348E-05 -1.94574110E+00  1.85571801E-01
  3.21055887E-01  9.90301879E-06  8.66818580E-03  4.40274573E-07  5.01663449E-07
  3.87004134E-03 -6.72540250E-03 -1.15325479E-02 -1.83984413E-02  8.12004141E-03
 -1.41931390E-02 -1.17894494E-05  4.31414432E-02  2.80978923E-02 -4.86731905E-02
 -1.54533628E-05  2.74554831E-01 -3.58239136E-02  6.11503282E-02 -3.23440066E-05
 -1.94576714E+00  1.86232414E-01 -3.20687379E-01  9.90065831E-06  8.66828269E-03
  4.41336431E-07 -5.00860169E-07  3.84263330E-03  6.74130562E-03 -1.15921863E-02
 -1.84932718E-02 -1.64536381E-02 -1.71604664E-05 -1.12737469E-05  4.33663138E-02
 -5.64514351E-02 -5.77389353E-05 -1.36999978E-05  2.76296158E-01  7.08877476E-02
  7.01182326E-05 -3.45154908E-05 -1.95071135E+00 -3.72862362E-01 -3.76974362E-04
  2.12907593E-05  8.68606219E-03  5.04329032E-08  3.76573277E-11 -7.79351757E-03
 -1.57216686E-05 -4.71911723E-05 -7.57176035E-05 -9.13712744E-02 -5.79048813E-05
  1.87451247E-06  2.00437925E-04 -1.12500077E-01 -7.12387795E-05  2.29446531E-06
  1.09470634E-03 -3.48333629E-01 -2.20916966E-04  7.17455025E-06 -9.10480492E-03
  1.82684796E+00  1.15948671E-03 -3.83268334E-05 -4.59364329E-05 -5.29600243E-07
 -5.88744622E-10  1.42605915E-02  3.44721566E-05  8.28519453E-03  1.31767905E-02
 -4.47067537E-02  1.71096986E-02 -1.93580131E-06 -3.04601456E-02 -5.00461696E-02
 -4.53425672E-03 -9.33481688E-07 -2.49958932E-01 -1.60551505E-01  1.27142209E-01
 -1.00596990E-05  8.96110889E-01  1.58611793E-02 -4.33496256E-01  4.47190491E-05
 -2.78758583E-03 -2.43766233E-07 -6.74581320E-07 -1.22235395E-02 -1.27067101E-03
  8.29615828E-03  1.31942270E-02 -4.46589444E-02 -1.71814167E-02 -1.93998145E-06
 -3.05004441E-02 -5.00589371E-02  4.47477684E-03 -9.36061576E-07 -2.50289751E-01
 -1.60195993E-01 -1.27457339E-01 -1.00801124E-05  8.97292688E-01  1.46476012E-02
  4.33895245E-01  4.47874637E-05 -2.79124720E-03 -2.45821807E-07  6.75236038E-07
 -1.22275997E-02  1.21270820E-03 -1.65398858E-02 -2.63057347E-02 -1.51538751E-02
  5.35640094E-06  6.13082058E-06  6.08254895E-02 -5.78638786E-02 -4.07518272E-05
  5.25804302E-06  4.99251595E-01  5.87669061E-02  1.48569127E-04  2.58073008E-05
 -1.78146085E+00 -7.32575449E-01 -8.44796318E-04 -7.49043045E-05  5.51520045E-03
 -1.19853587E-06 -1.11762106E-09 -1.00271304E-02 -2.53314625E-05 -2.95954795E-07
 -4.80117723E-07  5.81128737E-05 -9.13088674E-02  4.77107929E-10  1.36869046E-06
  7.15476910E-05 -1.12408793E-01  5.38571530E-10  6.50695873E-06  2.21766381E-04
 -3.48268413E-01  1.91274365E-09 -4.48092322E-05 -1.15922988E-03  1.82746315E+00
 -1.24170717E-08 -1.81814867E-07 -2.91440296E-10  6.30248502E-08  3.43756134E-05
 -1.42430475E-02  1.43346869E-02  2.27978334E-02  1.71326662E-02 -2.49241695E-02
 -5.38534221E-06 -5.26976417E-02 -4.43504048E-03 -5.52355864E-02 -3.40612519E-06
 -4.32803343E-01  1.26925077E-01 -1.38383551E-02 -2.60479129E-05  1.54716910E+00
 -4.32331671E-01 -4.84451950E-01  8.72559556E-05 -4.79534340E-03 -8.95929792E-07
 -1.42980344E-06  1.22959827E-03  1.07681449E-02 -1.43282177E-02 -2.27875492E-02
 -1.71160034E-02 -2.49724108E-02  5.38382502E-06  5.26739730E-02  4.50892254E-03
 -5.52229152E-02  3.40534511E-06  4.32608417E-01 -1.27017849E-01 -1.41969153E-02
  2.60400448E-05 -1.54644587E+00  4.33323355E-01 -4.83233243E-01 -8.72215644E-05
  4.79303620E-03  8.98650443E-07 -1.42746093E-06 -1.28277341E-03  1.07638529E-02
 -6.23466057E-06 -9.91559304E-06  4.97529221E-05 -5.46238636E-02  2.52182235E-09
  2.29228501E-05  2.65049357E-05 -4.75073309E-02  2.18669343E-09  1.88908577E-04
  2.59243687E-04 -2.33969176E-01  1.06083169E-08 -6.65541559E-04 -5.44746539E-04
  2.65473797E-01 -3.08234567E-08  2.01289940E-06 -1.81244034E-10 -2.63083820E-07
 -3.00561787E-05  1.29334325E-02  1.36423621E-11  2.25537874E-11  9.79950177E-09
  3.14105863E-06  1.30043785E-07 -6.96387044E-11  2.29051796E-08  7.30548648E-06
  2.42985090E-07 -3.13724018E-10 -7.97643105E-09 -2.33687646E-06  4.35832768E-07
  9.46127374E-10  9.66302931E-07  3.06375917E-04 -3.39603569E-06 -6.60850676E-10
  1.41227072E-05  4.49033219E-03 -2.05106881E-08  3.43783586E-06 -4.58650912E-07
 -7.37151551E-07 -6.09968054E-06  3.66230734E-06 -8.56592101E-02  2.01070935E-06
 -3.63753573E-06  3.79067185E-06 -7.50500831E-02  1.05846433E-05 -3.72050850E-05
  1.36233941E-05 -3.94659023E-01  5.29292332E-05  1.06737402E-04 -1.00276699E-04
  1.23469329E+00  3.81648988E-07 -2.94444055E-03 -9.58324643E-03 -7.02069003E-07
 -1.11958047E-06  4.56458022E-07  7.33627112E-07  6.15616151E-06  3.71070472E-06
  8.52482581E-02 -2.00109194E-06  3.67413393E-06  3.81532685E-06  7.46899498E-02
 -1.05342164E-05  3.75331006E-05  1.39411550E-05  3.92765789E-01 -5.26749251E-05
 -1.08035407E-04 -1.01171353E-04 -1.22876983E+00 -3.78536412E-07  2.91238431E-03
 -9.55290961E-03  7.19435597E-07 -1.12160135E-06  2.18422003E-09  3.51053717E-09
  1.95715646E-09  1.12320447E-05  4.10775506E-04 -9.58138788E-09  1.06071961E-08
  7.44870553E-06  3.59847854E-04 -5.02770448E-08 -3.90447035E-08  6.43594434E-05
  1.89263382E-03 -2.55400264E-07 -1.00193280E-07 -2.42337281E-04 -5.91978150E-03
  3.58085035E-10 -4.22942862E-05 -4.49546409E-03  5.63762410E-09 -2.14036776E-06
 -1.59675263E-09 -2.70755337E-09 -3.13128208E-06  9.75427430E-09 -1.97628993E-05
  1.01407225E-08 -7.29101771E-06  2.28019069E-08 -3.52811355E-05  1.83213569E-08
  2.37202876E-06 -7.86252743E-09 -7.17409922E-05 -1.87299382E-07 -3.06731324E-04
  9.66257675E-07  5.54032547E-04  1.61314592E-07 -4.48670123E-03  1.41235492E-05
  3.24982222E-06  2.09048618E-08  2.61400841E-07  4.20224678E-07 -7.71231159E-06
  4.35772060E-06  4.89918595E-02 -1.14885207E-06 -5.34230151E-06  2.11035365E-06
  4.29257634E-02 -6.00306789E-06 -4.29293485E-05  2.91926840E-05  2.25720896E-01
 -3.04622838E-05  1.80860429E-04 -8.20151873E-05 -7.06134323E-01 -3.79441558E-07
  6.17107910E-03  2.89369367E-03 -1.54412239E-06 -5.96092596E-07  2.65166433E-07
  4.26278915E-07 -7.65251922E-06 -4.34292785E-06  4.97034360E-02 -1.16542983E-06
 -5.30761147E-06 -2.08986480E-06  4.35492166E-02 -6.08933996E-06 -4.25592895E-05
 -2.91658636E-05  2.28999288E-01 -3.09081321E-05  1.79801204E-04  8.15454454E-05
 -7.16390310E-01 -3.82612161E-07  6.20140878E-03 -2.96077835E-03 -1.54061504E-06
  5.80499285E-07 -5.25157010E-07 -8.44250289E-07 -3.21894991E-06  4.35608610E-08
 -9.86771642E-02  2.30835948E-06 -4.37489995E-06  2.66124505E-08 -8.64524233E-02
  1.20717116E-05 -6.37706448E-06  2.61872238E-07 -4.54620034E-01  6.16073367E-05
  8.29846442E-05 -9.26284506E-07  1.42195236E+00 -8.80601172E-08  1.12560159E-02
 -7.26863115E-06 -3.11813314E-07 -9.54169901E-09 -8.23700104E-02 -1.37168526E-01
  2.35124122E-04  9.65743392E-07  3.09397398E-05  4.29796688E-01  3.58494686E-04
  1.45017878E-06  5.35291738E-05  2.01694904E+00  5.40019602E-04  2.56749267E-06
  1.16291555E-04 -1.37849922E+00 -1.55579307E-03 -1.31855292E-06  2.18285096E-04
  6.07036621E-02  2.17833958E-06  2.01978045E-09 -3.28959439E-05  1.26726477E-08
  2.60075718E-02  4.25706250E-02 -8.60367377E-02 -1.49113315E-01 -2.66886080E-06
 -1.19822986E-01 -1.17432769E-01 -2.03600150E-01 -4.32110130E-06 -6.73465241E-01
 -3.41102217E-01 -5.91181606E-01  7.46394081E-06  3.52068159E-01  2.11769339E-01
  3.65271981E-01 -1.15221154E-04  4.26687043E-03  1.56423633E-06  2.27353460E-06
 -2.47612771E-03  4.27958589E-03  2.60076190E-02  4.25707054E-02 -8.63405244E-02
  1.48938709E-01 -2.66822064E-06 -1.19823293E-01 -1.17847417E-01  2.03361710E-01
 -4.32024914E-06 -6.73465014E-01 -3.42306331E-01  5.90489008E-01  7.46645269E-06
  3.52060911E-01  2.12512777E-01 -3.64841148E-01 -1.15222876E-04  4.26682520E-03
  1.56883121E-06 -2.27035923E-06 -2.45869196E-03 -4.28966186E-03  2.60244986E-02
  4.25994548E-02  1.72415340E-01  1.74952697E-04 -8.00093330E-06 -1.19933288E-01
  2.35359092E-01  2.38938090E-04 -1.16060132E-05 -6.73419020E-01  6.83355182E-01
  6.93371131E-04 -1.36747902E-05  3.51623089E-01 -4.22165853E-01 -4.26427510E-04
 -1.02296240E-04  4.25135982E-03 -2.67353522E-06 -2.74389076E-09  4.95404703E-03
  1.00584568E-05  2.76255417E-08  4.85065968E-08  1.13079831E-07  1.29498362E-05
 -1.79492765E-11 -2.00633818E-07  8.29888415E-09  1.69130569E-05 -2.81832043E-11
  4.79984523E-08  1.46424442E-06  3.41574409E-06 -8.35382105E-11  6.14497042E-06
 -2.43341823E-05 -6.81646556E-04  6.28397896E-10 -2.96507169E-08  6.60230049E-12
  9.65413235E-11  3.39205093E-08  1.79855516E-06 -5.28524841E-07 -8.28273986E-07
 -5.08846225E-02  2.93176526E-02  1.05357684E-06  1.11908906E-06 -3.66877055E-02
  2.11452196E-02  7.59580731E-07  1.47423459E-05 -2.78383615E-01  1.60356092E-01
  5.76421667E-06 -6.59943630E-04  1.49023715E+00 -8.58409672E-01 -3.08555334E-05
  1.00915685E-06  3.32819909E-07 -4.02968121E-09 -7.83272917E-03 -4.54435872E-03
  4.97128045E-07  7.77523048E-07  5.08247921E-02  2.94209446E-02 -1.05351113E-06
 -9.87917936E-07  3.66447577E-02  2.12196626E-02 -7.59545082E-07 -1.36711563E-05
  2.78055300E-01  1.60920843E-01 -5.76383434E-06  6.47855099E-04 -1.48846890E+00
 -8.61435282E-01  3.08532508E-05 -9.70575358E-07 -3.32825259E-07 -4.72866927E-09
  7.85110611E-03 -4.51240736E-03 -2.39119461E-08 -3.62679663E-08  5.96100182E-05
 -5.87560745E-02 -8.96020133E-11  4.69433577E-08  4.29693675E-05 -4.23684207E-02
 -9.10640963E-11  8.46737830E-07  3.26289520E-04 -3.21403929E-01 -3.66908239E-10
  4.10493774E-06 -1.73980237E-03  1.72013841E+00  1.96219869E-09 -4.36939435E-08
  5.27818317E-12  8.70822423E-09 -1.83822734E-05  9.05598336E-03 -3.01825658E-05
 -4.98256056E-05 -2.10233447E-02 -1.10244518E-03  4.43544470E-07  1.44791181E-04
 -3.34246751E-03 -1.74906019E-04  7.92086999E-08  8.31470648E-04 -1.82936438E-01
 -9.59772584E-03  3.83559156E-06 -1.31308351E-03  6.99895005E+00  3.66842426E-01
 -1.44556044E-04  2.01807535E-05 -2.48375001E-06 -1.51735780E-07 -1.00754336E-02
  4.97507409E-04 -1.19301344E-03 -1.94266323E-03  3.73877248E-02 -7.98148057E-03
  4.06677788E-06  6.05700766E-03  1.18469023E-02 -2.40142614E-03  2.45697595E-06
  1.32544309E-02  2.92423380E-01 -8.33590531E-02  2.61124214E-05  1.57405413E+00
 -2.60954317E+00  3.72928112E-01 -1.19438976E-04 -5.32786294E-03 -2.99308173E-07
  5.16104982E-07  5.58597830E-03  7.59019795E-03 -9.95979611E-04 -1.62181346E-03
  3.83312336E-02  1.08433070E-02  3.25613144E-06  5.05785134E-03  1.21281239E-02
  3.33148877E-03  2.00977261E-06  1.10341963E-02  3.01819260E-01  1.03461194E-01
  2.06595971E-05  1.31689426E+00 -2.65816563E+00 -5.91904051E-01 -9.00804835E-05
 -4.45658185E-03 -3.48294084E-07 -4.49372930E-07  6.38184479E-03 -7.29724789E-03
  2.22353354E-03  3.62090395E-03  2.17577498E-02  2.24661807E-03 -9.32308491E-06
 -1.12712403E-02  7.29267702E-03  7.07944863E-04 -5.09856953E-06 -2.52585275E-02
  1.36185835E-01  1.81780515E-02 -6.17878979E-05 -2.88955598E+00 -1.79858135E+00
 -1.51484307E-01  3.55197987E-04  9.78678326E-03  1.56958464E-06 -7.58281316E-09
 -6.90891149E-03 -5.42437061E-04  1.49865942E-06  2.47376695E-06  1.10197698E-03
 -2.10301970E-02 -2.28097740E-08 -7.18318235E-06  1.75179669E-04 -3.33533669E-03
 -4.03446490E-09 -4.12793651E-05  9.58885731E-03 -1.83088850E-01 -1.97382680E-07
  6.35733893E-05 -3.66882587E-01  6.99822907E+00  7.44174586E-06 -1.02033991E-06
  1.30641404E-07 -2.90308369E-06  4.97327539E-04  1.00788827E-02 -1.86049287E-03
 -3.02962473E-03 -1.13343103E-02  2.75605211E-02  7.69725853E-06  9.43405242E-03
 -3.41431810E-03  8.95295912E-03  4.23483348E-06  2.09773681E-02 -1.08696631E-01
  1.94351335E-01  5.18423810E-05  2.42728179E+00  6.19969570E-01 -2.10212186E+00
 -2.80216691E-04 -8.22401425E-03  5.01791426E-07  6.31152480E-07 -7.75893756E-03
  2.21476078E-03  1.97304333E-03  3.21289741E-03  7.38700224E-03  2.66122095E-02
 -8.07355683E-06 -1.00055047E-02  2.16388925E-03  8.66423202E-03 -4.46437563E-06
 -2.22270093E-02  7.77652693E-02  1.84939828E-01 -5.42458108E-05 -2.57587707E+00
 -3.44972988E-01 -2.05351025E+00  2.90979087E-04  8.72692476E-03 -4.69827848E-07
  6.79709788E-07  7.13312626E-03  3.01032704E-03 -1.14268997E-04 -1.86082855E-04
 -1.16242569E-03  4.32816442E-02  4.79248930E-07  5.79300865E-04 -3.88648370E-04
  1.36320912E-02  2.62064982E-07  1.29747803E-03 -7.35771717E-03  3.50982495E-01
  3.17633531E-06  1.48528153E-01  9.54140089E-02 -2.91162812E+00 -1.82616147E-05
 -5.03034343E-04 -8.05108154E-08 -1.78363222E-07  3.76076352E-04 -1.02798937E-02
  7.71668079E-06  1.23046278E-05 -9.06400128E-07 -9.06652743E-10 -4.30817720E-02
 -2.96402770E-05 -2.03677340E-06 -1.97734196E-09 -9.71668344E-02 -3.80074777E-04
 -3.15514231E-07 -6.11215626E-10 -1.30910938E-02 -1.74584769E-04  1.01689106E-04
  9.56364102E-08  4.94493886E+00  1.61154033E-06 -1.55261313E-06 -8.80097080E-09
  3.34614570E-09 -1.03700883E-12  1.87365593E-06  2.88978484E-06  6.80727422E-06
  9.03815269E-06  7.71144470E-02 -5.54864269E-06  8.51933656E-06  1.24477887E-05
  6.47299397E-02 -7.37635853E-05  2.88761851E-05  3.57213555E-05  4.00869042E-01
  1.51889975E-04 -1.41611650E-06  8.19902321E-05 -2.36236195E+00  3.84159274E-07
  2.73319762E-03  4.74305179E-03  1.57036576E-06 -2.51489802E-06  1.87364880E-06
  2.88977261E-06  6.82571082E-06 -9.02457515E-06  7.71144585E-02 -5.54859397E-06
  8.54471219E-06 -1.24306904E-05  6.47299215E-02 -7.37634859E-05  2.89490502E-05
 -3.56639734E-05  4.00869098E-01  1.51889529E-04 -1.25002986E-06 -8.19853893E-05
 -2.36236063E+00  3.84135722E-07  2.74283539E-03 -4.73748070E-03  1.56011007E-06
  2.52125597E-06  1.87173034E-06  2.88653759E-06 -8.84615212E-06 -9.09986767E-09
  7.71214126E-02 -5.53653018E-06 -1.30409104E-05 -1.33346698E-08  6.47302331E-02
 -7.37443884E-05 -3.29556876E-05 -3.40964367E-08  4.00900640E-01  1.52477243E-04
 -1.43467602E-04 -1.42042668E-07 -2.36221916E+00  6.77846633E-07 -5.47422924E-03
 -5.56697349E-06 -3.13270105E-06 -6.35964534E-09 -2.45104007E-02 -3.79615062E-02
  1.69430890E-05  1.91756167E-07 -8.56367558E-06  6.77665792E-02  2.86719632E-05
  3.56847585E-07 -2.44765895E-05  1.90161273E+00 -2.33792511E-05 -4.82219776E-08
  4.03450949E-05  1.21453964E+01  6.80721556E-04 -2.79550075E-06  1.22561832E-03
 -1.30955060E-02 -4.72126795E-07 -4.49295259E-10 -1.85823398E-06  3.97257947E-08
 -2.07169082E-02 -3.25187769E-02 -1.34245318E-02 -2.32872578E-02  1.75915911E-05
  6.76190481E-02 -1.40227036E-02 -2.43163438E-02  1.69745603E-05  7.81819519E-01
 -8.71573978E-02 -1.51260164E-01  8.34884407E-05 -5.53364557E+00 -6.54020059E-01
 -1.13469975E+00 -4.07496268E-04 -1.77917557E-03 -1.05715967E-08 -4.09022925E-07
 -6.99354788E-03  1.20619446E-02 -2.07168368E-02 -3.25186603E-02 -1.34720603E-02
  2.32598799E-02  1.75916980E-05  6.76187178E-02 -1.40724380E-02  2.42878001E-02
  1.69746842E-05  7.81817657E-01 -8.74650446E-02  1.51081960E-01  8.34889906E-05
 -5.53362781E+00 -6.56322735E-01  1.13336487E+00 -4.07492331E-04 -1.77917168E-03
 -1.14474081E-08  4.09036771E-07 -6.94441909E-03 -1.20902864E-02 -2.07132206E-02
 -3.25123326E-02  2.68755315E-02  2.72352572E-05  1.67556833E-05  6.75904864E-02
  2.80686959E-02  2.84203312E-05  1.61017706E-05  7.81852188E-01  1.74457016E-01
  1.77148176E-04  7.80504701E-05 -5.53281603E+00  1.30930184E+00  1.33112026E-03
 -4.48144504E-04 -1.77651957E-03 -1.69240689E-07 -1.91860886E-10  1.39396442E-02
  2.83268783E-05  5.16382811E-05  8.72890282E-05  1.86850658E-01 -6.75692000E-04
 -3.89046637E-06 -2.59318323E-04  3.87595106E-01 -1.40402781E-03 -8.06657172E-06
 -2.00602155E-03  3.05119555E-01 -1.08195857E-03 -6.42601886E-06  7.95735105E-04
 -5.72426478E+00  2.09100769E-02  1.18581760E-04 -4.57229665E-05 -4.44632047E-06
  2.46792630E-08 -4.42471579E-02 -2.95247004E-04 -2.27271323E-02 -3.67067042E-02
 -7.07975936E-02  9.38373070E-02 -4.44179989E-06  9.08825532E-02 -7.81766611E-02
  1.29176720E-01 -6.95649802E-06  7.86519506E-01 -2.53769545E-01  3.19262801E-01
 -1.24421317E-05 -4.31836173E+00  4.38323272E-01 -1.39400397E+00  8.89485307E-05
  8.19623184E-04 -5.93502600E-07  6.17019529E-07  1.42187492E-02  7.07181946E-03
 -2.30961255E-02 -3.73026101E-02 -6.97338679E-02 -9.43319680E-02 -4.55602481E-06
  9.23569162E-02 -7.67109399E-02 -1.29999509E-01 -7.12095355E-06  7.99296505E-01
 -2.50159467E-01 -3.20839756E-01 -1.27910801E-05 -4.38879884E+00  4.22407471E-01
  1.40594765E+00  9.08221290E-05  8.32642091E-04 -5.83385357E-07 -6.24615310E-07
  1.41818815E-02 -6.95793460E-03  4.57683907E-02  7.39189415E-02  9.24388293E-02
  6.73301433E-04  9.99685286E-06 -1.82997593E-01  1.46645186E-01  8.57192662E-04
  1.42482613E-05 -1.58393035E+00  3.00843264E-01  2.33474682E-03  2.94298231E-05
  8.70658864E+00 -1.99481753E+00 -7.80684396E-03 -1.56109192E-04 -1.66440764E-03
  9.06600292E-07  2.68348220E-09  2.02367876E-03  8.88076818E-05 -3.98038628E-07
 -6.72061618E-07 -6.77898858E-04 -1.85181862E-01  1.77573146E-08  1.98304613E-06
 -1.40730223E-03 -3.85157850E-01  3.68586970E-08  1.61502680E-05 -1.09705563E-03
 -2.93225495E-01  2.91420302E-08  3.47714888E-06  2.08629383E-02  5.76221977E+00
 -5.42404216E-07  3.29128117E-07  1.42176492E-08  6.23604336E-06  2.94691799E-04
 -4.39491709E-02  3.97356522E-02  6.41661901E-02 -9.30411373E-02 -3.79008970E-02
  1.22242946E-05 -1.58657047E-01 -1.28350750E-01 -7.17031879E-02  1.76094067E-05
 -1.37664572E+00 -3.14828080E-01 -1.13895266E-01  3.72674074E-05  7.61316369E+00
  1.40399807E+00  1.19993759E+00 -2.01783287E-04 -1.36419856E-03 -9.39589759E-07
 -6.78205437E-07  6.94764577E-03  5.95717206E-03 -3.95223573E-02 -6.38217143E-02
  9.37715451E-02 -3.68373537E-02 -1.21826630E-05  1.57804552E-01  1.29216367E-01
 -7.02374750E-02 -1.75442836E-05  1.36926095E+00  3.17402313E-01 -1.10285554E-01
 -3.71508548E-05 -7.57251843E+00 -1.41043846E+00  1.18401820E+00  2.00947637E-04
  1.35671353E-03  9.46423289E-07 -6.70579337E-07 -7.10371894E-03  5.99383852E-03
 -2.12937688E-04 -3.43883091E-04 -5.53931353E-04  1.24372766E-01 -4.62357787E-08
  8.50850173E-04 -8.33791660E-04  1.52040293E-01 -6.59416733E-08  7.37277557E-03
 -1.82733527E-03  4.35205139E-01 -1.35887080E-07 -4.06538154E-02  1.05723681E-02
 -1.24474509E+00  7.26261277E-07  7.56851871E-06 -4.53136601E-09  3.69134847E-07
 -4.60564035E-05  1.81425012E-02 -6.27710643E-05 -1.04278374E-04 -2.56977644E-01
  2.84111922E-04  5.34556876E-06  2.84807863E-04 -3.76136176E-01  4.15832425E-04
  7.83176661E-06  3.22488567E-03 -1.91087192E+00  2.11242617E-03  3.97436790E-05
 -7.33606776E-04 -5.96782464E+00  6.59508346E-03  1.23588708E-04  5.07621084E-05
  4.83320528E-06 -9.88196213E-09  5.05495509E-02  2.10112770E-04  2.34454357E-03
  4.74775820E-03 -2.36951856E-02 -9.43376168E-02  4.91610251E-06 -3.06845205E-02
 -3.23886456E-02 -1.10438350E-01  6.51625767E-06  4.60082628E-02 -9.19481428E-02
 -5.53096032E-01  2.40421404E-05 -4.65505874E+00  3.61743407E-01 -1.10344649E+00
  9.40131696E-05 -7.22917441E-03  1.62713678E-06 -3.05915301E-06 -1.76457390E-02
 -2.29478590E-04  2.36168496E-03  4.78253676E-03 -2.42888305E-02  9.48535488E-02
  4.95739858E-06 -3.09103970E-02 -3.30835927E-02  1.11052490E-01  6.56949896E-06
  4.63552280E-02 -9.54277566E-02  5.56016092E-01  2.42560576E-05 -4.68940902E+00
  3.54798555E-01  1.10807699E+00  9.48630724E-05 -7.28254852E-03  1.60593268E-06
  3.07271757E-06 -1.76456170E-02  8.36262968E-05 -4.63594905E-03 -9.41663415E-03
 -1.87499203E-01 -2.55688615E-04 -4.99825740E-06  6.13245360E-02 -2.24089097E-01
 -2.94164127E-04 -7.08980596E-06 -9.53624564E-02 -1.05197761E+00 -1.55024078E-03
 -2.25881730E-05  9.34483067E+00 -1.55820949E+00 -3.69892369E-03 -1.71278934E-04
  1.45186503E-02 -2.92731919E-06 -9.17580244E-09 -1.73439111E-02 -7.28980007E-05
  3.39791342E-07  5.64719770E-07  2.85656048E-04  2.58174145E-01 -1.10051341E-08
 -1.56195179E-06  4.19057508E-04  3.78619897E-01 -1.61742453E-08 -1.73884471E-05
  2.11632079E-03  1.91363848E+00 -8.15411462E-08  3.59900169E-06  6.55236454E-03
  5.93104883E+00 -2.49494953E-07 -2.74090413E-07 -3.15622060E-09 -6.97177717E-06
 -2.11402597E-04  5.08600662E-02 -4.30302171E-03 -8.62211390E-03  9.50251423E-02
  1.33596320E-01 -9.74263445E-06  5.42924164E-02  1.11358272E-01  1.61186143E-01
 -1.25822225E-05 -7.23415146E-02  5.55631305E-01  7.35673838E-01 -5.02617615E-05
  8.05576834E+00  1.09568796E+00  9.15185176E-01 -1.98222518E-04  1.26034142E-02
  3.52706273E-06  2.41165554E-06 -1.42962168E-04 -1.74940604E-02  4.29218608E-03
  8.60051867E-03 -9.51960186E-02  1.32997982E-01  9.72202549E-06 -5.41583291E-02
 -1.11548129E-01  1.60484738E-01  1.25548144E-05  7.21768039E-02 -5.56730533E-01
  7.32174658E-01  5.01613582E-05 -8.03606052E+00 -1.09905180E+00  9.08303039E-01
  1.97826984E-04 -1.25725819E-02 -3.53889095E-06  2.39151594E-06  2.89476908E-04
 -1.74940044E-02  1.04542546E-05  2.09765284E-05  4.30892467E-04 -3.14036920E-02
  1.07177564E-08 -1.32554114E-04  5.09973070E-04 -3.21624760E-02  1.52183206E-08
  1.80303115E-04  2.46881052E-03 -2.29167905E-01  4.80705956E-08 -1.97091949E-02
  4.28489723E-03 -9.88865670E-01  3.59329312E-07 -3.08545763E-05  9.16962955E-09
 -2.91795064E-06  7.31431702E-05 -1.78554433E-02 -4.57307890E-06 -8.39684076E-06
 -4.91669672E-06 -4.56488001E-09 -2.37499704E-01  4.68504891E-05 -1.73588407E-05
 -1.61244105E-08 -8.38484054E-01  3.33899872E-05  3.95771745E-05  3.66765137E-08
  1.91611604E+00  5.23714224E-05 -1.75643596E-05 -1.57857311E-08 -8.53131102E-01
 -2.74881575E-06  2.98501390E-05  1.19754639E-07 -1.12174650E-09  2.52969236E-12
  5.88617945E-07  9.90910832E-07 -2.25511317E-06 -2.25289867E-06 -4.62887775E-02
 -3.77949987E-06 -4.77523780E-06 -4.55500786E-06 -1.03947699E-01 -5.44168450E-05
 -1.97795161E-05 -2.70315035E-05 -2.04289850E-01 -5.48623744E-07  5.97059302E-06
  7.23508135E-06  8.90234609E-02  1.05301561E-06 -2.17705852E-03 -3.78414192E-03
  1.58028769E-07 -4.27651004E-07  5.88614353E-07  9.90904583E-07 -2.25969534E-06
  2.24848711E-06 -4.62888544E-02 -3.77946625E-06 -4.78450540E-06  4.54568228E-06
 -1.03947760E-01 -5.44165560E-05 -1.98343804E-05  2.69919373E-05 -2.04289688E-01
 -5.49556353E-07  5.98516282E-06 -7.22327690E-06  8.90236664E-02  1.05302763E-06
 -2.18469863E-03  3.77963332E-03  1.56299114E-07  4.28290206E-07  5.88287584E-07
  9.90423471E-07  1.64298593E-06  1.76397366E-09 -4.63077992E-02 -3.77825074E-06
  3.10650896E-06  3.36916472E-09 -1.03961559E-01 -5.42848495E-05  2.68982680E-05
  2.77269995E-08 -2.04248843E-01 -6.07233213E-07 -6.53048935E-06 -6.95134806E-09
  8.90571168E-02  8.15929968E-07  4.34209167E-03  4.42397986E-06 -3.11388318E-07
 -6.42531712E-10  1.50320603E-07  2.81957074E-07 -8.91004778E-05 -1.67731842E-01
  5.03314219E-09 -2.00092343E-06 -4.20391602E-04 -7.90962049E-01  2.38715239E-08
  1.48429260E-05  2.12677625E-03  3.99959727E+00 -1.20419882E-07 -3.71512817E-06
  5.93342257E-04  1.11654902E+00 -3.31976895E-08 -1.61095558E-07 -5.99256665E-09
 -1.90807585E-05 -2.25705366E-04  6.30007743E-02  4.02085997E-03  6.39839734E-03
  5.66995957E-02 -6.26422668E-03 -1.15725744E-05 -1.00080750E-02  1.57452009E-01
  7.55248170E-02 -3.30442007E-05  1.21134761E+00  3.46012276E-01  1.77730821E-01
 -1.02371062E-05  3.64548981E+00  7.67493414E-01  1.28430780E+00 -1.23323779E-04
 -1.48332018E-02  2.95088072E-06 -1.47637304E-06 -3.16869599E-02  2.25620834E-02
 -4.01367753E-03 -6.38700031E-03 -5.69090376E-02 -6.55651813E-03  1.15585153E-05
  9.99153907E-03 -1.57934560E-01  7.47134715E-02  3.29978913E-05 -1.20919182E+00
 -3.47069469E-01  1.75963999E-01  1.02470761E-05 -3.63897698E+00 -7.68875293E-01
  1.28036526E+00  1.23110194E-04  1.48069255E-02 -2.96289162E-06 -1.48934166E-06
  3.16385082E-02  2.25927864E-02 -7.16031576E-06 -1.14038042E-05  1.46983947E-04
 -1.04807582E-01  1.75467236E-08  1.82874069E-05  4.57384638E-04 -1.98014273E-01
  4.75290746E-08 -2.16867432E-03  1.02035772E-03 -4.23066813E-01 -7.47638958E-09
 -6.51137608E-03  2.72014260E-03 -4.81852640E-02  1.35991553E-07  2.66155511E-05
  8.50386191E-09 -5.25010682E-06  2.41012131E-06 -3.22868851E-02  4.18232064E-08
  3.59610481E-06  1.67675970E-01 -8.91435052E-05 -3.46786536E-06 -1.28284834E-04
  7.90991274E-01 -4.20462274E-04 -1.63712465E-05 -2.87166398E-05 -4.00071343E+00
  2.12518671E-03  8.28563470E-05  5.24425983E-04 -1.11743140E+00  5.93689883E-04
  2.30755286E-05  1.90065326E-05  1.64926261E-05 -1.29222843E-08  6.30264496E-02
  2.25773701E-04 -2.31036007E-03 -3.67517970E-03  7.21437394E-02 -5.68054472E-02
  4.49770708E-06  5.71170078E-03  1.07330833E-01 -1.57641671E-01  1.49393013E-05
 -6.97035214E-01  2.24292544E-01 -3.45887563E-01 -2.91078848E-06 -2.09730346E+00
 -3.93180166E-01 -7.66663323E-01  7.00350882E-05  8.53465603E-03  4.89232314E-06
 -2.17742990E-06 -1.39851866E-02 -3.16706018E-02 -2.32278867E-03 -3.69495457E-03
  7.18521139E-02  5.69320675E-02  4.53375091E-06  5.74269045E-03  1.06521197E-01
  1.58091902E-01  1.50421956E-05 -7.00782470E-01  2.22514063E-01  3.46889945E-01
 -2.87795402E-06 -2.10858173E+00 -3.97121604E-01  7.69829706E-01  7.04195146E-05
  8.58056223E-03  4.87883052E-06  2.18277493E-06 -1.40159931E-02  3.16836012E-02
  4.62894282E-03  7.36621341E-03 -2.63779592E-02 -1.89106163E-04 -1.14612396E-05
 -1.15981039E-02 -1.66131437E-01 -4.75502194E-04 -3.09432920E-05  1.39803026E+00
 -3.78113858E-01 -1.03980016E-03  4.34170518E-06  4.20534401E+00 -1.72531686E+00
 -1.82935077E-03 -8.81156742E-05 -1.71248002E-02 -2.08863417E-06 -1.02769697E-08
  4.08573211E-02  3.30846854E-05  6.88479434E-02  1.35565780E-01  1.17603810E-04
  7.92576491E-07 -1.03572286E-05 -1.16552517E+00  2.36515200E-04  2.69209020E-06
 -6.88198517E-06  6.50876462E+00 -2.16872962E-03 -1.55258291E-05  2.44910362E-04
  4.55659477E-01 -3.97437571E-04 -5.41285078E-06  1.14807953E-04 -4.70373438E-02
 -1.68491597E-06 -1.51170519E-09 -3.45304332E-05 -1.23179213E-07 -1.35355803E-03
 -6.41477499E-03  6.42752876E-02  1.11585055E-01 -7.71034406E-06  1.59678861E-01
  1.70737413E-01  2.96406193E-01 -1.80668966E-05 -1.55401141E+00 -8.31750324E-01
 -1.44436387E+00  4.98115689E-05 -6.50474729E-01  1.78988900E-02  3.12606451E-02
 -4.87237062E-05  3.71987056E-02  3.42533296E-06  3.90963952E-06  3.99912161E-03
 -6.88317893E-03 -1.35345727E-03 -6.41460045E-03  6.45023705E-02 -1.11454089E-01
 -7.71082249E-06  1.59678087E-01  1.71340995E-01 -2.96059361E-01 -1.80682193E-05
 -1.55400066E+00 -8.34683761E-01  1.44266858E+00  4.98167301E-05 -6.50445740E-01
  1.79686181E-02 -3.12343508E-02 -4.87247812E-05  3.71985014E-02  3.43331353E-06
 -3.90288641E-06  3.97085850E-03  6.89914750E-03 -1.33418437E-03 -6.37954421E-03
 -1.28730254E-01 -1.30603784E-04 -3.71509038E-06  1.59467669E-01 -3.42127821E-01
 -3.47290284E-04 -7.45583978E-06 -1.55192813E+00  1.66602971E+00  1.69533892E-03
 -2.01101654E-06 -6.47279909E-01 -3.73880471E-02 -3.76698388E-05 -4.76615817E-05
  3.71615398E-02 -2.84697409E-06 -2.97532900E-09 -7.91745775E-03 -1.60248174E-05
  8.14821324E-02  1.78341964E-01 -1.27853772E-05 -2.04282524E-07  4.51875247E-07
 -1.74466410E+00 -2.50167795E-04 -1.36359221E-06 -1.03429418E-05  3.25177292E+00
 -2.27629910E-04  5.34414114E-06  2.00094786E-06  1.53951773E+00  1.27879292E-03
  7.06503724E-06  1.26186193E-04  1.31151825E-01  4.71535960E-06  4.37637539E-09
 -5.55856344E-05 -7.32687093E-09 -7.50328428E-03 -1.22505137E-02 -2.95405355E-02
 -5.11423779E-02 -1.12153059E-05  4.80089954E-02 -1.49278789E-01 -2.58690569E-01
 -2.70315291E-05 -3.13415530E-01  1.93762399E-01  3.35312671E-01  6.51871148E-05
 -8.59688614E-01 -3.66180447E-01 -6.34605026E-01 -3.16806533E-05  3.62108924E-02
  4.12141731E-06  6.61551249E-06  2.40324774E-02 -4.14423506E-02 -7.50327547E-03
 -1.22505070E-02 -2.96444827E-02  5.10819942E-02 -1.12151842E-05  4.80092771E-02
 -1.49804413E-01  2.58385664E-01 -2.70308210E-05 -3.13418892E-01  1.94441173E-01
 -3.34913768E-01  6.51865751E-05 -8.59701807E-01 -3.67471936E-01  6.33859349E-01
 -3.16782174E-05  3.62108135E-02  4.13498801E-06 -6.60741203E-06  2.38637407E-02
  4.15397292E-02 -7.51284283E-03 -1.22679501E-02  5.90979541E-02  5.99329224E-05
 -1.31444581E-05  4.81121266E-02  2.98762384E-01  3.03328037E-04 -3.66085691E-05
 -3.12909753E-01 -3.87535405E-01 -3.93901797E-04  7.77832320E-05 -8.61132349E-01
  7.32765626E-01  7.43401325E-04 -5.47480329E-05  3.61909337E-02 -4.34597793E-06
 -4.45528126E-09 -4.79011372E-02 -9.74308404E-05  3.63414277E-10  8.14125704E-10
 -9.29250329E-07 -1.26658563E-04  2.94558156E-07 -9.07348560E-09 -1.63026855E-06
 -2.22170993E-04 -5.73394103E-08 -2.21088421E-09  3.49515596E-05  4.76367553E-03
 -3.71222558E-06  6.80105880E-09  2.40703423E-06  3.28218202E-04  6.93672400E-06
  3.47047917E-09 -6.79933555E-05 -9.24257179E-03  1.46415106E-07 -1.44243229E-05
 -1.61837616E-05 -2.69319916E-05 -1.40116619E-04 -6.18400751E-05 -1.92810284E-01
  6.31431741E-05 -4.72508771E-04 -1.83722988E-04 -6.11490048E-01  1.99799433E-03
  1.95427810E-03  1.28106144E-03  1.21773735E+00  2.43334604E-03 -1.80160851E-04
  5.04033427E-04 -7.18745261E-01 -8.35517874E-06 -5.10401527E-04 -1.17490199E-02
 -1.35024810E-05  5.06019739E-07  1.60283931E-05  2.66734396E-05  1.41830547E-04
 -5.92658030E-05  1.90967255E-01 -6.25370323E-05  4.78679951E-04 -1.75024684E-04
  6.05644895E-01 -1.97880687E-03 -1.97288481E-03  1.24469071E-03 -1.20609519E+00
 -2.41000064E-03  1.90717353E-04  5.07261039E-04  7.11871135E-01  8.28159213E-06
  3.47273147E-04 -1.17410076E-02  1.37485981E-05  3.34514931E-07  1.55394631E-07
  2.58611522E-07 -1.30728401E-06  1.76680809E-04  1.84208416E-03 -6.06684325E-07
 -4.24072036E-06  6.22356278E-04  5.84166417E-03 -1.91727475E-05  2.17826924E-05
 -2.09375370E-03 -1.16313156E-02 -2.33560632E-05  2.73224688E-06  8.00617957E-04
  6.86333570E-03  8.40456005E-08 -8.82693398E-05 -1.09877819E-02 -2.64052521E-08
 -2.31373728E-05 -5.05981868E-08 -1.11581870E-07  1.27356124E-04 -9.24718170E-07
 -2.62953106E-05  1.17730876E-06  2.23430176E-04 -1.62207393E-06  2.58630339E-06
 -8.40227634E-07 -4.79009359E-03  3.47772729E-05  3.45222112E-04 -1.21942452E-06
 -3.29789271E-04  2.39565379E-06 -6.33448254E-04 -4.20731533E-07  9.32650173E-03
 -6.75187322E-05 -1.40909197E-05 -1.48694466E-07  9.21768541E-06  1.53394927E-05
 -9.70463841E-05  1.37094735E-04  1.09227900E-01 -3.59703907E-05 -3.53854681E-04
  4.63525134E-04  3.46407606E-01 -1.13788661E-03  9.83630090E-04 -1.93722697E-03
 -6.89916517E-01 -1.38455545E-03 -6.98923134E-04  1.75239415E-04  4.07315181E-01
  4.35098717E-06  1.12406502E-02  3.38184712E-04 -1.50075536E-05 -1.36815803E-05
  9.48581270E-06  1.57856991E-05 -9.44198371E-05 -1.38297721E-04  1.12418923E-01
 -3.70167371E-05 -3.44991751E-04 -4.67222662E-04  3.56527718E-01 -1.17098324E-03
  9.46980172E-04  1.96021321E-03 -7.10069754E-01 -1.42486508E-03 -6.95486397E-04
 -1.68240883E-04  4.19210136E-01  4.48942355E-06  1.12485856E-02 -5.10589987E-04
 -1.48361941E-05  1.36278062E-05 -1.87046988E-05 -3.11289327E-05  1.35732956E-04
  1.60860966E-06 -2.21554289E-01  7.30263516E-05  4.34270449E-04  5.62172233E-06
 -7.02597399E-01  2.30787545E-03 -2.36573473E-03 -1.98328841E-05  1.39896460E+00
  2.81140305E-03 -4.26921520E-04  6.22984225E-06 -8.25534569E-01 -1.01223007E-05
  1.19583292E-02 -7.91940270E-05  8.84276266E-06 -1.74602992E-07  2.20099189E-05
  4.92046262E-05 -1.19318426E-01 -7.64351198E-05  2.43934255E-06 -5.62986388E-04
 -2.12503696E-01 -1.36109099E-04  4.39046849E-06 -3.15901192E-04  4.34214863E+00
  2.78184618E-03 -8.95899558E-05  4.81419008E-04  4.33606850E-01  2.78690864E-04
 -9.67931077E-06  4.48334349E-05 -6.61841376E-06 -4.66219952E-09  1.39238274E-02
  3.35357030E-05 -8.83256805E-03 -1.48619478E-02  7.12789013E-02 -1.10750690E-01
  1.29935615E-04  3.97646944E-02  2.70786186E-01 -3.80557172E-01  4.16838225E-04
  1.02126043E+00 -7.86417999E-01  1.68773216E+00 -8.81384486E-04  1.37891948E+00
  5.90282895E-01 -8.42379398E-02  4.60293526E-04 -3.71136958E-03  7.37543602E-06
  7.63905806E-06  1.58924803E-02  1.44243903E-02 -8.84410399E-03 -1.48813609E-02
  7.09699393E-02  1.10938001E-01  1.30111220E-04  3.98167235E-02  2.69724411E-01
  3.81234010E-01  4.17403024E-04  1.02259007E+00 -7.81710143E-01 -1.69020257E+00
 -8.82600154E-04  1.38071543E+00  5.90045505E-01  8.50669948E-02  4.60918713E-04
 -3.71618993E-03  7.39689391E-06 -7.63695345E-06  1.59401282E-02 -1.43601547E-02
  1.76835870E-02  2.97565445E-02 -1.20785047E-01 -1.73546697E-04 -2.60391853E-04
 -7.96662788E-02 -3.89257042E-01 -5.79856787E-04 -8.36997923E-04 -2.04260859E+00
  2.14087971E+00  2.83813244E-03  1.75086426E-03 -2.76041733E+00  4.44237575E-01
  2.11820798E-04 -9.53787101E-04  7.43438678E-03  2.20169859E-05  2.09160127E-08
 -9.04747680E-03 -9.31567961E-06 -6.15547260E-08 -1.22893950E-07  7.64137275E-05
 -1.19341085E-01  6.23087058E-10  7.98884319E-07  1.36077903E-04 -2.12496332E-01
  1.30336421E-09 -9.46461459E-06 -2.78024488E-03  4.34192373E+00 -2.52740998E-08
 -3.58220317E-06 -2.77128672E-04  4.34406308E-01 -4.84654990E-09  1.26524935E-08
  3.51905271E-09 -6.18944845E-06  3.36722284E-05 -1.39626399E-02 -1.53151191E-02
 -2.57708344E-02 -1.10754045E-01 -5.69864388E-02  2.28871828E-04  6.89891976E-02
 -3.80624088E-01 -1.69995078E-01  7.36309506E-04  1.76984212E+00  1.68752236E+00
  1.16827920E+00 -1.58315399E-03  2.39246926E+00 -8.45996802E-02  4.92975407E-01
  8.15989100E-04 -6.43070060E-03  7.98832381E-06  1.69434494E-05 -1.44099521E-02
  7.02609563E-04  1.53084818E-02  2.57596677E-02  1.10923077E-01 -5.66774842E-02
 -2.28776105E-04 -6.89594358E-02  3.81172071E-01 -1.68933694E-01 -7.36002185E-04
 -1.76906761E+00 -1.69048177E+00  1.16357189E+00  1.58250518E-03 -2.39142385E+00
  8.40413782E-02  4.93208995E-01 -8.15646450E-04  6.42782333E-03 -8.01738006E-06
  1.69212665E-05  1.44189328E-02  7.50319199E-04  6.66049103E-06  1.12088512E-05
 -1.82807840E-04  1.35102486E-01 -9.56068010E-08 -3.00731719E-05 -6.44903071E-04
  4.90123322E-01 -3.07323018E-07 -7.67787656E-04  2.59359589E-03 -1.75874588E+00
  6.41989490E-07 -1.03926744E-03 -4.82352583E-04  6.38690070E-01 -3.49231786E-07
  2.76413397E-06  4.39154398E-09  3.69288057E-06  4.58966987E-05 -2.42321592E-02
 -6.34056386E-06 -1.47628621E-05  1.07216998E-06  1.04107276E-09  5.15714554E-02
  1.60357280E-04  1.63827917E-06  1.61728256E-09  7.80292604E-02 -3.15676903E-04
 -2.41904950E-05 -2.34459052E-08 -1.16635402E+00  4.24980573E-04  4.80102399E-05
  4.31716397E-08  2.32070561E+00 -1.87663053E-05  3.32171166E-05  1.64204567E-07
  2.36061374E-11  5.17766342E-11 -2.07702774E-06 -4.20022863E-06 -3.32159877E-06
 -7.93568841E-07 -1.38412289E-01  3.07557778E-05 -7.02728037E-06  5.52925519E-06
 -4.93502847E-01  3.74002173E-05  4.37522588E-05  2.62464838E-05  1.38336205E+00
 -1.57049511E-04 -3.30065016E-05 -1.07818314E-05 -1.29509758E+00 -9.07406337E-07
 -1.57250293E-02 -2.72925309E-02 -2.52608465E-06  3.23133472E-06 -2.07702719E-06
 -4.20022497E-06 -3.32336219E-06  7.87304220E-07 -1.38412493E-01  3.07556723E-05
 -7.01658032E-06 -5.54177367E-06 -4.93503443E-01  3.74008051E-05  4.38072134E-05
 -2.61629116E-05  1.38336253E+00 -1.57045997E-04 -3.30287991E-05  1.07188727E-05
 -1.29509726E+00 -9.07223645E-07 -1.57804818E-02  2.72604661E-02 -2.51285986E-06
 -3.24150159E-06 -2.07597514E-06 -4.19810188E-06 -1.95886996E-06 -1.62322934E-09
 -1.38492616E-01  3.07365083E-05 -1.66304301E-05 -1.56022313E-08 -4.93750411E-01
  3.73893258E-05 -1.57953756E-06 -4.92889314E-09  1.38371402E+00 -1.56899571E-04
 -1.44393170E-05 -1.13753687E-08 -1.29521339E+00 -2.60357459E-06  3.14974517E-02
  3.20349029E-05  5.04185516E-06  1.01628112E-08 -6.15075072E-09 -1.34956198E-08
 -1.42492650E-06  1.67749790E-04  5.21884709E-11  1.32634829E-07  1.64103216E-07
  8.21704034E-06  3.25968907E-11  5.27570087E-08  3.05792954E-05 -3.82215533E-03
 -1.20122300E-09  4.61998105E-07  8.11482227E-05 -1.04186090E-02 -1.01410790E-10
 -2.85977877E-08 -7.81716363E-11  2.41543896E-09  1.66352727E-06  3.20473766E-04
  8.38181327E-06  9.75201584E-06 -1.24680928E-01  7.20843553E-02  2.60594754E-06
  1.05769398E-04 -4.41243986E-01  2.55221566E-01  9.21297876E-06 -1.12155833E-03
  1.00163400E+00 -5.81290227E-01 -2.08293055E-05 -1.06255546E-02 -8.17885404E-01
  4.70715900E-01  1.73377482E-05 -6.55151176E-05  1.01733519E-06  3.43557004E-07
 -3.91456735E-02 -2.26806384E-02 -8.42480621E-06 -9.78566432E-06  1.24530576E-01
  7.23379511E-02 -2.60594822E-06 -1.06909239E-04  4.40711347E-01  2.56119537E-01
 -9.21291633E-06  1.13115333E-03 -1.00041736E+00 -5.83341933E-01  2.08287076E-05
  1.07090960E-02  8.16893266E-01  4.72356058E-01 -1.73399720E-05  6.60123797E-05
 -1.01821048E-06  3.41262983E-07  3.92370216E-02 -2.25207339E-02  4.79051475E-08
  4.31789310E-08  1.44114387E-04 -1.43660206E-01 -1.26198913E-10  1.08257746E-06
  5.09475901E-04 -5.08444126E-01 -4.96865717E-10 -9.51224523E-06 -1.14448251E-03
  1.15551161E+00  1.69149482E-09 -8.42154164E-05  9.56814410E-04 -9.38527528E-01
  5.58389601E-10 -4.98064326E-07  8.02787706E-10 -6.74401455E-07 -9.16245015E-05
  4.51416129E-02  2.32792153E-05  4.99070378E-05  8.90469723E-02 -4.60303679E-05
 -1.84856727E-06 -3.62969974E-04 -1.90195528E-02  9.93882213E-06  3.96698343E-07
  2.13248748E-03 -1.71147850E+00  8.84435679E-04  3.55539333E-05  8.73013834E-04
 -4.98831068E+00  2.58184289E-03  1.03315785E-04  2.99819734E-05  3.12008619E-06
  8.53256679E-09 -1.55193979E-01 -5.53782501E-04  1.22520581E-03  8.02221382E-04
  1.32057022E-01  2.64114379E-03  3.81800722E-06  3.84417236E-02  4.72316811E-01
  2.79760471E-02  1.12454559E-05 -2.85663344E-01 -1.19350664E+00 -4.98266980E-01
 -1.33183192E-06 -2.92921538E+00  1.20212666E+00 -7.88611107E-01  8.50023409E-05
 -1.76870258E-02  2.69337924E-06 -3.73442829E-06  1.91631420E-02  1.82640521E-02
  1.23175219E-03  8.06524288E-04  1.32075185E-01 -2.78496194E-03  3.85268174E-06
  3.86463639E-02  4.72476288E-01 -2.85569477E-02  1.13553592E-05 -2.87181811E-01
 -1.19608972E+00  5.01254413E-01 -1.43665894E-06 -2.94482298E+00  1.19812484E+00
  7.90180516E-01  8.56403187E-05 -1.77814101E-02  2.67313023E-06  3.74056621E-06
  1.91824787E-02 -1.81926920E-02 -2.46265021E-03 -1.61768146E-03  1.36769396E-01
 -6.36348259E-05 -1.59764273E-05 -7.69978874E-02  5.21568646E-01 -1.78139985E-04
 -5.29668190E-05  5.71418074E-01 -2.05999300E+00 -6.84360989E-04  9.49442647E-05
  5.87260603E+00 -1.67050199E-01 -2.72643892E-03 -2.16749568E-04  3.55178344E-02
 -5.77813162E-07 -1.03070790E-08 -1.24802837E-02  2.09349230E-05 -1.54206238E-07
 -3.28604434E-07 -4.61552733E-05 -8.90941071E-02  2.70509130E-09  2.59458957E-06
  9.80592917E-06  1.89203452E-02 -5.56831135E-10 -1.34916689E-05  8.87425653E-04
  1.71189394E+00 -5.21793221E-08 -4.85218520E-06  2.58293056E-03  4.98843455E+00
 -1.48868081E-07 -1.82123805E-07 -8.41811966E-09  3.33425804E-06  5.53615272E-04
 -1.55154764E-01 -2.12737015E-03 -1.38923489E-03 -3.03931681E-03 -1.35069297E-01
 -1.13261716E-05 -6.68543156E-02 -2.93927451E-02 -5.04696656E-01 -3.59390506E-05
  4.96175128E-01  5.01717850E-01  1.77200176E+00  3.48824676E-05  5.09197540E+00
  7.86472887E-01 -2.85681000E-01 -2.07280272E-04  3.07695025E-02  4.08221041E-06
  2.09692302E-07  1.81450284E-02 -1.91707491E-03  2.12364164E-03  1.38684218E-03
  2.90864719E-03 -1.35054853E-01  1.13138735E-05  6.67353407E-02  2.89694398E-02
 -5.04550931E-01  3.59023258E-05 -4.95290187E-01 -5.01651046E-01  1.76944527E+00
 -3.48712980E-05 -5.08295416E+00 -7.89569848E-01 -2.89706415E-01  2.07016331E-04
 -3.07152423E-02 -4.09088982E-06  1.90223681E-07 -1.81961519E-02 -1.93526645E-03
  3.78481130E-06  2.49347844E-06 -7.69049254E-05 -1.30803322E-01  2.42285471E-08
  1.18043046E-04 -3.35755028E-04 -4.57126108E-01  8.02761360E-08 -8.76085673E-04
  2.23710738E-03  9.08571290E-01 -1.43539863E-07 -9.01291243E-03  1.94200145E-03
 -1.65755503E+00  3.29160321E-07 -5.45545400E-05  7.32888272E-09 -6.27211243E-06
 -4.13597032E-05  2.97724474E-02  1.81908858E-02  4.50467816E-02 -3.77106856E-05
 -1.50703776E-07  6.69304124E-06 -3.42805090E-01  7.02065701E-05  1.97843048E-07
 -1.16439710E-05 -1.26533912E+00  1.49438957E-03  6.13520034E-06 -1.47714164E-04
  7.45679893E+00 -7.40119818E-04 -2.84174265E-06  3.84319415E-04  2.99683576E-02
  1.03591868E-06  8.55948149E-10  1.21031165E-04 -1.80354773E-07  6.94733666E-02
  1.42786589E-01  1.11153904E-02  1.92823728E-02 -5.61277730E-06 -1.20922758E+00
  1.61305359E-02  2.79952131E-02 -1.96192500E-05  2.73642452E+00  2.31808776E-01
  4.02859102E-01  6.41454061E-05 -3.72670674E+00 -4.00002758E-01 -6.94476922E-01
 -8.01591658E-05 -3.32078718E-03 -2.21756701E-06 -2.14125069E-06  2.07303141E-02
 -3.57766734E-02  6.94732393E-02  1.42786319E-01  1.11545750E-02 -1.92596280E-02
 -5.61283851E-06 -1.20922487E+00  1.61872579E-02 -2.79618215E-02 -1.96193716E-05
  2.73641381E+00  2.32625140E-01 -4.02384909E-01  6.41443831E-05 -3.72669823E+00
 -4.01413252E-01  6.93661432E-01 -8.01568142E-05 -3.32075478E-03 -2.22184802E-06
  2.13673925E-06  2.05845864E-02  3.58606482E-02  6.94311425E-02  1.42697934E-01
 -2.22370121E-02 -2.25574005E-05 -4.91945109E-06 -1.20837776E+00 -3.21702063E-02
 -3.25735105E-05 -1.86271350E-05  2.73329752E+00 -4.63972504E-01 -4.72961508E-04
  7.86856120E-05 -3.72418478E+00  8.01075053E-01  8.15090556E-04 -1.05109515E-04
 -3.31044959E-03  4.09250624E-06  4.21673523E-09 -4.13299517E-02 -8.40478671E-05
  1.73912220E-08  3.00209143E-08  1.21441188E-05  6.44583695E-02 -1.46838355E-09
  2.02971684E-07 -4.90830440E-05 -2.61004913E-01  6.11367713E-09  2.87323327E-06
 -4.50036462E-04 -2.39060701E+00  5.53730617E-08  8.45590839E-06  7.23409265E-04
  3.84776905E+00 -8.87122319E-08 -1.98857581E-07  4.02153135E-08  1.60238102E-04
 -6.32400489E-04  1.95300759E-01 -8.28770505E-02 -1.70940231E-01  3.33216019E-03
 -1.25075584E-02  6.07867592E-06  1.52238537E+00  1.88288869E-02 -5.40150537E-02
 -1.52939002E-05 -4.15668310E+00 -8.27451546E-01 -6.41260900E-01  1.75429047E-04
  5.50771086E+00  8.81039687E-01  7.47984457E-01 -1.58955705E-04 -3.15625902E-02
 -3.79440036E-05 -4.06064322E-05 -3.66299280E-03  4.11677730E-02  8.27620435E-02
  1.70703026E-01 -3.34612233E-03 -1.25223933E-02 -6.06932315E-06 -1.52027246E+00
 -1.89021249E-02 -5.40981587E-02  1.52769115E-05  4.15090763E+00  8.29516372E-01
 -6.37581027E-01 -1.75226944E-04 -5.50006275E+00 -8.83215075E-01  7.44068938E-01
  1.58776142E-04  3.15189110E-02  3.80339476E-05 -4.04402294E-05  3.40626248E-03
  4.11739531E-02  1.15303664E-04  2.37824430E-04  5.85381219E-06 -1.82887659E-02
 -8.30918854E-09 -2.11790495E-03  3.65344615E-05 -8.67619361E-02  2.16718391E-08
  5.78083644E-03 -2.15617034E-03  7.95394360E-01 -1.90589694E-07 -7.66131853E-03
  2.30901217E-03 -7.81721876E-01  1.62638051E-07  4.39148016E-05 -9.47045162E-08
  2.35446778E-05 -1.23573169E-04  3.51012495E-02 -3.33720600E-06 -6.27204515E-06
 -6.44341300E-02  1.20395630E-05  1.32734641E-06 -4.37384551E-05  2.60934066E-01
 -4.89886644E-05 -5.42283399E-06 -4.37228165E-04  2.39028206E+00 -4.47575167E-04
 -4.95063129E-05 -1.85548284E-03 -3.84846382E+00  7.22221904E-04  7.96421106E-05
  2.39761720E-05 -1.68559100E-04  2.15032684E-08  1.95185381E-01  6.32154260E-04
  4.76948446E-02  9.83737507E-02  1.63625876E-02 -3.33598476E-03 -3.88195221E-06
 -8.76111658E-01  7.58902160E-02 -1.88364678E-02  7.02358099E-06  2.39245554E+00
 -3.19092119E-01  8.27137228E-01 -8.46074901E-05 -3.17016472E+00  2.74697348E-01
 -8.80686995E-01  7.53936700E-05  1.81425152E-02 -3.16354188E-06  3.69886204E-05
  3.71142876E-02 -3.39101976E-03  4.78943929E-02  9.87853361E-02  1.63477179E-02
  3.33905273E-03 -3.89655671E-06 -8.79777019E-01  7.58062007E-02  1.88607496E-02
  7.06061084E-06  2.40246025E+00 -3.15411834E-01 -8.29321949E-01 -8.50329849E-05
 -3.18342472E+00  2.70777662E-01  8.83039357E-01  7.57797054E-05  1.82185507E-02
 -2.99657301E-06 -3.70928064E-05  3.71086478E-02  3.64125647E-03 -9.56612604E-02
 -1.97309807E-01  1.05834590E-02 -1.12591142E-05  6.87371732E-06  1.75713022E+00
  4.29576087E-02 -6.07816202E-05 -1.81465469E-05 -4.79639528E+00  1.11779074E+00
  2.09456035E-03  1.59525833E-04  6.35648617E+00 -1.25595165E+00 -2.21885870E-03
 -1.36324327E-04 -3.64333521E-02  5.88484311E-05  8.82649911E-08  4.32983011E-02
  1.30329917E-04 -7.07750178E-10 -7.00759432E-10 -3.40939929E-05 -1.06360429E-08
  3.52192690E-05 -1.53021364E-08  5.14887192E-05  1.60734510E-08  6.51002066E-05
 -3.51303414E-07  6.98808591E-04  2.18009445E-07 -1.57382050E-04  1.04314794E-07
 -5.94130446E-04 -1.85259977E-07  2.77190628E-05 -3.12980614E-05  8.71309512E-01
  2.71817226E-04 -4.76305481E-05 -1.57395837E-07  1.03556878E-05  2.13247984E-05
 -5.13338821E-06  3.54672553E-08  2.84490408E-02 -1.90215894E-04  1.03519330E-05
 -1.65657774E-05 -1.03079294E-02  5.46236450E-04 -9.08614515E-05  2.63054018E-04
  1.57974114E-01 -5.11134740E-04  4.64750261E-05 -1.70902736E-04 -8.50159969E-02
  1.84226007E-05 -5.56923198E-03 -1.52160813E-01  4.76073586E-05  1.49177034E-05
  1.03810180E-05  2.13769595E-05 -5.13180554E-06 -3.79761763E-08  2.85184427E-02
 -1.90681131E-04  1.02943508E-05  1.65990902E-05 -1.03335166E-02  5.47571615E-04
 -8.99467504E-05 -2.63534921E-04  1.58360508E-01 -5.12384495E-04  4.58815676E-05
  1.71207979E-04 -8.52239197E-02  1.84757920E-05 -6.09374524E-03  1.52404806E-01
  4.76383256E-05 -1.46805987E-05 -2.07372960E-05 -4.27032836E-05 -6.84094234E-06
 -2.81790174E-09 -5.69130311E-02  3.80895292E-04 -1.78038082E-05 -3.23466342E-08
  2.08035197E-02 -1.09339195E-03  3.55711804E-04  5.35501222E-07 -3.16317477E-01
  1.02340194E-03 -2.44871774E-04 -3.52742173E-07  1.70265591E-01 -2.68126516E-05
 -2.69531927E-01 -3.31924619E-04  1.10554823E-05  6.27164950E-08 -5.28028215E-12
 -7.27489303E-12  1.06373609E-08 -3.40678771E-05  1.24758478E-07 -2.72197473E-11
 -1.60267119E-08  5.14498965E-05  2.60267667E-07 -1.74652893E-09 -2.17865748E-07
  6.98092817E-04 -5.51365271E-07  2.69471314E-11  1.85052623E-07 -5.93179525E-04
  7.43317345E-08 -1.93461837E-08 -2.71904000E-04  8.71279447E-01 -2.02386900E-07
  8.37551581E-05  1.79442380E-05  3.69516940E-05  1.06401000E-06 -5.67209686E-06
  4.93656278E-02 -3.29611401E-04 -1.69256849E-05 -8.64269408E-06 -1.78536315E-02
  9.46418126E-04  2.68426207E-04  2.10552073E-04  2.73917142E-01 -8.85466791E-04
 -1.73717647E-04 -1.49713976E-04 -1.47448144E-01  3.70823354E-05 -1.52100479E-01
 -1.81904871E-01 -2.10131273E-05 -3.07808648E-05 -1.79296456E-05 -3.69216450E-05
 -1.05967765E-06 -5.67413845E-06 -4.93252651E-02  3.29343294E-04  1.69578912E-05
 -8.58506233E-06  1.78397317E-02 -9.45647004E-04 -2.68980582E-04  2.09635681E-04
 -2.73694574E-01  8.84746442E-04  1.74086612E-04 -1.49120338E-04  1.47328376E-01
 -3.70574333E-05  1.52461442E-01 -1.81380530E-01  2.12046094E-05 -3.07164361E-05
 -1.45920562E-08 -3.00489013E-08  1.02014891E-09 -5.73270482E-06 -4.01403903E-05
  2.68024785E-07 -3.30059971E-08  2.01320733E-05  1.46159215E-05 -7.69313966E-07
  4.99876424E-07 -2.45475522E-04 -2.22764048E-04  7.20469763E-07 -3.21430941E-07
  1.46512142E-04  1.19975199E-04 -1.86486688E-08 -2.73394700E-04  8.20248547E-02
  1.22606028E-07 -5.63856944E-05  8.25339733E-05  1.70770751E-04  1.37630716E-01
 -3.05442541E-05 -2.81084515E-06 -2.02354674E-03 -3.42088422E-01  7.60793404E-05
  7.04851660E-06  7.24973140E-03  2.62337301E+00 -5.81822247E-04 -5.40054710E-05
 -1.32641699E-03  5.52436688E-01 -1.22632628E-04 -1.14748934E-05 -2.41468983E-03
  1.07031252E-04 -7.30906355E-08  9.26221584E-01  3.03125285E-03 -1.47449513E-02
 -2.74639786E-02  9.09655656E-02  1.66297695E-02  6.77578846E-07  1.40620870E-01
  1.12043715E-01  1.03074727E-01 -6.55057534E-06  5.69262011E-01 -1.88376449E-01
  3.96686884E-01 -1.43337938E-05  9.45136943E-01  1.45667242E-01  2.89048868E-01
 -2.69936374E-05 -5.55006252E-03  1.93176521E-05 -2.37902205E-05 -1.72579171E-01
 -1.87460780E-01 -1.48084605E-02 -2.75822363E-02  9.10409870E-02 -1.67187640E-02
  6.87550825E-07  1.41225205E-01  1.12509962E-01 -1.03421934E-01 -6.57458987E-06
  5.71718984E-01 -1.86581398E-01 -3.97742948E-01 -1.44338806E-05  9.49200101E-01
  1.46973133E-01 -2.89942438E-01 -2.71125532E-05 -5.57205032E-03  1.91908901E-05
  2.38672291E-05 -1.72875911E-01  1.86866025E-01  2.95981663E-02  5.51067949E-02
  1.20392764E-01  2.17121109E-05 -7.55070096E-06 -2.81262564E-01  2.92364197E-01
  2.32277315E-04  2.51006907E-06 -1.14820145E+00  5.03813213E-01  1.02826940E-03
  2.60053120E-05 -1.89309166E+00  6.47772283E-01  6.84695870E-04  3.45664662E-05
  9.87662669E-03 -3.45966335E-05 -6.77191186E-08  1.51718351E-01 -3.90894897E-05
  3.86536745E-07  8.01497416E-07  3.06803797E-05  1.37802749E-01 -3.09268747E-09
 -9.55020476E-06 -7.60197575E-05 -3.42143281E-01  7.97734270E-09  3.43682460E-05
  5.84714441E-04  2.62354381E+00 -6.09715464E-08 -7.45485724E-06  1.23055871E-04
  5.52819603E-01 -1.33921872E-08 -1.16433993E-05 -1.72820702E-08  1.45483668E-04
  3.03185446E-03 -9.26357054E-01 -2.56484102E-02 -4.77672531E-02  1.68097100E-02
  1.10524981E-01  4.05564131E-06  2.44183750E-01  1.03575100E-01  2.32452272E-01
 -9.55114336E-06  9.92875328E-01  3.97683738E-01  2.73602477E-01 -3.98878549E-05
  1.64235166E+00  2.89381145E-01  4.81644793E-01 -4.76280719E-05 -8.99910083E-03
 -3.17911418E-05 -1.51220841E-05  1.87147613E-01 -4.34054256E-02  2.56118863E-02
  4.76991574E-02 -1.68095621E-02  1.10450532E-01 -4.05333510E-06 -2.43832889E-01
 -1.03770704E-01  2.31987796E-01  9.53597674E-06 -9.91477707E-01 -3.98706411E-01
  2.71814755E-01  3.98529501E-05 -1.63999796E+00 -2.89996291E-01  4.80337500E-01
  4.75626182E-05  8.98229250E-03  3.18688012E-05 -1.49970619E-05 -1.87398862E-01
 -4.37036428E-02  3.67264580E-05  6.83624422E-05  6.69822643E-05  8.13377157E-02
 -9.13691046E-09 -3.47935981E-04  3.10488366E-04  5.25160199E-02  3.28008898E-09
 -1.43280556E-03  1.05228554E-03 -4.16590280E-01  3.13749816E-08 -2.34601643E-03
  8.24452827E-04 -2.09028856E-02  4.27750870E-08  1.09527402E-05 -6.85587697E-08
  2.60254927E-05 -3.82852250E-04  2.80793359E-01  2.75441696E-02  6.07717603E-02
 -4.60502884E-04 -2.12638282E-06  2.33165654E-05 -8.15506073E-01  8.25266213E-04
  3.73737455E-06 -2.34969886E-05  3.30106387E+00 -7.59711347E-03 -3.28957076E-05
  1.72621374E-04 -2.48957760E-01 -1.54929696E-03 -7.80564671E-06 -1.53697324E-05
 -1.02793327E+00 -3.72105349E-05 -3.60261291E-08 -2.35428668E-03  3.51059201E-06
  9.52707737E-03  1.64090687E-02 -3.29802383E-02 -5.69002553E-02  1.20054814E-05
  7.42165479E-03 -1.01950868E-01 -1.76763079E-01  1.58605986E-05 -1.00626540E+00
 -2.17974634E-01 -3.80491768E-01 -7.21124583E-06  1.32539543E-02 -1.95776347E-02
 -3.40208471E-02  2.59802007E-07 -1.72108722E-01 -2.87233454E-05 -3.96749552E-05
 -9.04788658E-03  1.68375041E-02  9.52660985E-03  1.64081652E-02 -3.30957018E-02
  5.68312889E-02  1.20057508E-05  7.42659982E-03 -1.02308013E-01  1.76550856E-01
  1.58609666E-05 -1.00624567E+00 -2.18740066E-01  3.80042129E-01 -7.21062692E-06
  1.32883122E-02 -1.96407840E-02  3.39712012E-02  2.58933277E-07 -1.72108599E-01
 -2.88045918E-05  3.96178220E-05 -8.97621697E-03 -1.68740431E-02  9.41665225E-03
  1.61964929E-02  6.53655698E-02  6.57344822E-05  9.98666907E-06  8.53392028E-03
  2.02827375E-01  2.05815824E-04  9.48766526E-06 -1.00083913E+00  4.36135193E-01
  4.47496332E-04 -2.09371131E-05  2.14313870E-02  3.64428390E-02  3.73789150E-05
 -1.11039803E-06 -1.72085379E-01  3.89805686E-05  3.98935871E-08  1.86886253E-02
  3.53610788E-05 -6.17704842E-10 -1.14039592E-09  2.05377742E-07 -4.05548264E-05
  2.39735762E-11  6.12962879E-09  4.06170155E-07 -8.76669604E-05 -4.15576990E-11
  4.66205978E-08 -2.87505694E-06  6.17406936E-04  9.64082157E-11  5.92941855E-08
 -7.13201122E-07  1.41837932E-04 -3.87566904E-11  1.83978965E-08  1.96888440E-08
 -3.18237282E-06 -2.41725228E-07 -1.43184092E-04  9.85345362E-07  2.22462088E-06
  6.86665211E-02 -3.95433486E-02  2.55655618E-06 -4.64575960E-05  6.62302117E-03
 -3.78767774E-03 -7.26892743E-07  4.03865065E-04 -9.88690469E-02  5.71316771E-02
  3.74019267E-08  1.09893393E-04  1.81005399E-03 -1.04690495E-03 -6.26028677E-06
  5.00724766E-04  9.31652100E-04 -5.62966551E-04 -4.97778478E-01 -2.88414734E-01
 -9.83166006E-07 -2.22149470E-06 -6.85859356E-02 -3.96828987E-02 -2.58040834E-06
  4.65289811E-05 -6.61534123E-03 -3.80103763E-03  7.30416797E-07 -4.05188351E-04
  9.87525969E-02  5.73334054E-02 -2.53460586E-08 -1.11448326E-04 -1.80797389E-03
 -1.05012571E-03  6.29752572E-06 -5.00234382E-04 -9.29356785E-04 -5.64425056E-04
  4.98947625E-01 -2.86388566E-01 -3.08585465E-09 -4.87646070E-09 -8.06046834E-05
  7.92655965E-02  2.38624043E-08 -5.68047662E-08 -7.87022656E-06  7.62306461E-03
 -3.51923926E-09  1.29230386E-06  1.15579338E-04 -1.14311084E-01 -1.20815363E-08
  1.46842863E-06 -2.43052657E-06  1.98061346E-03 -3.71721987E-08 -6.13746316E-07
 -6.81652181E-07  8.66040955E-04 -1.17105074E-03  5.75481256E-01  2.27226905E-10
  1.29124382E-10 -2.33359693E-05  2.20193554E-08  1.52935556E-05  3.64920635E-09
  1.35417214E-05 -1.26221423E-08 -4.58878136E-05 -8.73192109E-08  2.77268620E-05
 -2.69326782E-08  4.32007925E-05  1.98533601E-08  1.11110687E-04 -1.04832527E-07
 -4.90600705E-05 -6.69867770E-07  1.85691477E-02 -1.74897507E-05  8.24180423E-06
  3.15589647E-08 -1.56862784E-07 -3.48110704E-07 -5.88282256E-07 -3.44470447E-06
 -1.32168645E-02  2.28891086E-06  1.15714738E-06  2.46524621E-06  1.96644898E-03
 -2.70322791E-07  3.06825266E-06  1.05966089E-05  6.59908655E-03  7.31461633E-05
 -1.21251030E-05  1.73515565E-05  2.07871803E-02  3.04539586E-06  6.45887287E-01
 -2.44683273E-01  4.68939145E-05  3.29794788E-05 -1.57931955E-07 -3.50481805E-07
 -4.11003831E-07  3.57592779E-06 -1.33068349E-02  2.30443653E-06  1.19144123E-06
 -2.46735374E-06  1.97983094E-03 -2.71334466E-07  2.84440455E-06 -1.08169753E-05
  6.64403464E-03  7.36444276E-05 -1.20133271E-05 -1.74026986E-05  2.09286089E-02
  3.26604096E-06  6.44301670E-01  2.44498739E-01  4.54032150E-05 -3.20282260E-05
  3.16693557E-07  7.01961332E-07 -5.74503198E-06 -1.24932630E-07  2.65170578E-02
 -4.62544265E-06  5.31971593E-06 -5.15166436E-09 -3.94694433E-03  6.60768817E-07
  2.10276572E-05  1.94786154E-07 -1.32412660E-02 -1.46813621E-04  1.67580189E-05
  5.83068722E-08 -4.16783541E-02 -6.05786479E-05  2.21623020E-01 -1.23926869E-03
 -2.76990023E-05 -8.19933852E-07  2.31282154E-12  2.53080136E-12 -2.19517955E-08
 -2.32853983E-05 -3.14341181E-08  1.98121826E-12  1.27997412E-08  1.34532800E-05
 -1.39087100E-07 -3.76401828E-10  2.58873778E-08  2.80587712E-05  7.40987215E-08
  1.29553176E-10  1.04819769E-07  1.11131586E-04 -1.17149801E-07 -1.27873502E-09
  1.75633314E-05  1.85934921E-02  3.15241605E-08 -7.54163694E-06 -2.75061890E-07
 -6.09502598E-07  1.05371467E-05 -1.26242565E-05 -2.29860702E-02  4.00598080E-06
  3.94172740E-06  3.19029412E-06  3.42061045E-03 -3.64991429E-07 -9.99067229E-06
  2.72713561E-05  1.14939628E-02  1.27318027E-04  1.85022425E-05  7.40642893E-06
  3.61302016E-02  5.51793319E-05 -2.54752240E-01  3.68268221E-01 -1.48240641E-04
 -4.26399038E-05  2.74444828E-07  6.08132363E-07 -1.05133329E-05 -1.26319483E-05
  2.29340475E-02 -3.99697027E-06 -3.94357204E-06  3.17262034E-06 -3.41288519E-03
  3.64098246E-07  9.94666514E-06  2.72495843E-05 -1.14678779E-02 -1.27030403E-04
 -1.85645563E-05  7.30081572E-06 -3.60484365E-02 -5.51638817E-05  2.56531775E-01
  3.69747678E-01  1.48595027E-04 -4.21650580E-05  6.25947070E-10  1.38566564E-09
 -3.01134086E-08  1.85831652E-05  5.19900522E-05 -9.15270962E-09  9.07630025E-09
  1.32969684E-06 -7.75152782E-06  1.41736227E-09  6.91883447E-08 -2.76311156E-05
 -2.59474644E-05 -2.87781053E-07  5.53233285E-08 -2.21072121E-05 -8.17131187E-05
 -1.17321208E-07 -3.52102079E-04  7.73318880E-01 -2.23249007E-07  8.34676352E-05
  9.80284343E-13  1.81708342E-12  2.15974076E-09 -4.48131589E-07  3.42695368E-09
 -9.71976278E-12 -2.08665816E-09  4.45917829E-07 -3.05250556E-09 -7.43647218E-11
  1.58811435E-09 -4.22183597E-07  7.15543663E-09 -8.53618920E-11 -1.09587664E-08
  2.23951588E-06 -6.44078874E-09  3.20726498E-11 -2.07633262E-06  4.22243261E-04
 -1.69836520E-11  7.20733865E-08 -8.24260775E-09 -1.81979450E-08 -1.19607135E-04
  6.87352484E-05 -4.95814109E-04  1.75645311E-07 -1.16515936E-05  6.78834752E-06
  7.58873176E-05 -7.09007917E-07  1.73769236E-04 -9.99309158E-05  2.41311579E-04
  2.66782001E-06 -3.09018520E-06  2.20193481E-06  8.02064993E-04 -1.76311391E-05
  4.94665614E-01 -2.80122601E-01  8.81367832E-04  4.99621687E-04  8.26931097E-09
  1.82590723E-08  1.19467083E-04  6.89777150E-05  4.98081502E-04 -1.76205497E-07
  1.16376073E-05  6.81229120E-06 -7.62235947E-05  7.11215292E-07 -1.73565926E-04
 -1.00283499E-04 -2.42450697E-04 -2.67796003E-06  3.08787177E-06  2.21048219E-06
 -8.05682862E-04  1.76276000E-05 -4.94207039E-01 -2.81170845E-01 -8.83401789E-04
  4.96041678E-04 -2.51531464E-11 -5.79448601E-11  1.40726086E-07 -1.37928005E-04
 -2.25824980E-06  5.33868171E-10  1.34344217E-08 -1.34841673E-05  3.35738603E-07
 -2.15060592E-09 -2.04615550E-07  2.00543678E-04  1.12378922E-06  1.02641775E-08
  3.65990518E-09 -4.35421066E-06  3.62825597E-06  8.55521982E-09 -6.23840414E-04
  5.94759756E-01  2.03226979E-06 -9.96912278E-04  4.28770675E-08  7.86452852E-08
  9.16449409E-05  6.41742374E-02 -2.73804883E-09 -7.21998104E-07 -1.31263825E-04
 -9.18261461E-02  4.08757820E-09  9.68283289E-07  3.85467374E-04  2.69233217E-01
 -1.24726681E-08 -7.02342967E-08 -2.49135082E-05 -1.75262126E-02  5.36092068E-10
 -9.57848053E-07  4.36577766E-09  7.08879111E-06  2.49648111E-04 -5.57080266E-02
 -1.99271020E-03 -3.50456922E-03 -2.04649928E-03  3.67775138E-02  1.66933424E-06
  2.11763306E-02  9.04587844E-04  7.89664775E-03  1.40426751E-07  1.21090103E-01
  4.10136197E-02 -3.37682728E-02 -6.27376532E-06 -6.64495606E-02 -2.07204944E-03
 -1.35290665E-02 -2.95646775E-06  6.06370070E-01  6.00845676E-05 -7.10992851E-06
 -1.33771806E-01  3.28152990E-01  1.98712873E-03  3.49475757E-03  2.16302779E-03
  3.67920036E-02 -1.66846130E-06 -2.11170820E-02 -8.87339830E-04  7.89066745E-03
 -1.40581428E-07 -1.20748083E-01 -4.13423506E-02 -3.40533145E-02  6.26611523E-06
  6.62619841E-02  2.04466044E-03 -1.35147019E-02  2.94929568E-06 -6.04658215E-01
 -6.01930695E-05 -7.38898084E-06  1.31584741E-01  3.28040197E-01  5.63547612E-06
  9.91151015E-06  4.62419040E-05  4.02133578E-02 -6.26153311E-09 -5.98307488E-05
  1.43559641E-05  6.30214420E-03 -8.39946141E-10 -3.42194454E-04  8.19839207E-05
 -1.04840636E-01  1.54047647E-08  1.87498766E-04 -2.58575525E-05 -1.00072908E-02
  9.28619534E-09 -1.71153994E-03  7.42602792E-08 -6.41247752E-05 -1.18724607E-03
  9.68691109E-02 -6.40442492E-06 -1.16732113E-05 -6.40543900E-02  9.18572125E-05
  1.27062250E-06  1.05063785E-04  9.16930215E-02 -1.31374025E-04 -1.84292515E-06
 -1.22465774E-04 -2.69118927E-01  3.84978782E-04  5.47684651E-06 -6.17611962E-05
  1.74766580E-02 -2.51672369E-05 -3.20032409E-07  1.39242949E-04 -4.78295097E-06
  1.26006545E-08 -5.56533664E-02 -2.49454748E-04  1.13843529E-03  2.00144551E-03
 -3.90896883E-02  2.11194151E-03 -1.26967172E-07 -1.20769235E-02 -6.82130654E-03
 -8.70396493E-04  4.52165018E-08 -6.95819378E-02  8.13581647E-02 -4.11049411E-02
  1.45776023E-06  3.82656173E-02  1.12286946E-02  2.07616405E-03  1.46498766E-06
 -3.48131853E-01  2.52906200E-05 -3.26721209E-05  1.74013256E-01 -1.32044529E-01
  1.14816928E-03  2.01856356E-03 -3.90752728E-02 -2.01142344E-03 -1.35098794E-07
 -1.21803182E-02 -6.82746787E-03  8.95155645E-04  4.45268534E-08 -7.01737645E-02
  8.10730936E-02  4.11041485E-02  1.48856054E-06  3.85911697E-02  1.12432159E-02
 -2.11978974E-03  1.47935045E-06 -3.51096367E-01  2.49312778E-05  3.26902600E-05
  1.74122147E-01  1.34358246E-01 -2.29529237E-03 -4.03621568E-03 -3.55569150E-02
  6.23199575E-05  2.59244269E-06  2.43577181E-02 -8.43124066E-03  6.84252010E-06
  3.55415753E-07  1.39715002E-01  1.00540476E-02 -2.46396616E-04 -6.42083819E-06
 -7.67436783E-02  1.48148739E-02 -9.49683117E-06 -3.75828717E-06  6.99229468E-01
 -3.58154593E-06 -1.62984791E-07  4.04635913E-01  1.06046146E-03  7.66118554E-05
  1.70529409E-04  7.90914422E-06 -1.14643917E-09  5.13860589E-01 -1.77030890E-03
 -9.16545572E-06 -2.13406375E-09 -5.32344774E-01 -3.47644133E-03  1.15037456E-05
 -1.58061803E-08  8.52203676E-01 -1.05653198E-02 -1.18264845E-05 -2.72519323E-08
 -4.14478414E-01 -4.96530356E-03 -5.89795497E-06 -6.13352558E-08 -7.43701177E-07
  2.22914922E-09  1.26349861E-04  2.32583261E-04 -4.43211045E-04 -7.71670102E-04
  5.85810957E-02 -1.60098662E-03 -4.11973490E-04 -7.16024707E-04  2.36167062E-02
  1.32694809E-03  1.15513802E-03  2.01422940E-03 -2.77991073E-01  4.68551122E-03
  1.06559159E-04  1.79194025E-04  1.30079037E-01  8.16528538E-03 -2.64641129E-01
 -4.59227381E-01 -2.74295132E-03  4.71287079E-03  1.26349765E-04  2.32582958E-04
 -4.44780787E-04  7.70767476E-04  5.85810919E-02 -1.60098410E-03 -4.13427540E-04
  7.15183470E-04  2.36166009E-02  1.32696309E-03  1.15924125E-03 -2.01188318E-03
 -2.77990667E-01  4.68556352E-03  1.06932734E-04 -1.78988615E-04  1.30078845E-01
  8.16529394E-03 -2.65574934E-01  4.58688889E-01 -2.72376067E-03 -4.72400090E-03
  1.26340930E-04  2.32536783E-04  8.92040909E-04  9.06840850E-07  5.85866536E-02
 -1.60051738E-03  8.26464831E-04  8.40324323E-07  2.35922578E-02  1.32977438E-03
 -2.33312049E-03 -2.36866090E-06 -2.77909933E-01  4.69663513E-03 -2.08031538E-04
 -2.08924799E-07  1.30042741E-01  8.13630378E-03  5.30274342E-01  5.39115149E-04
  5.47242314E-03  1.11259946E-05 -4.53238347E-03 -1.00274264E-02  1.60170067E-04
  6.47082756E-07  8.94547739E-03  1.03105276E-01 -1.09678607E-04 -4.76594973E-07
 -9.27026586E-03  2.06431818E-01  3.64189937E-04  1.89441916E-06  1.48475642E-02
  6.01359106E-01  1.87048295E-04  1.11413760E-06 -7.19041316E-03  2.89346168E-01
  1.03100211E-05  8.70853965E-09  4.42887039E-05 -1.28352148E-07 -7.36722011E-03
 -1.35790307E-02  2.56863937E-02  4.46002942E-02  1.01443989E-03  9.37668463E-02
  2.41591507E-02  4.19393847E-02  4.08710008E-04 -8.10768609E-02 -6.82596656E-02
 -1.18433185E-01 -4.83806602E-03 -2.66338392E-01 -5.44802512E-03 -9.39461546E-03
  2.26193816E-03 -4.65511774E-01 -4.63274452E-03 -7.99878432E-03  1.58618620E-01
 -2.73632429E-01 -7.36721488E-03 -1.35790137E-02  2.57771208E-02 -4.45479980E-02
  1.01443966E-03  9.37667051E-02  2.42443182E-02 -4.18900575E-02  4.08708050E-04
 -8.10777471E-02 -6.85009272E-02  1.18294602E-01 -4.83805851E-03 -2.66341447E-01
 -5.46766515E-03  9.38417365E-03  2.26193497E-03 -4.65512060E-01 -4.64900841E-03
  7.98935985E-03  1.57504488E-01  2.74276089E-01 -7.36676293E-03 -1.35764345E-02
 -5.14876820E-02 -5.23485245E-05  1.01613788E-03  9.37407663E-02 -4.83790773E-02
 -4.91926887E-05  4.09794038E-04 -8.12466968E-02  1.36846094E-01  1.38959722E-04
 -4.84090803E-03 -2.66988433E-01  1.10710133E-02  1.10948349E-05  2.26098131E-03
 -4.65478927E-01  9.23262291E-03  9.38851629E-06 -3.16450378E-01 -6.43427302E-04
  9.44972165E-08  7.07786145E-08 -2.62886039E-03  3.38876397E-06 -4.77768983E-04
  7.77132132E-07  1.70619335E-03 -2.19840268E-06  4.55892762E-04 -3.38669956E-06
 -1.20997743E-02  1.56025644E-05 -4.17100630E-04  1.94529242E-06 -2.31687518E-03
  2.98546018E-06  2.24848011E-04 -2.14075322E-05  6.50921244E-01 -8.51166197E-04
  8.76702232E-05  3.18942609E-07 -5.41372581E-05 -1.08622054E-04  3.26368634E-05
  6.79851719E-05  1.89505496E-02  1.10118098E-03  1.00036612E-04  3.93124517E-04
 -2.84281118E-02 -4.50182705E-03  3.02865192E-04 -3.44041429E-03  1.18380144E-01
 -2.94303800E-03 -1.76474841E-04 -5.13869772E-04 -4.56840638E-02  6.87052331E-04
  3.71624348E-02  4.27418143E-01  1.91929811E-03  3.06826792E-05 -5.45717295E-05
 -1.09493760E-04  3.30936941E-05 -6.84317882E-05  1.91037427E-02  1.11001976E-03
  1.02652448E-04 -3.95487504E-04 -2.86579812E-02 -4.53795327E-03  2.79950123E-04
  3.45805256E-03  1.19336491E-01 -2.96663707E-03 -1.79907591E-04  5.17070232E-04
 -4.60529059E-02  6.92507470E-04  4.00270561E-02 -4.29819147E-01  1.91936520E-03
 -1.41469511E-05  1.08724269E-04  2.18134197E-04  1.49872097E-04  1.68558435E-07
 -3.80673288E-02 -2.21216406E-03  7.85167046E-04  1.08840811E-06  5.71216665E-02
  9.04376863E-03 -5.69380845E-03 -1.10491826E-05 -2.37434489E-01  5.90747118E-03
 -1.06801332E-03 -1.36327266E-06  9.15461678E-02 -1.41319313E-03  7.80810206E-01
  1.27922897E-03  1.91329167E-03  8.34631008E-06  5.69090662E-10  4.39020045E-10
 -3.42940638E-06 -2.58328396E-03 -2.55123489E-06  4.48972020E-09  2.22464077E-06
  1.67498915E-03  2.38327610E-06 -1.95960577E-08 -1.57908933E-05 -1.18994785E-02
 -2.14459132E-06  1.48052889E-08 -3.02349654E-06 -2.27675841E-03  1.14403902E-06
 -4.04897455E-08  8.51296819E-04  6.51064798E-01  3.31664163E-07 -6.16023208E-05
 -9.27822673E-05 -1.86165937E-04  6.76624201E-05  1.09540075E-04  3.30341082E-02
  1.88772489E-03  3.86628890E-04  5.49420993E-04 -4.95174380E-02 -7.71524449E-03
 -3.38581616E-03 -3.64666077E-03  2.06060375E-01 -5.03701551E-03 -5.07559250E-04
 -7.60797998E-04 -7.94765507E-02  1.16463533E-03  4.28165371E-01  5.34906278E-01
  2.75755250E-06 -1.86092543E-03  9.25316130E-05  1.85662971E-04 -6.77330118E-05
  1.09088376E-04 -3.29455929E-02 -1.88262773E-03 -3.87274944E-04  5.46813181E-04
  4.93848380E-02  7.69441132E-03  3.39455520E-03 -3.62386971E-03 -2.05507143E-01
  5.02338824E-03  5.08280670E-04 -7.57390285E-04  7.92628973E-02 -1.16145920E-03
 -4.29070211E-01  5.32042042E-01  1.36615385E-05 -1.86101402E-03  2.50682132E-07
  5.02964589E-07  3.51678564E-07 -6.77250018E-06 -8.86044796E-05 -5.10190060E-06
  1.93579148E-06 -1.23801115E-04  1.32839888E-04  2.08584055E-05 -1.54121595E-05
  2.24310950E-03 -5.51822785E-04  1.36092196E-05 -2.57920366E-06  1.17807948E-04
  2.12698242E-04 -3.26060151E-06  2.02722297E-03 -2.08693969E-01  8.27911854E-06
 -1.90135909E-03 -2.24633983E-05 -1.65723929E-05  6.40023137E-01 -5.60365502E-04
 -1.52914819E-05 -1.88719260E-04 -4.20804963E-01  3.68417968E-04  1.06664180E-05
  8.15322376E-04  2.90803819E+00 -2.54598286E-03 -6.20359732E-05 -4.70430000E-04
  5.64314053E-01 -4.93798698E-04 -1.07146477E-05 -4.77996709E-04  2.77393840E-03
 -2.39686699E-06 -1.00982131E-02 -3.98475765E-05  1.27754781E-02  2.56538528E-02
 -7.97812802E-03 -1.46353567E-02  8.69098554E-05 -2.61497611E-01 -2.36713527E-02
 -9.36146782E-02 -1.17857926E-04  1.07900311E+00 -6.93301415E-02  8.25450721E-01
  4.60680438E-04  7.14996957E-01  4.16290506E-02  1.25960405E-01 -2.11538587E-04
 -1.73544754E-01  1.91475463E-04  1.74023300E-03 -4.57522407E-01  2.76546845E-03
  1.28595273E-02  2.58226219E-02 -8.06355606E-03  1.47135833E-02  8.74782397E-05
 -2.63218294E-01 -2.42172679E-02  9.40663615E-02 -1.18624045E-04  1.08610185E+00
 -6.45152893E-02 -8.28949818E-01  4.63610767E-04  7.19698237E-01  4.23637298E-02
 -1.26585838E-01 -2.12925028E-04 -1.74687952E-01  2.01544028E-04 -1.74809477E-03
 -4.57521131E-01 -6.37867782E-03 -2.56385566E-02 -5.14808350E-02 -3.34476324E-02
 -3.48918751E-05 -1.73411009E-04  5.24949221E-01 -1.86263381E-01 -2.46639023E-04
  2.41495303E-04 -2.16606473E+00  1.36669024E+00  2.42016189E-03 -9.48634918E-04
 -1.43416319E+00  2.60671893E-01  3.23505629E-04  4.16450186E-04  3.48902327E-01
  3.23573626E-03  4.83721875E-06 -4.65918253E-01 -1.80888233E-03 -1.28290719E-07
 -9.85176937E-08  5.60346504E-04  6.39610192E-01 -3.37869125E-08 -1.01760591E-06
 -3.68159826E-04 -4.20231228E-01  2.49808873E-08  4.46795399E-06  2.54748034E-03
  2.90779449E+00 -1.17132712E-07 -3.44042306E-06  4.94350838E-04  5.63976372E-01
 -1.66045818E-08 -2.71699862E-06  2.42020946E-06  2.72951859E-03 -4.09920731E-05
  1.04903969E-02  2.22327295E-02  4.46465407E-02 -1.46170880E-02 -2.49571493E-02
  1.49088166E-04 -4.55242497E-01 -9.37750733E-02 -1.32558934E-01 -2.00607551E-04
  1.87821348E+00  8.26633954E-01  8.91201955E-01  7.67280386E-04  1.24323265E+00
  1.26033608E-01  1.88053596E-01 -3.63295899E-04 -3.02385876E-01  1.70226868E-03
  2.16597335E-03 -6.25998962E-03  4.63004049E-01 -2.21842008E-02 -4.45490806E-02
  1.46373356E-02 -2.48719892E-02 -1.48761170E-04  4.54249441E-01  9.39531312E-02
 -1.32012148E-01  2.00164787E-04 -1.87411665E+00 -8.28695345E-01  8.86388828E-01
 -7.65545304E-04 -1.24051550E+00 -1.26256151E-01  1.87319260E-01  3.62499163E-04
  3.01728143E-01 -1.70592155E-03  2.15597664E-03  2.64508985E-03  4.63006631E-01
 -4.85337196E-05 -9.74587067E-05 -6.35219166E-05  4.25473726E-04 -3.25453950E-07
  9.94135048E-04 -3.83296324E-04  3.02725091E-02  4.52511142E-07 -4.10263133E-03
  3.14212639E-03 -5.44522509E-01 -1.77570958E-06 -2.71294166E-03  5.24204551E-04
 -3.08023036E-02  7.79851014E-07  6.61177734E-04  6.88015416E-06 -8.08180655E-04
 -1.80859581E-03  4.55328895E-01 -5.91154114E-02 -8.66459521E-02  1.67350131E-04
  1.37357112E-06  9.09173863E-05  3.11624794E-01 -5.81541365E-04 -3.05809756E-06
 -7.74441183E-05  3.01217100E+00 -1.35870451E-03 -6.84960373E-06  1.29921601E-04
 -8.10286620E-01  1.95204252E-04  1.31728437E-06  2.23172821E-05 -6.17243930E-01
 -2.22219505E-05 -2.09286183E-08  5.12051203E-04 -1.48117124E-06 -2.81454630E-03
 -8.78570207E-03 -6.93336509E-02 -1.20541436E-01  1.43458260E-05  2.27886174E-01
  3.55041587E-02  6.18293728E-02 -1.12815980E-05 -1.29049065E+00 -4.24146895E-01
 -7.37139140E-01  5.14158875E-05  2.78118536E-01  6.86616631E-02  1.19489243E-01
 -3.24158647E-05  3.25040119E-01  5.31339803E-05  9.21655627E-05  2.80574541E-01
 -4.82474878E-01 -2.81447153E-03 -8.78555887E-03 -6.95782311E-02  1.20400458E-01
  1.43463788E-05  2.27884501E-01  3.56292965E-02 -6.17572952E-02 -1.12819213E-05
 -1.29048059E+00 -4.25640566E-01  7.36272258E-01  5.14181958E-05  2.78117674E-01
  6.89036365E-02 -1.19349667E-01 -3.24162833E-05  3.25039490E-01  5.33228385E-05
 -9.20605627E-05  2.78613412E-01  4.83610504E-01 -2.80227543E-03 -8.76229536E-03
  1.39034697E-01  1.41851142E-04  1.00416304E-05  2.27577409E-01 -7.12958929E-02
 -7.30667813E-05 -9.08400035E-06 -1.28833943E+00  8.49402966E-01  8.66224449E-04
  2.49378699E-05  2.78126025E-01 -1.37819076E-01 -1.41059695E-04 -2.81333564E-05
  3.24840417E-01 -7.15362951E-05 -7.28908094E-08 -5.58066061E-01 -1.13878737E-03
  3.63561525E-07  5.67095913E-07  2.81300320E-04  5.17325046E-01 -1.60867592E-08
 -2.46461735E-06 -2.49782670E-04 -4.59521556E-01  1.41809780E-08 -1.57308650E-05
 -5.79196525E-06 -9.12165785E-03 -1.94560377E-10  3.51557941E-06  4.72731973E-04
  8.69195539E-01 -2.67787157E-08  3.25435786E-06 -6.07668768E-08 -2.74910343E-05
  2.48148443E-03 -6.90353368E-01 -7.21763429E-03 -1.34022365E-02 -2.46819801E-02
  7.02282645E-02 -1.80464322E-05  8.94011092E-02  5.55177001E-02 -3.47707613E-02
  1.12319952E-05 -1.73579484E-01 -1.13892478E-01  1.88922463E-01 -1.19972032E-05
  9.91605628E-01  2.10740587E-01  5.12012993E-02 -2.04869274E-05 -1.15087964E-01
 -1.36319626E-05 -6.18682134E-05 -4.40977748E-01  5.19103956E-02  7.20464724E-03
  1.33781496E-02  2.48486927E-02  7.03545572E-02  1.80066733E-05 -8.92421551E-02
 -5.57567313E-02 -3.50570927E-02 -1.12032856E-05  1.73279799E-01  1.14514367E-01
  1.89503436E-01  1.19506591E-05 -9.89822655E-01 -2.11446880E-01  5.01149466E-02
  2.04709446E-05  1.14877289E-01  1.35978051E-05 -6.17550441E-05  4.42191714E-01
  5.23226361E-02  1.30057935E-05  2.41660263E-05 -2.85761010E-05  1.13195595E-01
  3.17429730E-08 -1.62140925E-04  1.29571763E-04 -1.31332156E-01 -2.23963487E-08
  3.19897146E-04 -2.05954322E-04  3.86843716E-01  2.23810403E-08 -1.78635883E-03
  5.90208234E-04 -3.14782904E-01  2.30179762E-08  2.05438435E-04 -8.12167158E-08
 -1.36647888E-05  9.73184760E-04 -7.12529927E-01 -5.64244010E-05 -9.05590543E-05
 -5.16822399E-01  2.81359610E-04  1.07159860E-05  4.32523388E-04  4.59322500E-01
 -2.50150003E-04 -9.49350739E-06  2.22166574E-03  1.06470660E-02 -4.96388880E-06
 -1.72511143E-07 -5.04822358E-04 -8.69142780E-01  4.73070845E-04  1.80484783E-05
 -4.54229470E-04  5.61200306E-05  1.53806946E-08 -6.90543038E-01 -2.48221481E-03
  4.15479541E-03  7.71291257E-03 -9.91372199E-02  2.47537654E-02  1.27450018E-05
 -5.13582002E-02  9.94088313E-02 -5.56300773E-02 -9.19293552E-06  9.94057293E-02
 -3.21753891E-01  1.14001615E-01  1.49409236E-05 -5.69887267E-01  1.93725115E-01
 -2.10609233E-01  5.22982883E-06  6.63869360E-02  5.10837024E-05  2.77764591E-05
 -4.57614716E-01 -4.42752822E-01  4.17733140E-03  7.75475625E-03 -9.90093718E-02
 -2.47356021E-02  1.28011947E-05 -5.16374545E-02  9.91218312E-02  5.57230010E-02
 -9.22776816E-06  9.99491013E-02 -3.21164037E-01 -1.14065250E-01  1.49777832E-05
 -5.72978768E-01  1.92636855E-01  2.11159722E-01  5.29449834E-06  6.67455404E-02
  5.11841646E-05 -2.78641180E-05 -4.58032790E-01  4.41052321E-01 -8.34013611E-03
 -1.54879589E-02 -5.59018187E-02  1.20003032E-04 -2.02478554E-05  1.03523066E-01
  2.69275112E-03 -2.02402432E-04  1.42320562E-05 -2.02331428E-01 -1.21912098E-01
  4.80162430E-04 -1.39577219E-05  1.14337353E+00 -1.72520291E-01 -6.66863716E-04
 -1.50222495E-05 -1.32356488E-01  6.02748879E-05  3.98073657E-08  3.06259301E-01
 -4.89369867E-04 -6.20213455E-06 -8.86600668E-06 -2.45302094E-05 -2.29333787E-08
 -1.18283700E+00  3.17062672E-05  3.09368486E-05  2.87716918E-08  1.49360378E+00
  3.21664288E-04 -1.41450548E-05 -1.38339330E-08 -6.73918857E-01 -2.02516401E-04
  2.26410728E-06  1.67061680E-09  1.12925156E-01 -4.06611075E-05 -2.67638457E-04
 -1.11415785E-06  1.44379013E-08  4.23516219E-11  8.68124110E-08 -2.98337183E-07
 -1.43914054E-05 -2.23993858E-05 -7.24327764E-02  2.32691869E-05  7.13711525E-06
  9.84023953E-06  7.14503811E-02 -1.42858164E-04 -4.98570949E-05 -8.43685246E-05
 -6.25838426E-02  7.63008794E-05  1.57509681E-05  2.51263738E-05  6.12352819E-02
  5.67190859E-05 -1.45430971E-01 -2.52550098E-01  3.29824198E-05 -6.72128945E-05
  8.68080859E-08 -2.98346354E-07 -1.44368790E-05  2.23703041E-05 -7.24324630E-02
  2.32691923E-05  7.15712806E-06 -9.82603652E-06  7.14502209E-02 -1.42857318E-04
 -5.00281559E-05  8.42667405E-05 -6.25831548E-02  7.63020300E-05  1.58021732E-05
 -2.50946282E-05  6.12348813E-02  5.67203456E-05 -1.45943297E-01  2.52252525E-01
  3.27096818E-05  6.73467408E-05  8.59317918E-08 -3.00294548E-07  2.43335320E-05
  2.48984180E-08 -7.23447323E-02  2.32711358E-05 -9.88810911E-06 -1.02067062E-08
  7.14019929E-02 -1.42657700E-04  9.59276760E-05  9.77766047E-08 -6.24022216E-02
  7.65016363E-05 -2.77679625E-05 -2.82728956E-08  6.11361538E-02  4.09826474E-05
  2.90999234E-01  2.96088115E-04 -6.55981274E-05 -1.34031536E-07  2.01954134E-05
  3.32060697E-05 -8.54966535E-01  6.26025379E-04  1.77398692E-05 -2.09131649E-04
  1.47439513E+00 -1.07958943E-03 -3.06009984E-05 -5.05920775E-04  1.59370507E-01
 -1.16772101E-04 -3.30254651E-06 -4.49598362E-05  3.83122599E-01 -2.80419712E-04
 -7.94677857E-06  1.40799251E-04  2.83250672E-05 -4.99756189E-08  3.93574898E-01
  1.48892291E-03 -5.60099748E-03 -7.36494207E-03  9.91899158E-02  2.99599017E-01
 -1.80693205E-05 -5.30960439E-02 -6.60418124E-02 -2.32799631E-01  1.38757879E-05
  4.80968733E-01  2.43205961E-01  4.87468257E-01 -2.90798864E-05 -1.14931562E-01
 -2.44552555E-01 -1.59953421E-01  7.47340020E-06 -1.50343655E-01 -1.19011835E-05
 -2.61161515E-05 -1.47883651E-01  2.15702638E-01 -5.63500308E-03 -7.40961676E-03
  1.00851366E-01 -3.00958959E-01 -1.81894779E-05 -5.34194480E-02 -6.73332808E-02
  2.33841097E-01  1.39696033E-05  4.83891089E-01  2.45909276E-01 -4.89800431E-01
 -2.92630747E-05 -1.15630542E-01 -2.45440204E-01  1.60960688E-01  7.50020387E-06
 -1.51257471E-01 -1.20481485E-05  2.62433834E-05 -1.47760311E-01 -2.17696498E-01
  1.12201162E-02  1.47346016E-02  6.20413117E-01  7.59242522E-04  1.92553113E-05
  1.06826343E-01 -4.71559588E-01 -5.98564023E-04 -1.53315887E-05 -9.64368662E-01
  1.09096712E+00  1.17521688E-03  2.55705560E-05  2.30640687E-01 -5.23028746E-01
 -2.65502481E-04  6.02723530E-06  3.01616399E-01 -2.54994743E-05 -3.01826600E-08
 -5.23212177E-01 -1.10393633E-03  1.03249148E-07  1.70701469E-07 -6.26195886E-04
 -8.55004286E-01  2.95682679E-08 -1.06385977E-06  1.08001053E-03  1.47465123E+00
 -5.10412800E-08 -2.86247558E-06  1.16542618E-04  1.59354484E-01 -5.49587920E-09
 -3.49530003E-07  2.80968721E-04  3.83503529E-01 -1.32655979E-08  7.38207443E-07
  3.47652320E-09  4.46632368E-05  1.48971639E-03 -3.93846935E-01 -9.74571809E-03
 -1.28166128E-02  3.00128663E-01  4.47795084E-01 -3.40873028E-05 -9.22732550E-02
 -2.33220560E-01 -3.36969445E-01  2.66028403E-05  8.36236113E-01  4.88290824E-01
  8.10244085E-01 -5.19264533E-05 -1.99630110E-01 -1.60432707E-01 -4.30812540E-01
  7.50266836E-06 -2.61446825E-01 -2.65478143E-05 -4.29880660E-05 -2.17766642E-01
  3.97988413E-01  9.72599804E-03  1.27906119E-02 -3.00687745E-01  4.46134306E-01
  3.40254451E-05  9.20881935E-02  2.33672039E-01 -3.35680426E-01 -2.65553973E-05
 -8.34547270E-01 -4.89079857E-01  8.07541190E-01  5.18272117E-05  1.99227863E-01
  1.60450623E-01 -4.29925383E-01 -7.47800533E-06  2.60919389E-01  2.65945727E-05
 -4.28448048E-05  2.15630992E-01  3.98111717E-01  1.96383777E-05  2.57947475E-05
  1.16019042E-03 -7.32825497E-02  3.35736382E-08  1.86653443E-04 -8.94414007E-04
  6.79586257E-02 -2.67197586E-08 -1.68616720E-03  1.94641407E-03 -3.74631593E-02
  4.46514363E-08  4.02848930E-04 -7.59964360E-04 -1.52454877E-01  1.02982499E-08
  5.27497914E-04 -4.70142615E-08  2.42361510E-06 -9.61207257E-04  2.26319808E-02
 -3.47190523E-12 -4.23617106E-12  2.93398535E-09  6.97071650E-06  2.88169327E-07
  2.10540499E-12 -6.43474746E-09 -1.52790392E-05 -5.88228244E-07 -1.00781793E-10
  5.57262325E-08  1.32557296E-04  4.39266958E-07 -1.10727175E-10 -6.22886482E-08
 -1.48672783E-04 -3.86540722E-07 -5.40772054E-09  4.61501385E-05  1.09846189E-01
 -5.38665246E-08  1.74618486E-05  7.17382260E-07  1.32017459E-06 -4.18860690E-05
 -3.31829474E-05 -9.02529822E-01 -1.46786595E-05  4.77511283E-05  4.00683270E-05
  1.09185544E+00  9.00327351E-05  7.60685570E-06 -1.04360989E-05 -6.20835637E-01
 -9.30720920E-05 -7.94275284E-06  2.69021180E-05  2.81401658E-01 -2.52754684E-06
  2.17316882E-02  1.09676626E-02  1.18604236E-05  4.64782509E-06 -7.16193118E-07
 -1.31798551E-06  4.19045095E-05 -3.30341868E-05  9.01034054E-01  1.46543309E-05
 -4.77638053E-05  3.99027269E-05 -1.09004582E+00 -8.98834476E-05 -7.70477576E-06
 -1.05127011E-05  6.19806627E-01  9.29180892E-05  8.02068304E-06  2.69588199E-05
 -2.80935114E-01  2.52618199E-06 -2.17945370E-02  1.08606807E-02 -1.19307252E-05
  4.63108850E-06 -1.18908663E-09 -2.18811505E-09 -4.31194500E-08  7.20939312E-06
  1.49545981E-03  2.43362997E-08  4.45625783E-08 -3.72488383E-06 -1.80912631E-03
 -1.49260116E-07  7.00088613E-08 -4.58728910E-05  1.02860060E-03  1.54182154E-07
 -3.40745342E-08  5.07561093E-05 -4.66145897E-04  1.61498763E-09  6.08657501E-05
 -2.67451584E-02 -4.43291161E-08  2.36617175E-05  1.34594089E-09  1.70082188E-09
 -6.97729783E-06  2.89248259E-09 -5.28036135E-05 -5.46505317E-09  1.52911441E-05
 -6.34851236E-09  1.10026324E-04  3.16331403E-08 -1.32623727E-04  5.54317518E-08
 -5.76614810E-05 -7.43094746E-09  1.48744926E-04 -6.23079672E-08  1.39670937E-05
  3.95845862E-06 -1.09747955E-01  4.59555328E-05  1.29034417E-05  5.15129296E-08
 -4.12823612E-07 -7.59757581E-07  1.70048953E-05  2.31587967E-05  5.19338117E-01
  8.44679832E-06 -2.38871896E-05 -2.50959093E-05 -6.28278757E-01 -5.18318619E-05
  4.15918660E-05 -2.04951287E-05  3.57237773E-01  5.35857532E-05 -4.62466462E-05
  1.37957342E-05 -1.61910556E-01  4.87924303E-07  1.42436048E-02 -2.17318306E-02
  1.79082898E-05  1.10304540E-05 -4.14882085E-07 -7.63545538E-07  1.71721620E-05
 -2.32211009E-05  5.21928511E-01  8.48891835E-06 -2.40751944E-05  2.51643654E-05
 -6.31412499E-01 -5.20901427E-05  4.15279347E-05  2.05481458E-05  3.59019715E-01
  5.38529841E-05 -4.61954530E-05 -1.38117716E-05 -1.62718215E-01  4.95294363E-07
  1.41368806E-02  2.17918614E-02  1.79188491E-05 -1.09443025E-05  8.27774620E-07
  1.52324092E-06  2.49109335E-05  3.76512172E-08 -1.04129745E+00 -1.69388507E-05
 -2.83825551E-05 -3.65937098E-08  1.25971123E+00  1.03902388E-04 -1.62409165E-05
 -8.10131482E-08 -7.16291389E-01 -1.07438003E-04 -1.22065138E-05  5.98456086E-08
  3.24653142E-01 -1.16764770E-06 -2.34186316E-02 -6.21858196E-05 -2.67796318E-06
  2.85616599E-08  4.81363667E-10  6.07761598E-10  1.56798869E-07 -1.71377721E-05
 -3.68711754E-11 -3.66674935E-09 -3.05641037E-07  2.63647964E-05  5.71797236E-11
 -2.99756503E-08  9.80686171E-07 -1.39033089E-04 -1.11401950E-10 -3.59448260E-08
 -9.79376603E-07  3.91932412E-04  1.63399280E-10  8.25484695E-10 -4.65458534E-11
  7.71615339E-09  1.42144558E-07  9.07867255E-05  5.86398006E-07  1.37079915E-06
 -6.37898864E-01  3.67507768E-01  1.31609089E-05 -1.13943569E-05  7.96313085E-01
 -4.58792508E-01 -1.64311255E-05 -7.19134088E-05 -5.55141900E-01  3.19839739E-01
  1.14701767E-05  2.46073578E-04  3.47532948E-01 -2.00208153E-01 -7.19447762E-06
 -1.05380491E-05  1.60689656E-06  4.97030751E-07 -5.91090901E-02 -3.43016865E-02
 -5.86731174E-07 -1.37232709E-06  6.37149405E-01  3.68803669E-01 -1.31591652E-05
  1.13953899E-05 -7.95377426E-01 -4.60410259E-01  1.64289530E-05  7.23662943E-05
  5.54489612E-01  3.20967368E-01 -1.14687002E-05 -2.46147916E-04 -3.47124493E-01
 -2.00914278E-01  7.19354462E-06  1.05631023E-05 -1.60803254E-06  4.93574356E-07
  5.92482402E-02 -3.40611406E-02  1.11107959E-09  2.42025676E-09  7.48473033E-04
 -7.35955477E-01 -1.34654313E-09 -1.07913162E-08 -9.34297888E-04  9.18719949E-01
  1.67594795E-09 -4.27074897E-07  6.51405270E-04 -6.40426269E-01 -1.10781885E-09
  1.25037946E-07 -4.07469112E-04  4.00819123E-01  6.60590580E-10 -1.83621090E-08
  1.09476753E-09 -9.81784655E-07 -1.39074445E-04  6.83616120E-02  1.02670486E-06
  1.42229545E-06  3.80311660E-06  3.61271837E-09  1.82530697E-01 -1.57327646E-05
 -5.77527932E-06 -5.48789976E-09 -2.77110786E-01  7.98228253E-05  1.08830550E-05
  1.04025750E-08  5.21440593E-01 -3.02372916E-04 -1.86299951E-05 -1.78200358E-08
 -8.93111250E-01 -8.65533763E-06  7.11741061E-05  2.70986075E-07  5.86006195E-09
 -1.83905709E-11 -4.40292606E-07 -7.45656726E-07 -3.63050792E-05 -3.64675348E-05
 -7.34866346E-01  8.74812784E-06  4.45159003E-05  4.41627782E-05  9.16349532E-01
 -5.56783918E-05 -3.88175560E-05 -4.23318986E-05 -6.93010319E-01  1.31565710E-04
  3.02808016E-05  3.41606277E-05  5.09056855E-01  7.34881959E-07 -7.33997881E-03
 -1.27130831E-02 -5.03293553E-07  3.35541505E-07 -4.40293507E-07 -7.45658201E-07
 -3.63791980E-05  3.63961688E-05 -7.34866644E-01  8.74814904E-06  4.46056478E-05
 -4.40753112E-05  9.16349822E-01 -5.56786538E-05 -3.89036214E-05  4.22552932E-05
 -6.93010387E-01  1.31566233E-04  3.03502579E-05 -3.41007400E-05  5.09056660E-01
  7.34960920E-07 -7.36595021E-03  1.26983012E-02 -5.01857291E-07 -3.37559120E-07
 -4.40660086E-07 -7.46269340E-07  2.68601248E-05  2.81778673E-08 -7.34847998E-01
  8.75567459E-06 -3.19785207E-05 -3.35961356E-08  9.16314167E-01 -5.57432006E-05
  3.45114387E-05  3.59188482E-08 -6.92983196E-01  1.31678550E-04 -2.88850947E-05
 -2.99913550E-08  5.09008601E-01 -5.82929827E-08  1.47461437E-02  1.49693506E-05
  9.99198174E-07  2.01838641E-09  1.79751354E-08  1.82791509E-08  3.16033912E-05
  1.73579978E-01 -4.08518460E-09 -1.14385128E-08 -5.37901749E-05 -2.95471469E-01
  6.93965012E-09 -3.66353381E-07  1.09429959E-04  6.00821217E-01 -1.40729190E-08
  2.36522006E-07 -2.21939130E-04 -1.21802398E+00  2.84444585E-08  1.35830861E-07
 -9.62053420E-09 -5.67415685E-06  5.38885562E-04 -1.66695829E-01  4.66650824E-04
  4.26178128E-04  4.45526649E-01 -2.60260913E-01 -1.73199486E-05 -3.39749784E-03
 -5.42526722E-01  3.44797307E-01  2.31003483E-05  3.31061980E-01  3.69010978E-01
 -2.27891750E-01 -3.38129380E-05 -8.49882474E-01 -2.55052231E-01  1.57501075E-01
  3.96516380E-05  4.01242339E-02 -8.82627500E-07 -5.92814611E-06 -2.40405961E-02
 -2.64955392E-02 -4.66004791E-04 -4.25589328E-04 -4.46858237E-01 -2.62238360E-01
  1.73471115E-05  3.39280914E-03  5.44158345E-01  3.47205266E-01 -2.31319553E-05
 -3.30603553E-01 -3.70118088E-01 -2.29529389E-01  3.38090934E-05  8.48706177E-01
  2.55817232E-01  1.58632624E-01 -3.96264502E-05 -4.00687452E-02  8.86165905E-07
 -5.91818984E-06  2.42785793E-02 -2.64553017E-02 -6.45514338E-07 -5.90190564E-07
  1.04782704E-03 -1.03440764E+00  9.66209196E-09  4.70125805E-06 -1.27088205E-03
  1.28747842E+00 -1.52008364E-08 -4.57917563E-04  8.65492454E-04 -8.68985299E-01
  3.52505427E-08  1.17596729E-03 -5.98203187E-04  6.00489335E-01 -4.69053057E-08
 -5.55344844E-05 -1.19725831E-08 -1.61770059E-07  1.53964509E-04 -6.82815571E-02
 -1.16053955E-05 -1.33123275E-05 -1.73678943E-01  3.17268801E-05  3.61250655E-06
  2.62129137E-05  2.95651615E-01 -5.40156911E-05 -6.14389325E-06  1.03774652E-04
 -6.00728456E-01  1.09678693E-04  1.24903583E-05 -1.62373573E-04  1.21798711E+00
 -2.22438368E-04 -2.53199729E-05 -7.91253795E-05  1.26055106E-05  6.28779244E-09
 -1.66903219E-01 -5.39600013E-04 -2.67656553E-04 -2.43059075E-04  7.77678318E-01
 -4.45685341E-01 -1.15503668E-05  1.94126675E-03 -9.74906787E-01  5.42732573E-01
  1.34902543E-05 -1.90610060E-01  6.56332877E-01 -3.69104039E-01  1.38825956E-06
  4.89334889E-01 -4.53572992E-01  2.55118125E-01 -1.03374749E-05 -2.30879634E-02
  3.51191012E-06  3.32709167E-06 -5.44670962E-02 -2.43923288E-02 -2.68767414E-04
 -2.44067277E-04  7.75701635E-01  4.46638487E-01 -1.15074810E-05  1.94929554E-03
 -9.72499636E-01 -5.43883015E-01  1.34332120E-05 -1.91403199E-01  6.54695665E-01
  3.69888618E-01  1.47046801E-06  4.91371682E-01 -4.52441015E-01 -2.55660259E-01
 -1.04333738E-05 -2.31841341E-02  3.52087556E-06 -3.33382584E-06 -5.45074521E-02
  2.41070040E-02  5.35291829E-04  4.86328141E-04  3.46860267E-03 -1.23731156E-03
 -9.39931461E-06 -3.86444999E-03 -3.21158921E-02  1.51180835E-03  1.43444455E-05
  3.81766193E-01  1.52832294E-02 -1.02684862E-03 -3.05122471E-05 -9.80450015E-01
 -1.05080348E-02  7.09696218E-04  3.98873896E-05  4.63151537E-02  1.00290560E-05
  9.88444064E-09 -1.25604956E-02 -1.07575196E-04 -5.56399153E-02 -6.33547852E-02
 -2.47527446E-04 -1.27329065E-06 -2.12742974E-05  1.14966837E-01  5.68370491E-05
  5.40731001E-07  5.66162788E-05  7.10623590E-01 -4.11637739E-04 -1.66770492E-06
  1.78848147E-05 -7.74898228E-01 -2.86294180E-04 -4.15165496E-07 -8.18083063E-05
 -4.28644832E-01 -1.54082604E-05 -1.43666468E-08  1.35080632E-04  2.26219663E-07
  1.53125606E-03  2.17686083E-03  3.68048997E-01  6.39366475E-01 -5.11163510E-05
  6.77851685E-02 -4.92427770E-01 -8.55418012E-01  6.99293250E-05 -4.82124865E-01
  1.38911055E-01  2.41339372E-01 -3.73173818E-05  4.05860661E-01 -3.97900193E-02
 -6.92985985E-02  3.75353749E-05  1.17496699E-01  9.32420175E-06  1.34385739E-05
  6.36716330E-02 -1.09645433E-01  1.53125557E-03  2.17685222E-03  3.69348324E-01
 -6.38616749E-01 -5.11186057E-05  6.77852163E-02 -4.94166072E-01  8.54414753E-01
  6.99323250E-05 -4.82123344E-01  1.39401951E-01 -2.41056816E-01 -3.73182739E-05
  4.05861536E-01 -3.99306143E-02  6.92171253E-02  3.75355565E-05  1.17496515E-01
  9.35186742E-06 -1.34205062E-05  6.32252362E-02  1.09903480E-01  1.53302142E-03
  2.17838503E-03 -7.37734463E-01 -7.50319781E-04 -2.81984077E-05  6.77624751E-02
  9.87013493E-01  1.00384510E-03  3.92637021E-05 -4.81690871E-01 -2.78699623E-01
 -2.83285116E-04 -2.86771524E-05  4.06458358E-01  7.97723468E-02  8.11361724E-05
  3.50362201E-05  1.17444197E-01 -6.02980299E-06 -6.27506332E-09 -1.26815678E-01
 -2.57985069E-04  5.53931522E-05  8.57726709E-05 -7.42914622E-01  5.67045748E-04
  1.54060922E-05 -5.33441600E-04  1.80952241E+00 -1.38117394E-03 -3.75620967E-05
 -4.12267659E-04 -5.45986760E-01  4.16659443E-04  1.13033799E-05  5.74026490E-04
 -1.60555530E+00  1.22520496E-03  3.32841591E-05  2.63168325E-04  5.45488581E-05
 -1.06066886E-07  8.52713672E-01  3.25237545E-03 -1.20518913E-02 -1.76135378E-02
 -2.57209002E-01 -3.68281594E-01  2.31166938E-05  1.53371720E-02  4.66358388E-01
  6.61762389E-01 -4.15570765E-05  4.39636127E-01 -1.59056174E-01 -1.47622996E-01
  7.22718592E-06 -1.34296688E+00  1.47998062E-01 -3.15205096E-01  2.41282601E-05
 -1.37441012E-01 -2.31363541E-05 -1.91703612E-05 -1.19315103E-01  2.52418725E-01
 -1.21263860E-02 -1.77223815E-02 -2.59274382E-01  3.70193275E-01  2.32552068E-05
  1.54313124E-02  4.70069066E-01 -6.65203040E-01 -4.18054821E-05  4.42353953E-01
 -1.59884425E-01  1.48475139E-01  7.26291486E-06 -1.35127195E+00  1.46231338E-01
  3.16278604E-01  2.43208285E-05 -1.38290885E-01 -2.32378875E-05  1.92860378E-05
 -1.19186337E-01 -2.54369679E-01  2.41490558E-02  3.52784067E-02 -8.97517391E-01
 -8.32496106E-04 -1.70370400E-05 -3.03845887E-02  1.61638948E+00  1.49222863E-03
  3.03779216E-05 -8.81142393E-01 -4.15976952E-01 -2.91292422E-04  7.59323349E-07
  2.69343664E+00 -3.99893679E-01 -9.92942782E-04 -4.62403454E-05  2.75568969E-01
 -2.34231285E-05 -2.19371589E-09 -5.57849431E-01 -1.08652120E-03 -2.93009829E-07
 -4.54000501E-07  5.67190933E-04  7.42964904E-01 -2.61242990E-08  2.84839535E-06
 -1.38215343E-03 -1.81050678E+00  6.38614967E-08  1.94362941E-06  4.16715951E-04
  5.45750708E-01 -1.91024432E-08 -3.17541638E-06  1.22609649E-03  1.60568311E+00
 -5.64497741E-08 -1.38190260E-06 -4.24521685E-09 -8.99595300E-05 -3.25395048E-03
  8.53265255E-01  2.09656661E-02  3.06407033E-02  3.68982384E-01  6.85450177E-01
 -3.85793426E-05 -2.67028008E-02 -6.63113294E-01 -1.23604364E+00  6.92125735E-05
 -7.64725534E-01  1.47920349E-01  3.30680110E-01 -9.88802869E-06  2.33605286E+00
  3.15407746E-01  2.18593765E-01 -5.38314374E-05  2.39063815E-01  1.73000152E-05
  4.54477836E-05  2.54438472E-01 -4.11905666E-01 -2.09225137E-02 -3.05775855E-02
 -3.69454452E-01  6.83384287E-01  3.84991439E-05  2.66466310E-02  6.63954414E-01
 -1.23232925E+00 -6.90682945E-05  7.63152322E-01 -1.48024273E-01  3.29852614E-01
  9.86338255E-06 -2.33125255E+00 -3.16374076E-01  2.16827166E-01  5.37459111E-05
 -2.38572365E-01 -1.73111732E-05  4.53463533E-05 -2.52337746E-01 -4.12033025E-01
 -4.29975181E-05 -6.28118433E-05  1.55158281E-03  4.50787164E-02  3.03883686E-08
  5.41111334E-05 -2.79063642E-03 -8.51561402E-02 -5.42015849E-08  1.56880535E-03
  6.64854150E-04  7.40713820E-02 -1.25721712E-09 -4.79582839E-03  1.04736568E-03
 -3.29375184E-01  8.17476146E-08 -4.90605962E-04  2.94678880E-08  1.20719625E-05
  9.38265530E-04  2.70211942E-02 -2.14699588E+00  2.27949100E+00 -4.35388987E-05
 -1.92343175E-07  2.54047564E-06 -4.24077625E-01  1.69777244E-04  7.53061463E-07
 -8.61168889E-06  4.18011757E-01  3.10222931E-06  1.87573443E-08  9.07300946E-06
  4.25650000E-01 -1.04815353E-04 -6.47674658E-07  1.29260186E-05  3.58031190E-02
  1.29181042E-06  1.23682622E-09  8.10120153E-05 -1.42949635E-07 -1.28952296E-03
  3.92168970E-04 -1.42658537E-02 -2.47633175E-02  1.47065793E-06 -2.37214022E-02
  2.70391130E-02  4.69331549E-02 -2.70314706E-06  5.26727259E-02 -2.94105833E-03
 -5.08552070E-03 -1.10626784E-06 -2.32720131E-01 -4.06132301E-02 -7.05152909E-02
  1.88243187E-06 -2.58949484E-02 -2.56341201E-06 -4.29229856E-06 -2.03132389E-02
  3.50269377E-02 -1.28939952E-03  3.92095103E-04 -1.43160698E-02  2.47340488E-02
  1.47073266E-06 -2.37214061E-02  2.71341397E-02 -4.68774122E-02 -2.70327320E-06
  5.26718448E-02 -2.95148920E-03  5.07959472E-03 -1.10623458E-06 -2.32718064E-01
 -4.07562319E-02  7.04321766E-02  1.88263912E-06 -2.58947268E-02 -2.57223912E-06
  4.28726697E-06 -2.01704098E-02 -3.51089276E-02 -1.25864039E-03  3.73710617E-04
  2.85212108E-02  2.89968536E-05  5.80530246E-07 -2.37244511E-02 -5.39822742E-02
 -5.48750018E-05 -1.01451233E-06  5.24680764E-02  5.90475231E-03  5.95472232E-06
 -1.28694340E-06 -2.32302250E-01  8.12643488E-02  8.27182753E-05 -6.52060024E-07
 -2.58403996E-02  2.33991963E-06  2.38536728E-09  4.03944136E-02  8.21473598E-05
  4.46664959E-04 -1.27288610E-03  1.40193491E-05  5.88636450E-08 -1.13099271E-06
 -1.75359726E-02 -4.79096346E-05 -2.10402060E-07  1.39833306E-06 -1.41825932E-01
 -5.67137064E-06 -4.18292561E-08 -1.29358095E-05  6.55276140E-01  1.33183684E-04
  5.81198439E-07  2.91009114E-05 -9.53198435E-03 -3.44238447E-07 -3.31123189E-10
 -2.59621071E-05  4.99788569E-08 -1.29694267E+00  1.34947135E+00  6.86578220E-04
  1.19077830E-03  2.28133280E-07 -1.75937450E-01 -2.86884011E-03 -4.97450862E-03
 -7.08620053E-07  2.66843013E-01  2.52609219E-02  4.38226545E-02  2.63763564E-06
 -3.24703959E-01 -3.50372839E-02 -6.07657636E-02 -4.19286738E-06  1.85615121E-04
  2.63330089E-07  3.11512790E-07 -1.86315232E-03  3.21668110E-03 -1.29694451E+00
  1.34947326E+00  6.88978701E-04 -1.18933950E-03  2.28130862E-07 -1.75937709E-01
 -2.87889075E-03  4.96854131E-03 -7.08608037E-07  2.66843529E-01  2.53500552E-02
 -4.37712322E-02  2.63746737E-06 -3.24704984E-01 -3.51609812E-02  6.06945589E-02
 -4.19261799E-06  1.85565605E-04  2.63947746E-07 -3.10962969E-07 -1.85009473E-03
 -3.22430145E-03 -1.29737106E+00  1.34991567E+00 -1.36358465E-03 -1.38361525E-06
  2.70977257E-07 -1.76001720E-01  5.71012055E-03  5.79663152E-06 -8.87594848E-07
  2.66970560E-01 -5.06018400E-02 -5.14167268E-05  4.20863023E-06 -3.24974408E-01
  7.02072498E-02  7.13082850E-05 -6.36844534E-06  1.72655319E-04 -5.06233780E-07
 -5.21103686E-10  3.73676675E-03  7.60049802E-06 -2.57906028E-05  3.61706339E-05
 -3.05382265E-02  1.29318496E-05  6.34419794E-07 -1.03349822E-05  5.33257008E-02
 -2.25604225E-05 -1.10962797E-06  3.94358125E-05 -2.12843800E-01  9.01106247E-05
  4.41624802E-06 -1.03704747E-04  3.12230528E-01 -1.32342283E-04 -6.47453605E-06
  2.86771678E-05  1.45457868E-06 -3.33229618E-09  4.42064554E-02  1.53586914E-04
  9.15311151E-01 -9.55096274E-01 -3.47674669E-03 -6.18280981E-03  5.58212456E-07
  1.36861093E-01  1.06823651E-02  2.28219169E-02 -1.85897681E-06 -2.19285039E-01
  1.82139528E-02 -7.36235838E-02  3.98997378E-06  2.61157336E-01 -1.71154171E-02
  7.12683466E-02 -4.21450970E-06 -1.96681865E-03 -1.18348485E-06  1.09246234E-07
  5.61980240E-03  9.57884380E-03  9.19889841E-01 -9.59873976E-01 -3.50718339E-03
  6.20636541E-03  5.61034565E-07  1.37545703E-01  1.07946929E-02 -2.29070262E-02
 -1.86860719E-06 -2.20381868E-01  1.78515211E-02  7.38535794E-02  4.01647468E-06
  2.62463802E-01 -1.67645106E-02 -7.14915190E-02 -4.24187797E-06 -1.97662340E-03
 -1.18218599E-06 -1.09493498E-07  5.63117342E-03 -9.57158350E-03 -1.83459586E+00
  1.91433696E+00 -1.42127053E-02 -1.45771250E-05 -6.79137285E-07 -2.74313202E-01
  5.02988284E-02  5.47076680E-05  2.23668610E-06  4.39531087E-01 -1.09679579E-01
 -1.98833422E-04 -6.47828607E-06 -5.23472278E-01  1.06704084E-01  1.92290043E-04
  6.94380109E-06  3.92776478E-03 -9.19274071E-08  1.26944656E-09 -1.09430927E-02
 -6.19171793E-06  1.26503145E-07 -1.77401853E-07  1.29761707E-05  3.05747503E-02
 -8.66017031E-10  3.88792923E-08 -2.27045927E-05 -5.34475502E-02  1.52335132E-09
 -1.79006655E-07  9.03504727E-05  2.12837822E-01 -6.00265212E-09  4.54097949E-07
 -1.32332458E-04 -3.12095556E-01  8.77860806E-09 -1.49772480E-07  1.31925873E-09
 -3.29573543E-06 -1.53855653E-04  4.42808688E-02 -1.59030480E+00  1.65943421E+00
  6.19442762E-03  1.06688521E-02 -9.73497180E-07 -2.37806763E-01 -2.28629446E-02
 -3.72305934E-02  3.32064890E-06  3.80960136E-01  7.36409873E-02  6.72937853E-02
 -9.11406643E-06 -4.53641097E-01 -7.12670532E-02 -6.56402413E-02  9.41242063E-06
  3.42114568E-03 -3.82480900E-07  7.53608256E-07  9.58747290E-03 -5.44519728E-03
  1.58765920E+00 -1.65667360E+00 -6.20600291E-03  1.06383485E-02  9.71918749E-07
  2.37411126E-01  2.29074802E-02 -3.71179672E-02 -3.31539504E-06 -3.80326376E-01
 -7.38293781E-02  6.69313277E-02  9.10276228E-06  4.52886608E-01  7.14489740E-02
 -6.52895862E-02 -9.40046947E-06 -3.41540405E-03  3.84343540E-07  7.54747031E-07
 -9.58146700E-03 -5.45649745E-03  2.64246245E-03 -2.75732576E-03  2.05797387E-05
 -8.46394687E-05  9.78344009E-10  3.95136456E-04 -7.50361600E-05  2.46515029E-03
 -3.21863630E-09 -6.33110238E-04  2.19652742E-04 -6.05897957E-02  9.22884764E-09
  7.53837682E-04 -2.12777136E-04  5.81229756E-02 -9.89635148E-09 -5.66800459E-06
 -8.05768891E-10  9.41742457E-07 -6.88512028E-06  1.11544338E-02
Orthonormal basis                          R   N=        7744
  2.76623725E-02  3.04247444E-02 -2.26219905E-06 -5.84316201E-09  1.32597278E-06
  1.00446715E-01 -3.80100054E-06 -5.74399447E-09  3.44057189E-06  1.39524311E-01
  6.85178075E-07  1.99291030E-08  5.11829358E-06  1.24397496E-01  2.76036249E-06
  2.50717808E-08  3.89728429E-06 -8.93082340E-03 -3.21049234E-07 -3.00143770E-10
 -7.52339935E-07  5.28528592E-09  1.16724265E-02  1.23428932E-02  5.32311104E-03
  9.24108766E-03 -1.97878455E-07  4.40431419E-02  1.55115320E-02  2.69285096E-02
 -5.80328581E-07  7.84524992E-02  3.64268901E-02  6.32373753E-02 -1.26362087E-06
  9.76124382E-02  4.40371827E-02  7.64452070E-02 -1.36639807E-06 -3.64654189E-03
 -1.69155816E-07 -2.65696691E-07 -2.77902655E-03  4.79098900E-03  1.16724185E-02
  1.23428847E-02  5.34188954E-03 -9.23023688E-03 -1.97910841E-07  4.40431122E-02
  1.55662539E-02 -2.68968930E-02 -5.80423073E-07  7.84524593E-02  3.65554118E-02
 -6.31631528E-02 -1.26384386E-06  9.76124113E-02  4.41925671E-02 -7.63555013E-02
 -1.36666850E-06 -3.64653719E-03 -1.69712406E-07  2.65383632E-07 -2.75951471E-03
 -4.80224654E-03  1.16696819E-02  1.23399935E-02 -1.06624507E-02 -1.08418065E-05
  1.33786589E-07  4.40330232E-02 -3.10711302E-02 -3.15938182E-05  3.86133900E-07
  7.84385069E-02 -7.29746098E-02 -7.42010518E-05  1.00594016E-06  9.76026508E-02
 -8.82273222E-02 -8.97050182E-05  1.37730551E-06 -3.64520434E-03 -5.40552345E-08
 -5.36199650E-11  5.53695489E-03  1.12610197E-05 -2.25279564E-07 -2.08818727E-07
  4.50007047E-02 -1.12008657E-05 -9.32000636E-07 -1.70833738E-06  1.09052830E-01
 -2.71436486E-05 -2.25857966E-06 -1.77903472E-06  1.84295030E-01 -4.58733441E-05
 -3.81660081E-06 -1.45377888E-06  1.77523278E-01 -4.41879539E-05 -3.67616849E-06
  2.90292883E-06  1.87648891E-06 -4.48589184E-10 -3.38212093E-04 -1.11581296E-06
 -1.61585077E-02 -1.70491405E-02  1.53713485E-02 -1.34549193E-02  1.53697867E-07
 -4.66344073E-02  3.88591172E-02 -3.24533520E-02  3.13040879E-07 -6.16730575E-02
  9.11597544E-02 -5.13189624E-02 -3.52852033E-07 -4.87894737E-02  1.32746731E-01
 -3.93460969E-02 -1.80364956E-06  1.98796912E-03 -2.75068779E-07  4.75527030E-07
  1.08784538E-02  3.63718352E-03 -1.62294974E-02 -1.71240430E-02  1.53098401E-02
  1.34866477E-02  1.56524033E-07 -4.68392915E-02  3.87107573E-02  3.25289987E-02
  3.19766789E-07 -6.19440320E-02  9.09251714E-02  5.14238048E-02 -3.43236665E-07
 -4.90038549E-02  1.32566942E-01  3.93951599E-02 -1.79729468E-06  1.99670276E-03
 -2.72213339E-07 -4.77793313E-07  1.08839762E-02 -3.57592130E-03  3.23823029E-02
  3.41671554E-02 -7.99222381E-03 -3.73851941E-05 -7.78569764E-07  9.34590576E-02
 -1.74968810E-02 -9.06198563E-05 -1.87335236E-06  1.23607059E-01  2.03798180E-03
 -1.50692991E-04 -3.11222673E-06  9.77921196E-02  6.44346946E-02 -1.31150419E-04
 -3.22449853E-06 -3.98381724E-03  5.95025044E-07  8.23078268E-10  4.63355737E-03
  2.58291690E-05 -8.71734164E-09 -9.33263634E-09  1.12016385E-05  4.50025096E-02
 -1.09850175E-09 -2.94290414E-08  2.71452586E-05  1.09055655E-01 -2.66195243E-09
 -3.26389583E-08  4.58725822E-05  1.84298974E-01 -4.49691260E-09 -2.34150709E-08
  4.41878195E-05  1.77530969E-01 -4.33079927E-09  1.37700557E-08  4.81716818E-10
  1.86258558E-06 -1.07012545E-06  3.24315780E-04 -2.80699851E-02 -2.96171437E-02
 -1.34506496E-02 -2.42758298E-04  1.09806753E-06 -8.10094704E-02 -3.24413821E-02
  1.19863965E-03  2.61239935E-06 -1.07130401E-01 -5.12822612E-02  3.16189756E-02
  3.72599734E-06 -8.47488361E-02 -3.92872426E-02  8.71182564E-02  2.45271893E-06
  3.45282822E-03  7.48865199E-07  6.57256365E-07 -3.57966770E-03 -6.71850138E-03
  2.80289711E-02  2.95738691E-02  1.34899068E-02 -1.81273677E-04 -1.09767183E-06
  8.08911108E-02  3.25369618E-02  1.34692507E-03 -2.61158524E-06  1.06973907E-01
  5.14482027E-02  3.18533686E-02 -3.72675320E-06  8.46250546E-02  3.94457410E-02
  8.72978785E-02 -2.45695385E-06 -3.44778248E-03 -7.50913248E-07  6.54530897E-07
  3.63451633E-03 -6.71295244E-03  4.09920440E-05  4.32514269E-05 -3.36189639E-05
  2.31133797E-02 -9.43621254E-10  1.18304377E-04 -8.06465575E-05  5.75318184E-02
 -2.26696822E-09  1.56461051E-04 -1.20124904E-04  1.20682845E-01 -3.72048210E-09
  1.23778943E-04 -7.64206851E-05  1.55377579E-01 -3.79938957E-09 -5.04194688E-06
  9.01638203E-10 -1.69051198E-07  3.22202802E-05 -1.29580971E-02 -2.29939397E-06
 -2.50543494E-06  9.20226812E-07  8.55753881E-10  4.44237339E-02 -6.33481959E-06
  2.18670460E-06  2.03265796E-09  1.05575462E-01 -7.22691098E-06  3.79590377E-06
  3.52637345E-09  1.83299769E-01 -5.02863073E-06  3.80883719E-06  3.53791067E-09
  1.83931798E-01  2.87253369E-06 -7.95836229E-06 -3.01808752E-08  1.40842948E-10
 -1.59479979E-12  4.49699557E-07  4.75845832E-07  6.96909657E-07  3.53418351E-07
  2.38378126E-02  1.18477444E-06  1.67486335E-06  8.00736159E-07  5.86423169E-02
  1.09211515E-06  2.93074255E-06  7.69938715E-07  1.20185808E-01  1.51299350E-07
  3.23374107E-06  5.24178265E-08  1.54796985E-01 -8.98190136E-07  6.38824232E-03
  1.10909907E-02 -2.89252469E-08  5.07313574E-07  4.49695862E-07  4.75841930E-07
  6.97624745E-07 -3.52084286E-07  2.38377898E-02  1.18476426E-06  1.67648320E-06
 -7.97535351E-07  5.86422628E-02  1.09210290E-06  2.93229533E-06 -7.64405788E-07
  1.20185730E-01  1.51290192E-07  3.23383613E-06 -4.63985393E-08  1.54796932E-01
 -8.98255446E-07  6.41077177E-03 -1.10779595E-02 -2.69012097E-08 -5.07447929E-07
  4.48273084E-07  4.74340240E-07  8.75072415E-08  4.54539091E-11  2.38316008E-02
  1.18079848E-06  2.94385776E-07  1.92266472E-10  5.86274854E-02  1.08716729E-06
  1.60690887E-06  1.41461331E-09  1.20163650E-01  1.47512376E-07  3.15144941E-06
  2.92221159E-09  1.54781121E-01 -2.08390914E-07 -1.27937138E-02 -1.30113792E-05
  5.50616602E-08  1.35430451E-10 -1.23544163E-01 -1.29250564E-01  3.64585637E-05
  1.09592076E-07 -8.02355451E-06 -1.52040515E-01  4.46634298E-05  1.14923076E-07
 -1.21338521E-05 -3.37455297E-02  2.09520019E-06 -2.84385696E-08 -4.60035958E-06
  1.18339348E-01 -1.41451971E-05 -3.81304679E-08  3.83710112E-06  1.38708896E-02
  5.01124321E-07  4.77296370E-10  2.46141116E-05  2.10655176E-09  8.46122958E-02
  8.73832101E-02 -3.86448109E-02 -6.70768772E-02  9.97120635E-07  1.05447403E-01
 -6.62850327E-02 -1.15053610E-01  1.72059430E-06  9.67588584E-02 -8.22766819E-02
 -1.42808206E-01  2.22794708E-06  1.15820996E-01 -2.39467961E-02 -4.15328394E-02
  9.60871457E-07  1.22959078E-02  3.32640585E-07  5.41407960E-07  1.01849942E-02
 -1.75569002E-02  8.46124043E-02  8.73833219E-02 -3.87810766E-02  6.69980256E-02
  9.97354963E-07  1.05447552E-01 -6.65187642E-02  1.14918365E-01  1.72099636E-06
  9.67589719E-02 -8.25668639E-02  1.42640448E-01  2.22844917E-06  1.15821004E-01
 -2.40312232E-02  4.14840235E-02  9.61018640E-07  1.22958638E-02  3.33801246E-07
 -5.40837515E-07  1.01134684E-02  1.75981118E-02  8.46579325E-02  8.74302227E-02
  7.73639435E-02  7.86603629E-05 -1.41082078E-06  1.05508835E-01  1.32700808E-01
  1.34925499E-04 -2.40957424E-06  9.68044830E-02  1.64763608E-01  1.67525463E-04
 -2.89861894E-06  1.15823347E-01  4.79393777E-02  4.87189682E-05 -5.31024353E-07
  1.22809914E-02  6.58623751E-07  6.68436268E-10 -2.02701571E-02 -4.12283916E-05
  1.16929919E-05  1.20352820E-05 -1.35136412E-01  3.35214195E-05  2.80367514E-06
  1.06900906E-05 -1.99696138E-01  4.95432962E-05  4.14239962E-06 -1.18255777E-05
 -5.60417531E-02  1.39191130E-05  1.16208318E-06 -1.00041545E-05  1.00664588E-01
 -2.49703348E-05 -2.08679611E-06 -6.58203978E-06 -7.58722712E-06  1.14305719E-09
  1.36139568E-02  4.49446040E-05 -4.43687784E-02 -4.57240721E-02 -1.85127471E-02
  8.73208737E-02 -1.88665422E-06 -4.95170986E-02 -3.14332641E-02  1.42701313E-01
 -3.05272624E-06 -5.05835493E-02 -4.63018093E-02  1.48041150E-01 -2.49468812E-06
 -4.56156109E-02  1.87168808E-02  7.61890717E-02 -1.72871985E-06 -9.70999578E-03
  3.59716781E-07 -1.54562143E-06 -3.13436928E-02 -1.56995951E-03 -4.45638398E-02
 -4.59250913E-02 -1.81136255E-02 -8.75671439E-02 -1.90150900E-06 -4.97348042E-02
 -3.07810066E-02 -1.43103200E-01 -3.07697635E-06 -5.08058556E-02 -4.56251335E-02
 -1.48451411E-01 -2.51814478E-06 -4.58159791E-02  1.90651665E-02 -7.64214766E-02
 -1.73887428E-06 -9.75260777E-03  3.50966049E-07  1.55253754E-06 -3.13458460E-02
  1.36748056E-03  8.89976562E-02  9.17160438E-02  1.33130184E-01  2.22409023E-04
  1.78585699E-06  9.93272687E-02  2.16390303E-01  3.63763413E-04  2.93092418E-06
  1.01435377E-01  2.10840734E-01  3.80833653E-04  2.54695692E-06  9.14399992E-02
  1.51109939E-01  1.85531872E-04 -4.47632685E-07  1.94501933E-02 -1.38373808E-06
 -1.79420331E-09 -2.87792935E-02 -9.92408846E-05 -7.37849644E-08 -7.62557613E-08
  3.36061101E-05  1.35201601E-01 -3.31697384E-09 -6.92890032E-08  4.96486710E-05
  1.99772754E-01 -4.89756109E-09  4.52373123E-08  1.39156116E-05  5.60550703E-02
 -1.37159751E-09  4.41267125E-08 -2.50222809E-05 -1.00667253E-01  2.46203798E-09
  2.13075130E-08  2.47860490E-09  7.02606292E-06 -4.45101607E-05  1.35034656E-02
  7.70586539E-02  7.94123867E-02 -8.73563364E-02 -8.29005195E-02  5.75843971E-06
  8.59887772E-02 -1.42751446E-01 -1.34289015E-01  9.39951566E-06  8.78520817E-02
 -1.48063537E-01 -1.25588669E-01  9.07430221E-06  7.92286537E-02 -7.62219380E-02
 -1.07206298E-01  3.91146107E-06  1.68741656E-02  2.21363678E-06  2.39022929E-06
 -1.36090748E-03 -2.96608773E-02 -7.69463928E-02 -7.92966960E-02  8.75707017E-02
 -8.25013349E-02 -5.75392275E-06 -8.58635164E-02  1.43102346E-01 -1.33636715E-01
 -9.39220843E-06 -8.77239939E-02  1.48434433E-01 -1.24912218E-01 -9.06838758E-06
 -7.91130257E-02  7.63917901E-02 -1.06858181E-01 -3.90745020E-06 -1.68494902E-02
 -2.21948269E-06  2.38188941E-06  1.56083922E-03 -2.96585358E-02 -1.12525125E-04
 -1.15962120E-04 -2.38463222E-04  6.87640117E-02 -2.14488530E-09 -1.25564939E-04
 -3.89393174E-04  1.13550857E-01 -3.51862565E-09 -1.28266221E-04 -4.00544738E-04
  1.31498493E-01 -3.00056975E-09 -1.15668022E-04 -2.16791555E-04  2.51519486E-02
  6.05750642E-10 -2.46267251E-05  2.00161296E-09 -2.98831932E-07  1.01870618E-04
 -3.21640259E-02 -5.31968928E-08 -5.68940371E-08 -1.63546939E-04 -1.07002416E-01
  5.45985171E-09 -2.21219619E-08 -2.44895557E-04 -1.60220574E-01  8.17265448E-09
 -5.42154587E-08 -8.32725565E-05 -5.44581540E-02  2.77816285E-09 -1.43525516E-08
  1.13326571E-04  7.41648302E-02 -3.77119196E-09 -1.62707642E-07  1.40798012E-08
 -5.97749615E-06 -9.90710957E-04  2.16380973E-01  1.42886268E-01  1.46207372E-01
  4.47192278E-03  1.10529030E-01 -1.17719796E-05  1.41790059E-01  2.67417276E-03
  1.62573260E-01 -1.77147878E-05  7.30144725E-02 -4.05756770E-02  8.98891605E-02
 -1.38237003E-05 -1.21713840E-02 -5.53113275E-02  3.69504876E-02 -4.90789624E-06
 -2.20877936E-02 -2.80236611E-06 -6.31934559E-06 -3.36634549E-02  4.23880883E-02
 -1.42466618E-01 -1.45777966E-01 -4.15941203E-03  1.10498387E-01  1.17269461E-05
 -1.41373666E-01 -2.19149612E-03  1.62556169E-01  1.76466645E-05 -7.28001246E-02
  4.10908513E-02  9.01804791E-02  1.37665070E-05  1.21356762E-02  5.57512097E-02
  3.73462556E-02  4.87958979E-06  2.20229680E-02  2.80165270E-06 -6.29656792E-06
  3.34727823E-02  4.23536863E-02 -4.18994743E-04 -4.28733241E-04  1.82821660E-04
  1.03078351E-01  2.84794352E-08 -4.15808613E-04  2.56349716E-04  1.58415247E-01
  4.34323134E-08 -2.14165821E-04  5.89759574E-06  1.60838351E-01  3.98103782E-08
  3.57429917E-05 -1.22533242E-04  1.33361587E-01  1.77457433E-08  6.48133089E-05
 -1.18028990E-08 -4.15418511E-07 -1.25028917E-04 -1.57786819E-02  1.72942766E-05
  1.81908199E-05  1.07040541E-01 -1.63533811E-04 -2.21914738E-06  1.20368598E-05
  1.60282740E-01 -2.44868104E-04 -3.32253378E-06  1.01434460E-05  5.45015898E-02
 -8.32296832E-05 -1.12977882E-06 -4.35096955E-06 -7.41863604E-02  1.13370045E-04
  1.53599417E-06  2.47650021E-05 -2.99670990E-06 -1.86400258E-08  2.16390563E-01
  9.90782455E-04 -8.20333459E-02 -8.39398046E-02 -1.05537382E-01 -4.15208716E-03
  8.89464952E-06 -8.13932070E-02 -1.59774135E-01 -2.19696513E-03  1.34527562E-05
 -4.19040797E-02 -1.37335013E-01  4.09083728E-02  1.12679401E-05  6.99500381E-03
 -1.01465747E-01  5.55076204E-02  5.57882906E-06  1.26812914E-02  2.67806241E-06
  3.38979197E-06  3.58729002E-03 -3.34608153E-02 -8.27594915E-02 -8.46828255E-02
 -1.05568305E-01  4.50011904E-03  8.95449039E-06 -8.21137117E-02 -1.59791774E-01
  2.69974585E-03  1.35427915E-05 -4.22750557E-02 -1.37044550E-01 -4.07288475E-02
  1.13380497E-05  7.05697485E-03 -1.01070401E-01 -5.55243381E-02  5.60356151E-06
  1.27935797E-02  2.69936160E-06 -3.41652422E-06  3.62161856E-03  3.36911535E-02
  1.64670123E-01  1.68496932E-01 -1.13079833E-01  1.47294656E-04 -1.11241366E-05
  1.63397270E-01 -1.64103084E-01  2.36199609E-04 -1.69633163E-05  8.41383279E-02
 -6.66333438E-02  3.41451335E-04 -1.55368004E-05 -1.40720258E-02 -5.16807855E-03
  3.34087359E-04 -6.88110575E-06 -2.54762316E-02  4.79487461E-06  3.78830960E-09
  6.17523770E-02  8.54627902E-05  8.42098414E-09  8.61500205E-09 -9.96519388E-07
 -3.16495396E-09 -6.50986221E-05  4.19074546E-09 -5.84121599E-07 -1.86364434E-09
 -8.68008306E-05  1.53439588E-09 -4.20597801E-06 -1.33188751E-08 -2.57976313E-05
  1.64458542E-09 -9.89264637E-06 -3.12999220E-08  4.50486647E-05 -6.97492925E-06
  1.94172456E-01  6.14811306E-04  3.02093735E-06  1.66315302E-08 -1.25597158E-05
 -1.27347798E-05 -4.64119460E-06 -7.50168400E-06 -1.27309155E-01 -7.57054721E-06
 -6.13884738E-06 -1.00109275E-05 -1.74538505E-01 -2.10185032E-06 -4.04090991E-06
 -6.78382840E-06 -1.46632023E-01  1.58848689E-06 -4.22836544E-06 -2.24720170E-06
 -6.72840045E-02  2.16774016E-06  2.89633678E-03 -2.09625783E-02  2.88176594E-06
 -9.02140209E-07 -1.24666819E-05 -1.26404492E-05 -4.60471583E-06  7.44711344E-06
 -1.26365340E-01 -7.51447054E-06 -6.08945356E-06  9.93888337E-06 -1.73244561E-01
 -2.08628448E-06 -4.00307531E-06  6.73838714E-06 -1.45545055E-01  1.57673014E-06
 -4.21295830E-06  2.21562663E-06 -6.67851161E-02  2.14780113E-06  2.94366384E-03
  2.08772501E-02  2.87804281E-06  8.97535668E-07  2.50025355E-05  2.53510281E-05
 -9.67475634E-06 -5.28552196E-09  2.53682525E-01  1.50712629E-05 -1.25701944E-05
 -6.39762907E-09  3.47794991E-01  4.18601793E-06 -6.64702714E-06 -1.00800761E-09
  2.92225614E-01 -3.15989012E-06 -3.91877628E-06 -7.52095513E-09  1.34196659E-01
 -3.32465958E-06 -3.32419476E-02 -1.60609310E-06  2.93300593E-06  1.21562091E-09
  8.91811116E-12  9.13030926E-12  3.14551485E-09 -9.99040268E-07 -1.01441992E-07
  4.24736432E-12  1.83750538E-09 -5.87500762E-07 -1.35272274E-07  2.01759897E-12
  1.33069157E-08 -4.20779564E-06 -5.27292039E-08  2.98395236E-12  3.13146713E-08
 -9.89095827E-06  4.63527615E-08  1.55642885E-08 -6.14457726E-04  1.94244288E-01
 -1.63951086E-08  5.03820521E-06 -2.16311203E-05 -2.19326003E-05 -1.20106210E-05
 -1.06141972E-05 -2.19428529E-01 -1.30378070E-05 -1.61948275E-05 -1.40137920E-05
 -3.00828230E-01 -3.61925466E-06 -1.19926634E-05 -8.79310397E-06 -2.52722628E-01
  2.73424596E-06 -4.62836977E-06 -5.40835729E-06 -1.16004098E-01  4.66383934E-06
 -2.08998365E-02 -2.11958353E-02  3.18174087E-08 -3.79352116E-06  2.16848290E-05
  2.19870575E-05  1.20520747E-05 -1.06226056E-05  2.19973450E-01  1.30701810E-05
  1.62496066E-05 -1.40247090E-05  3.01575305E-01  3.62824763E-06  1.20278446E-05
 -8.79862589E-06  2.53350380E-01 -2.74103438E-06  4.65752343E-06 -5.40892025E-06
  1.16292418E-01 -4.67321270E-06  2.09303174E-02 -2.12429926E-02 -2.88271179E-08
 -3.79756883E-06 -5.37361186E-08 -5.44850776E-08  1.84245239E-08  2.32480358E-06
 -5.44904201E-04 -3.23896723E-08  2.37016842E-08  3.25393970E-06 -7.47049571E-04
 -8.99453835E-09  1.13199821E-08  2.91401186E-06 -6.27678831E-04  6.79615062E-09
  9.98130109E-09 -1.53859564E-06 -2.88152765E-04  7.18823543E-09  5.61826964E-05
  1.49884026E-02 -1.72366946E-09 -2.23834824E-06  1.50059467E-03  1.12902372E-03
  3.35579395E-06  1.76177615E-08  1.84627160E-05  1.70814044E-02  9.19337590E-06
  4.93640218E-08  2.33475947E-05 -1.94456191E-02  1.56782221E-05  7.92186460E-08
  9.62029296E-06 -1.23985695E-01 -2.32148354E-05 -1.27525869E-07 -7.89863115E-06
 -1.23542602E-01 -4.43211224E-06 -4.11609147E-09  2.62533111E-06  7.85831245E-08
  2.45184335E-01  2.46679116E-01  4.04110840E-02  7.01492506E-02 -5.93932011E-06
  8.40727878E-02  4.90264766E-02  8.51043844E-02 -7.13630434E-06 -3.14399928E-02
  3.09913763E-02  5.37982834E-02 -4.50426884E-06 -1.04911316E-01 -2.23505512E-03
 -3.86429330E-03 -5.30854696E-06 -1.35690962E-02 -7.62321861E-08  2.36752343E-07
 -6.63270260E-03  1.14415225E-02  2.45184665E-01  2.46679448E-01  4.05537531E-02
 -7.00670720E-02 -5.93952733E-06  8.40729060E-02  4.91995819E-02 -8.50047186E-02
 -7.13655671E-06 -3.14400103E-02  3.11008293E-02 -5.37353406E-02 -4.50442684E-06
 -1.04911420E-01 -2.24287992E-03  3.85957621E-03 -5.30851688E-06 -1.35690629E-02
 -7.57898436E-08 -2.36801856E-07 -6.58608296E-03 -1.14684156E-02  2.45243321E-01
  2.46738492E-01 -8.10152635E-02 -8.23716229E-05 -3.40900929E-06  8.40947226E-02
 -9.82955965E-02 -9.99398532E-05 -4.06641378E-06 -3.14457147E-02 -6.21441858E-02
 -6.31916140E-05 -2.56237162E-06 -1.04933949E-01  4.42766508E-03  4.44537500E-06
 -5.44167693E-06 -1.35630016E-02 -1.30891508E-06 -1.31234898E-09  1.32289364E-02
  2.68728147E-05  4.50457735E-01  4.52551704E-01  3.07547167E-05  1.39816250E-07
 -1.61324864E-05  1.18243779E-01  3.36189066E-05  1.49616780E-07 -1.93135120E-05
 -1.62270978E-02 -4.84651429E-06 -1.98629602E-08 -4.93624919E-06 -1.60323551E-02
 -3.89779406E-05 -1.43751433E-07  9.41253772E-06  6.40019412E-02  2.29461270E-06
  2.12248896E-09 -3.59404302E-05 -2.12512773E-08  4.48843623E-02  4.50972435E-02
 -4.95618505E-02 -8.61115961E-02  4.47177804E-06  1.28234651E-02 -5.67592409E-02
 -9.86229800E-02  4.90240119E-06  7.91083260E-03 -3.05610201E-02 -5.31064408E-02
  2.51495445E-06 -3.14771920E-03 -2.32241491E-02 -4.02914895E-02  7.84790744E-06
 -5.99309006E-03 -1.93471305E-06 -3.60797383E-06 -8.70839423E-03  1.50411567E-02
  4.48846966E-02  4.50975789E-02 -4.97367425E-02  8.60106547E-02  4.47201495E-06
  1.28235388E-02 -5.69595533E-02  9.85074154E-02  4.90267058E-06  7.91074524E-03
 -3.06688428E-02  5.30441699E-02  2.51508516E-06 -3.14782309E-03 -2.33059834E-02
  4.02440379E-02  7.84802153E-06 -5.99305523E-03 -1.94209581E-06  3.60408490E-06
 -8.64706814E-03 -1.50763725E-02  4.49934959E-02  4.52067682E-02  9.93599549E-02
  1.01155257E-04  1.36522712E-06  1.28481716E-02  1.13802748E-01  1.15868420E-04
  1.34375274E-06  7.88786034E-03  6.12558796E-02  6.23799495E-05  5.95183980E-07
 -3.17923916E-03  4.64636809E-02  4.72250209E-05  6.39467560E-06 -5.98237808E-03
  3.22566629E-06  3.26550964E-09  1.73478662E-02  3.52520147E-05 -7.34275566E-09
 -7.36367499E-09  1.43323044E-06 -1.92960052E-03  8.61984174E-12 -1.49184873E-09
  1.40143424E-06 -1.84944582E-03  7.80665012E-12  5.76479812E-10  6.08078809E-07
 -7.91765037E-04  2.99089837E-12  2.18492275E-09  1.90811649E-06 -2.86091407E-03
  1.53607187E-11  1.04618261E-09  3.03248424E-10 -3.50055996E-07 -9.04741529E-06
  3.64299703E-03 -6.88194891E-03 -6.88844186E-03  2.15292591E-01 -1.22738406E-01
 -4.08674767E-06 -1.06428338E-03  2.52444078E-01 -1.44068126E-01 -4.78598492E-06
  1.51643931E-03  1.48969951E-01 -8.71724780E-02 -2.74430266E-06  1.83182104E-03
  3.36423259E-02 -2.23492608E-02 -5.47496458E-07 -5.49298170E-04  2.40964502E-07
  3.08450514E-08 -1.39181743E-02 -6.58767738E-03  6.87926802E-03  6.88575808E-03
 -2.15040264E-01 -1.23175309E-01  4.08641228E-06  1.06386980E-03 -2.52147927E-01
 -1.44580352E-01  4.78559482E-06 -1.51588195E-03 -1.48791365E-01 -8.74741491E-02
  2.74411232E-06 -1.83111237E-03 -3.35976851E-02 -2.24170046E-02  5.47496907E-07
  5.49076501E-04 -2.41125937E-07  3.03349947E-08  1.39450713E-02 -6.53175768E-03
  2.66884315E-06  2.67172779E-06 -2.57740118E-04  2.54017474E-01  2.90412023E-10
  4.10979344E-07 -3.02383731E-04  2.97946788E-01  3.39051979E-10 -5.57193433E-07
 -1.80115200E-04  1.76690784E-01  1.82227965E-10 -7.05352042E-07 -4.13692312E-05
  3.97166519E-02  2.82392838E-11  2.22556642E-07  3.60997394E-10 -3.57694664E-07
 -3.00568230E-05  1.45160107E-02 -9.91814058E-05 -9.94077368E-05 -7.72156814E-02
 -6.36434279E-05  1.61439092E-06 -1.87975279E-05 -7.37601076E-02 -6.07786893E-05
  1.54393305E-06  6.95875035E-06 -3.13409934E-02 -2.58094820E-05  6.53702712E-07
  1.74850255E-05 -1.16130605E-01 -9.55952242E-05  2.40279415E-06  2.41968971E-06
 -7.96474772E-06 -5.07496013E-09 -1.52135216E-01 -3.38994435E-04 -1.60514799E-01
 -1.60660225E-01  1.39028421E-01 -4.90829108E-02  5.86097206E-06 -2.45762987E-02
  1.61809823E-01 -6.05010980E-02  7.03602230E-06  3.53755464E-02  6.85668575E-02
 -7.11641297E-02  6.59794199E-06  4.27592125E-02 -4.29653682E-02 -4.45229539E-02
  4.39616716E-06 -1.29094134E-02 -3.55756862E-06 -1.89892979E-06  2.62938640E-03
  3.65843741E-02 -1.60622394E-01 -1.60767917E-01  1.38910844E-01  4.93345708E-02
  5.86737318E-06 -2.45927603E-02  1.61664838E-01  6.07954914E-02  7.04365356E-06
  3.53992948E-02  6.83955812E-02  7.13093217E-02  6.60412065E-06  4.27879108E-02
 -4.30727429E-02  4.44721746E-02  4.39903070E-06 -1.29180777E-02 -3.56200329E-06
  1.89377336E-06  2.76383663E-03 -3.65886057E-02  3.21031367E-01  3.21322227E-01
  5.36605022E-02  2.12815879E-05 -1.86111423E-05  4.91450339E-02  5.66212674E-02
  1.84515416E-05 -2.19679958E-05 -7.07818523E-02 -5.49062184E-02 -7.76599792E-05
 -1.49075640E-05 -8.55260018E-02 -1.20116655E-01 -1.18893649E-04 -4.53440988E-06
  2.58375132E-02 -2.83435665E-06 -2.48711456E-09 -6.06794253E-02 -1.18817893E-04
  2.73872018E-07  2.74669899E-07 -6.35163518E-05  7.72347848E-02 -2.15653712E-10
  5.56432119E-08 -6.06795668E-05  7.37660212E-02 -2.10254996E-10 -2.18525914E-08
 -2.57864748E-05  3.13289568E-02 -8.21341588E-11 -8.64758633E-08 -9.55910296E-05
  1.16080877E-01 -2.47605726E-10 -4.35795894E-08 -1.32285538E-08  1.42746703E-05
  3.38376573E-04 -1.52011330E-01  2.77995076E-01  2.78246401E-01  5.46347377E-02
 -8.51160065E-02 -1.62818405E-05  4.25470716E-02  6.69996862E-02 -9.51848450E-02
 -1.93916552E-05 -6.12861464E-02  7.49280078E-02  1.17313370E-02 -1.54464399E-05
 -7.40502032E-02  4.52817104E-02  9.39539897E-02 -7.01828566E-06  2.23699238E-02
  1.18767001E-06  5.18193641E-06  3.63201674E-02 -3.96828223E-02 -2.77932646E-01
 -2.78183915E-01 -5.45153186E-02 -8.52459320E-02  1.62792881E-05 -4.25374914E-02
 -6.68685480E-02 -9.53443634E-02  1.93886115E-05  6.12724623E-02 -7.49781849E-02
  1.15512623E-02  1.54439368E-05  7.40335889E-02 -4.54561288E-02  9.38444647E-02
  7.01694442E-06 -2.23649523E-02 -1.19698920E-06  5.17905783E-06 -3.61594297E-02
 -3.98161231E-02 -6.19557861E-05 -6.20117141E-05  1.53612056E-04 -1.61167658E-01
  3.32143747E-09 -9.47882407E-06  1.81822164E-04 -1.89467950E-01  3.92112210E-09
  1.36743195E-05  1.17740411E-04 -1.05315706E-01  2.69985504E-09  1.64810814E-05
  4.69772193E-06  1.82653918E-02  9.18375788E-10 -5.00537049E-06 -1.31563431E-09
  1.87862883E-06 -3.73540054E-05  2.41375243E-02  1.38155616E-05  1.34786655E-05
  9.75069599E-06  9.11548647E-09  4.69728409E-01 -3.58941767E-06  9.72756879E-06
  9.09291286E-09  4.68629050E-01 -3.71362334E-06  2.49516158E-06  2.32295607E-09
  1.20323424E-01  7.88317062E-06 -4.00101359E-06 -3.73050104E-09 -1.92899074E-01
  1.98233323E-05 -1.76604279E-05 -5.37726531E-08  2.40960685E-09 -1.56978401E-11
 -7.84449246E-06 -7.71586200E-06 -5.91667276E-06 -1.15816118E-05  3.65249282E-02
  2.33830012E-06 -5.17112057E-06 -1.04623215E-05  4.13836303E-02  6.01042161E-06
 -4.41307183E-06 -7.54118575E-06 -3.30666427E-03  4.68963878E-06 -7.53038207E-06
 -7.61912469E-06 -1.51532691E-01 -1.45013476E-05  6.13757862E-02  1.06543274E-01
 -4.75585870E-06  1.26038771E-05 -7.84450338E-06 -7.71587279E-06 -5.94019535E-06
  1.15694056E-05  3.65255164E-02  2.33830253E-06 -5.19237089E-06  1.04516203E-05
  4.13842025E-02  6.01043105E-06 -4.42838452E-06  7.53219734E-06 -3.30629943E-03
  4.68964458E-06 -7.54585522E-06  7.60433215E-06 -1.51532462E-01 -1.45019492E-05
  6.15920611E-02 -1.06417785E-01 -4.70492678E-06 -1.26233008E-05 -7.84906410E-06
 -7.72036700E-06  1.41254430E-05  1.42928906E-08  3.66671117E-02  2.33941323E-06
  1.29351630E-05  1.30740655E-08  4.15217805E-02  6.01435305E-06  8.63432257E-06
  8.78617206E-09 -3.21640028E-03  4.69155108E-06  5.65115409E-06  6.01626006E-09
 -1.51472122E-01 -7.87330258E-06 -1.22822486E-01 -1.24896165E-04  9.46216423E-06
  1.94625837E-08 -1.14208784E-05 -1.08876857E-05 -2.72309590E-06 -2.51060270E-09
 -1.31893489E-01 -7.65437651E-07 -2.23911333E-06 -2.07283121E-09 -1.08352870E-01
  5.04481118E-06 -1.15965006E-06 -1.08522090E-09 -5.59099139E-02  5.98190997E-07
 -2.80535589E-06 -2.62191430E-09 -1.35170123E-01  5.35234556E-05 -1.14682912E-04
 -4.79783485E-07 -8.93428068E-09 -2.42760568E-11  1.25331282E-05  1.22915718E-05
  6.23890632E-06 -4.26378123E-07  3.12846713E-01 -5.34413113E-06  6.41922573E-06
  7.27597541E-07  2.89468698E-01 -7.68083908E-06  7.36610866E-06  1.03660399E-05
  6.73126899E-02 -5.83088442E-06  3.77381261E-06  9.90300698E-06 -9.30761506E-02
  1.44532758E-05 -2.51280137E-02 -4.36046896E-02  5.24274493E-06 -1.08380076E-05
  1.25331388E-05  1.22915821E-05  6.23801872E-06  4.38015594E-07  3.12846720E-01
 -5.34413880E-06  6.42068031E-06 -7.15504267E-07  2.89468701E-01 -7.68085829E-06
  7.38716532E-06 -1.03512516E-05  6.73127135E-02 -5.83089860E-06  3.79394326E-06
 -9.89499338E-06 -9.30761093E-02  1.44535317E-05 -2.52167256E-02  4.35535987E-02
  5.19877037E-06  1.08593369E-05  1.25372301E-05  1.22955919E-05  7.00089081E-06
  6.58633950E-09  3.12856936E-01 -5.34657327E-06  5.18441611E-06  4.77913412E-09
  2.89477355E-01 -7.68604200E-06 -1.05602330E-05 -1.08529477E-08  6.73211481E-02
 -5.83511384E-06 -1.33623718E-05 -1.34291007E-08 -9.30653751E-02  1.17377789E-05
  5.03667013E-02  5.11890521E-05 -1.04411509E-05 -2.13196510E-08 -4.59344186E-05
 -4.32358518E-05  3.84388253E-01 -3.95061387E-04 -7.97234378E-06  1.89631419E-05
  3.02710064E-01 -3.11118710E-04 -6.27864427E-06  1.87313973E-05  5.85944238E-02
 -6.02366852E-05 -1.21501005E-06 -9.49574352E-06 -9.18348211E-02  9.43974894E-05
  1.91186253E-06  4.28972429E-05 -4.53180029E-06  3.10441628E-08 -3.04794473E-01
 -1.24301275E-03  7.34792571E-03  7.00369596E-03  3.24443003E-02  1.36627871E-01
 -8.98112060E-06 -7.91723372E-03  2.64886363E-02  1.00176508E-01 -6.85321792E-06
 -1.79364231E-02 -3.46194148E-02  2.85818409E-02  1.65051030E-07  1.08324252E-02
 -1.07663925E-01  5.79081282E-02  2.06900147E-06  3.52026121E-02 -1.09620639E-05
  1.08551661E-05  2.27619139E-01  7.07337470E-02  7.39996078E-03  7.05329006E-03
  3.32836881E-02 -1.37341905E-01 -9.05215078E-06 -7.97335422E-03  2.71041876E-02
 -1.00705602E-01 -6.90679916E-06 -1.80637531E-02 -3.44441150E-02 -2.86455616E-02
  1.58615638E-07  1.09095272E-02 -1.07309307E-01 -5.79605084E-02  2.06269318E-06
  3.54525392E-02 -1.08747804E-05 -1.09184632E-05  2.27616558E-01 -6.92076711E-02
 -1.46812490E-02 -1.39923661E-02  2.70158639E-01  3.68950796E-04  1.10200241E-05
  1.58346310E-02  2.00810083E-01  2.67738337E-04  8.44577432E-06  3.59429302E-02
  1.49266722E-02  1.19380623E-04  7.91730391E-07 -2.17815935E-02 -7.21788405E-03
  2.80748011E-04  4.93486096E-07 -7.05416372E-02  9.13723637E-06  2.77694628E-08
  1.06246814E-01  7.63558968E-04 -2.06775624E-07 -1.94688562E-07  3.95002472E-04
  3.84395333E-01 -1.56258889E-08  9.07962670E-08  3.11030453E-04  3.02681575E-01
 -1.23052282E-08  8.18938017E-08  6.02127660E-05  5.86107459E-02 -2.38264128E-09
 -2.64029351E-08 -9.43858935E-05 -9.18636993E-02  3.76419683E-09  1.72928405E-07
  8.72723593E-09 -1.71935546E-05 -1.24332365E-03  3.04874089E-01  1.27203735E-02
  1.21232211E-02  1.36942151E-01  1.91497511E-01 -1.72752546E-05 -1.37364330E-02
  1.00406552E-01  1.43095539E-01 -1.30321161E-05 -3.11615979E-02  2.85000460E-02
 -1.48818711E-03 -1.54796767E-06  1.88978867E-02  5.76968767E-02 -4.04969250E-02
 -1.48859938E-06  6.12317718E-02  1.59550479E-05  9.85528452E-06 -6.92963792E-02
 -1.46759955E-01 -1.26901926E-02 -1.20944540E-02 -1.37196178E-01  1.90658696E-01
  1.72389753E-05  1.37038783E-02 -1.00587263E-01  1.42480636E-01  1.30044261E-05
  3.10879545E-02 -2.86378862E-02 -1.66327534E-03  1.54861020E-06 -1.88534367E-02
 -5.80536348E-02 -4.08514865E-02  1.49692664E-06 -6.10870384E-02 -1.60201180E-05
  9.77831876E-06  7.08239860E-02 -1.46760782E-01 -2.99297517E-05 -2.85237393E-05
  5.99443885E-04 -4.61414559E-02  2.24262676E-08  3.23248121E-05  4.42303776E-04
 -3.11170512E-02  1.71915207E-08  7.34130005E-05  8.22390545E-05 -5.09759644E-02
  1.52811156E-09 -4.46034637E-05  1.28379556E-04 -1.40904417E-01  7.78054205E-10
 -1.44217687E-04  2.74017739E-08 -9.02787118E-06  7.62011248E-04 -2.67864305E-01
 -1.04772011E-01 -9.55033358E-02 -3.82411534E-05  5.43336339E-07 -3.03914281E-06
  2.75750941E-02 -6.19098509E-05  1.13537437E-07 -2.75782117E-06  5.43728997E-02
 -4.41358568E-05 -4.63922543E-07  1.57821681E-06 -4.17747602E-02  3.11758206E-05
 -2.19660832E-07  7.40985392E-06  5.68841776E-01  2.04209895E-05  1.91324410E-08
  6.56849642E-05 -1.76972758E-06  7.96296463E-02  7.61250486E-02 -8.50396106E-02
 -1.47587663E-01 -3.11791949E-05 -7.54798206E-02 -5.08086642E-02 -8.81732996E-02
 -2.23239202E-05 -7.15241856E-02  6.67933283E-02  1.15915493E-01 -4.35318974E-06
 -6.85875307E-02  6.79191728E-02  1.17797151E-01  6.10948487E-06  1.42910967E-01
  2.84504301E-05  4.42857544E-05  5.30656412E-02 -9.16489349E-02  7.96291332E-02
  7.61245550E-02 -8.53382484E-02  1.47416110E-01 -3.11787025E-05 -7.54793063E-02
 -5.09870965E-02  8.80712045E-02 -2.23236111E-05 -7.15239547E-02  6.70281069E-02
 -1.15778360E-01 -4.35347058E-06 -6.85875318E-02  6.81577268E-02 -1.17658580E-01
  6.10918308E-06  1.42909471E-01  2.85406496E-05 -4.42284836E-05  5.26898930E-02
  9.18625921E-02  7.96664551E-02  7.61598170E-02  1.70295541E-01  1.75158000E-04
 -3.64745425E-05 -7.55254881E-02  1.01778841E-01  1.04871266E-04 -2.54856513E-05
 -7.16062503E-02 -1.33733457E-01 -1.36158297E-04 -1.80470929E-07 -6.86056662E-02
 -1.35990973E-01 -1.38924331E-04  1.03486922E-05  1.42846864E-01 -4.15446548E-05
 -4.24411520E-08 -1.05966223E-01 -2.13997348E-04  5.14599610E-07  4.69672694E-07
 -1.97181800E-05  1.19269675E-01 -1.87094819E-09 -1.05174075E-07 -1.02047920E-05
  6.14236702E-02 -9.46694636E-10 -2.50561763E-07  9.13143580E-06 -5.54579947E-02
  8.80331771E-10  1.84383287E-07  9.86238059E-06 -5.95226319E-02  9.09309792E-10
 -3.32933575E-06 -1.59770882E-08  2.56489085E-05  9.04339281E-04 -3.13415013E-01
  5.38160626E-02  5.15213085E-02 -1.17188159E-01  1.60221480E-01  4.70190762E-06
 -5.92789355E-02 -7.44048854E-02  1.18509155E-01  2.66567907E-06 -4.45265247E-02
  6.92983106E-02  7.66731789E-02 -6.85317166E-06 -5.47067341E-03  9.04794948E-02
  1.50238871E-02 -7.35863010E-06  1.14153591E-01  9.94097065E-07  2.13710219E-05
  2.32571839E-01 -1.59377727E-01 -5.37639175E-02 -5.14713849E-02  1.17366726E-01
  1.60658321E-01 -4.70922562E-06  5.92214519E-02  7.45127121E-02  1.18786479E-01
 -2.67115609E-06  4.44835603E-02 -6.94607426E-02  7.64149798E-02  6.84828095E-06
  5.46598475E-03 -9.06633074E-02  1.46867060E-02  7.35640365E-06 -1.14043185E-01
 -1.00321390E-06  2.13598759E-05 -2.32108163E-01 -1.59927976E-01 -5.32895025E-05
 -5.10161849E-05 -2.91632285E-04  3.63539195E-01 -3.04611187E-09  5.86629424E-05
 -1.87903746E-04  2.47585704E-01 -1.87795036E-09  4.41526458E-05  1.44390184E-04
 -4.36570040E-02  3.18534912E-09  5.73193961E-06  2.02394531E-04 -1.42040214E-01
  3.89985254E-09 -1.13070788E-04 -2.54130346E-09  1.00354079E-05 -2.42808175E-04
  2.42690488E-01 -1.27664099E-05 -1.11361515E-05  1.19323896E-01  1.96723980E-05
 -2.47471261E-06  1.23948131E-05  6.14970461E-02  1.00885578E-05 -1.27346887E-06
  1.16669838E-05 -5.54339944E-02 -9.17664636E-06  1.15082330E-06 -1.38973231E-05
 -5.95291825E-02 -9.79241173E-06  1.23473780E-06 -1.84892754E-05  1.26427537E-05
 -9.53660460E-09  3.13441657E-01  9.04384182E-04  3.09963165E-02  2.96745971E-02
  2.96032456E-01 -1.17075059E-01 -4.82789271E-06 -3.41475136E-02  2.04723564E-01
 -7.43237051E-02 -3.59706079E-06 -2.56419264E-02 -3.68339734E-03  6.92973274E-02
 -3.04511846E-06 -3.14938627E-03 -8.98786743E-02  9.04335914E-02 -1.29703846E-06
  6.57868872E-02  2.06864625E-05  6.54186708E-06 -1.08411147E-01 -2.32453903E-01
  3.10878656E-02  2.97622426E-02  2.95594302E-01  1.17403099E-01 -4.81947938E-06
 -3.42484028E-02  2.04445338E-01  7.45375432E-02 -3.59225928E-06 -2.57177241E-02
 -3.42435617E-03 -6.94349139E-02 -3.05702438E-06 -3.15865980E-03 -8.95403880E-02
 -9.06413062E-02 -1.30988928E-06  6.59813715E-02  2.07022474E-05 -6.53623980E-06
 -1.08959980E-01  2.32283674E-01 -6.20540662E-02 -5.94081476E-02  9.28125571E-02
 -2.15113875E-04 -4.54585422E-06  6.83804345E-02  7.56747599E-02 -1.33817502E-04
 -2.86633983E-06  5.13654475E-02  1.16525668E-01  1.55676183E-04  3.83138780E-06
  6.28587606E-03  6.71094072E-02  1.89210237E-04  4.93715226E-06 -1.31808297E-01
  8.23201747E-06 -2.88709713E-10  2.93815279E-01  3.90997705E-04 -4.68627609E-11
 -4.22106001E-11 -1.70802765E-08 -1.61169276E-05  6.90445723E-07  2.00872818E-11
 -8.91365691E-09 -8.41299537E-06  4.86790931E-07  2.27611897E-11 -3.43073531E-09
 -3.23679763E-06  1.89182644E-07 -2.21190442E-11 -3.60559482E-11 -2.95841623E-08
 -3.04108388E-07 -3.98773046E-08  5.93614904E-04  5.59961657E-01 -1.14325084E-07
  3.97869569E-05  5.51716945E-06  5.20611554E-06 -2.99233672E-07 -4.37227341E-06
  1.64058858E-01 -5.93882183E-06  5.32577394E-08 -1.67487759E-06  9.59676913E-02
 -6.05987994E-06  6.81880619E-06  5.25183849E-06  9.37088446E-03 -3.72383207E-06
  1.00892909E-05  5.49518075E-06  9.66669432E-03  4.94953623E-05 -2.65959303E-01
 -3.61794233E-01 -1.41750383E-05 -3.60111818E-05 -5.50390464E-06 -5.19359848E-06
  3.15847629E-07 -4.35547097E-06 -1.63665298E-01  5.92454641E-06 -4.27480939E-08
 -1.66647301E-06 -9.57374042E-02  6.04531698E-06 -6.83900021E-06  5.21031430E-06
 -9.34832641E-03  3.71483933E-06 -1.01247088E-05  5.43340642E-06 -9.64400670E-03
 -4.93937339E-05  2.66470092E-01 -3.60146668E-01  1.44760789E-05 -3.59674092E-05
 -1.31968828E-08 -1.24528166E-08 -2.36504742E-08  2.06117861E-06 -3.92719033E-04
  1.42076093E-08 -1.22342367E-08  1.69435777E-06 -2.29685148E-04  1.44987259E-08
  2.46618822E-08 -6.25422726E-06 -2.23590584E-05  8.88831921E-09  3.45926924E-08
 -1.16943064E-05 -2.33752566E-05 -5.68893587E-08 -1.17023439E-03  9.99650099E-02
  1.11366269E-07 -4.16429235E-05 -8.35692554E-09 -7.52239843E-09 -1.61394033E-05
  1.71056818E-08  1.30308128E-04  3.53570229E-09 -8.42206648E-06  8.92684086E-09
  9.11220892E-05  4.09251296E-09 -3.24074209E-06  3.43361916E-09  3.48216711E-05
 -4.06548607E-09 -2.98454045E-08  3.09493191E-11 -5.57615038E-05 -2.00812389E-05
  5.60022704E-01 -5.93679206E-04 -1.65521030E-05 -1.17267382E-07  3.17842842E-06
  2.99919458E-06  1.88894153E-06 -3.73498803E-06  9.43326420E-02 -3.42180252E-06
  1.72415319E-06 -1.95723055E-06  5.51761286E-02 -3.49204442E-06 -2.33748997E-06
  6.63782996E-06  5.35148935E-03 -2.15001510E-06 -5.89327818E-06  9.91016584E-06
  5.48156895E-03  2.48579876E-05 -5.27754396E-02 -2.65566291E-01  3.75795347E-05
  3.42563384E-06  3.20134218E-06  3.02081613E-06  1.87998923E-06  3.75667948E-06
  9.50133504E-02 -3.44647237E-06  1.72032845E-06  1.96752091E-06  5.55742379E-02
 -3.51722349E-06 -2.29556647E-06 -6.66428575E-06  5.39008447E-03 -2.16548899E-06
 -5.83106914E-06 -9.94483099E-06  5.52147108E-03  2.50649699E-05 -5.44231033E-02
  2.66956330E-01  3.75341499E-05 -3.12315201E-06 -6.36746661E-06 -6.00837127E-06
 -1.04356636E-05 -1.46039190E-08 -1.89179957E-01  6.85594816E-06 -5.09272865E-06
 -8.52930547E-09 -1.10633176E-01  6.99774323E-06  8.83615685E-06  2.20044168E-08
 -1.07071737E-02  4.29686462E-06  1.09603337E-05  3.54705512E-08 -1.11296496E-02
 -2.75482009E-05 -5.14556076E-01 -7.31007971E-04  1.27524862E-05  1.13322591E-07
 -1.61258596E-01 -1.45852021E-01  1.78956660E-04  5.73087285E-07  4.82925153E-06
  2.14449626E-01  4.47833182E-05  1.71236731E-07 -3.48112577E-06  7.13162575E-02
 -1.23973942E-04 -4.19224136E-07 -6.07495990E-06 -9.44078282E-02  6.35525437E-05
  2.40123469E-07  4.76257115E-06 -1.58087577E-01 -5.65850398E-06 -5.20608168E-09
  3.02599784E-04 -1.80458902E-07  3.08087008E-03  2.59096243E-03 -1.29916164E-01
 -2.24603240E-01  1.18483987E-05  2.81580560E-03 -6.45345990E-02 -1.11574225E-01
  5.82459168E-06 -1.48805444E-02  3.73567467E-02  6.42999725E-02 -1.21115110E-06
 -8.48098190E-02  2.28342357E-02  3.88307893E-02  3.88425095E-06 -2.28520150E-01
 -3.12529387E-05 -5.12201803E-05 -1.55604756E-01  2.67560797E-01  3.08179614E-03
  2.59181230E-03 -1.30374799E-01  2.24339433E-01  1.18491870E-05  2.81461511E-03
 -6.47624061E-02  1.11443153E-01  5.82498080E-06 -1.48819110E-02  3.74884149E-02
 -6.42238891E-02 -1.21137049E-06 -8.48103666E-02  2.29148182E-02 -3.87846708E-02
  3.88410754E-06 -2.28521345E-01 -3.13579315E-05  5.11585699E-05 -1.54517157E-01
 -2.68192512E-01  3.38209206E-03  2.86734073E-03  2.60078250E-01  2.63033946E-04
  3.73841226E-06  2.42904909E-03  1.29186739E-01  1.30662312E-04  1.79586907E-06
 -1.53281899E-02 -7.45237276E-02 -7.49375884E-05  1.12126129E-06 -8.49898407E-02
 -4.54298731E-02 -4.49556158E-05  5.31142674E-06 -2.28955885E-01  3.80381205E-05
  3.88997692E-08  3.10170427E-01  6.31940786E-04  3.06012028E-04  2.75703398E-04
  1.31353102E-01  5.41431341E-07 -2.72151071E-06 -4.04301759E-04  1.12048830E-03
 -2.23453780E-09 -9.23623382E-09 -1.30401796E-04 -9.72443934E-02 -4.39388083E-07
  2.02973602E-06  1.74732983E-04  4.66714222E-02  1.75740521E-07 -9.78968996E-07
  1.19883245E-04  1.85285728E-05 -6.71372986E-09  1.54461896E-01  4.70630620E-04
 -5.54591453E-02 -5.06995697E-02 -1.74259397E-01  2.22441042E-01  9.75045978E-06
  7.38199718E-02 -8.17870456E-02  1.05533110E-01  4.47343619E-06  8.41851966E-02
  1.25429263E-01 -1.02635764E-01 -6.15585577E-06  3.06303545E-02  1.73216012E-01
 -1.77793640E-01 -6.91729516E-06  1.01746289E-01  2.63207327E-05 -6.65454514E-06
 -1.44814800E-01 -2.29548793E-01 -5.56540964E-02 -5.08777910E-02 -1.73356192E-01
 -2.22962224E-01  9.76197102E-06  7.40795021E-02 -8.13585534E-02 -1.05780369E-01
  4.47842527E-06  8.44810922E-02  1.25012345E-01  1.02876709E-01 -6.16369171E-06
  3.07375765E-02  1.72493565E-01  1.78211281E-01 -6.92086150E-06  1.02102666E-01
  2.62877461E-05  6.69012228E-06 -1.45283383E-01  2.29199619E-01  1.11089511E-01
  1.01556638E-01  2.10541968E-01  5.20565196E-04 -1.67028591E-05 -1.47898018E-01
  1.00770901E-01  2.46976177E-04 -7.67361087E-06 -1.68583475E-01 -5.22886627E-02
 -2.40155923E-04  8.21467903E-06 -6.09203532E-02 -1.35194702E-01 -4.16740276E-04
  9.44355083E-06 -2.02745924E-01 -1.28705541E-05 -3.36488560E-08  2.50581311E-01
  2.28881987E-04 -1.08939469E-06 -9.82539711E-07  4.32101944E-07 -1.31383363E-01
  2.52489809E-09  1.43617057E-06  1.03632593E-08 -1.07921497E-03 -3.15553100E-11
  4.46926764E-07 -2.81610013E-07  9.73413793E-02 -1.92620159E-09 -6.04641600E-07
  1.70269580E-07 -4.67239076E-02  9.41663958E-10 -4.22973368E-07  6.86344015E-09
 -2.49007841E-05 -4.70647292E-04  1.54480082E-01  9.62727701E-02  8.80103618E-02
 -2.21915133E-01 -8.30460392E-02 -6.07425591E-06 -1.28171082E-01 -1.05278859E-01
 -4.02895496E-02 -2.64863696E-06 -1.46109460E-01  1.02440911E-01 -6.63890877E-03
  4.05500224E-06 -5.28768319E-02  1.77656821E-01  3.28522292E-02  2.07948184E-06
 -1.76079832E-01  9.88666293E-06 -8.81266913E-06 -2.29150409E-01  1.18834403E-01
 -9.61601789E-02 -8.79074360E-02  2.22434092E-01 -8.21412543E-02  6.05428705E-06
  1.28021258E-01  1.05525059E-01 -3.98602821E-02  2.63946944E-06  1.45938467E-01
 -1.02680352E-01 -7.05617808E-03 -4.04255746E-06  5.28140029E-02 -1.78073062E-01
  3.21296094E-02 -2.06529474E-06  1.75871297E-01 -9.92183693E-06 -8.84768234E-06
  2.28958647E-01  1.19298301E-01 -1.12542622E-04 -1.02885173E-04 -5.19357224E-04
  3.02330533E-01  1.74499056E-08  1.49866602E-04 -2.46379269E-04  1.42541875E-01
  8.02298114E-09  1.70724551E-04  2.40120837E-04 -1.84524224E-01 -8.64251651E-09
  6.12665201E-05  4.16899499E-04 -2.75645691E-01 -1.00223606E-08  2.04565282E-04
  3.34289871E-08 -2.04587493E-05  3.11916391E-04 -2.77534044E-01 -6.25393996E-10
 -6.28123922E-10 -6.06185214E-06  1.67026839E-09  5.70511129E-05  2.71452993E-09
  2.13817999E-08 -4.95710718E-12  1.05236371E-05  2.53277536E-10  1.87743165E-06
 -5.18349226E-10 -2.64103960E-05  2.12513486E-09 -6.12506376E-06  1.68544419E-09
  8.85382114E-06 -4.33067024E-07  1.22213375E-02 -3.36199892E-06  1.07969845E-06
  2.91408463E-09  2.04827397E-06  1.82019158E-06  3.82234831E-06  1.68747211E-06
  7.93237521E-02 -3.52328553E-06  1.24982584E-06  7.21860087E-07  2.47632279E-02
 -3.28227250E-06 -2.60696157E-06 -1.88546746E-06 -6.06045315E-02 -2.93494954E-07
 -3.74369840E-06  1.40152502E-07 -6.16459224E-02 -2.43156101E-05  6.14544171E-01
 -2.28625558E-01  4.23366235E-05  2.68877997E-05  2.05745931E-06  1.82835408E-06
  3.83754446E-06 -1.69060575E-06  7.96795527E-02 -3.53908582E-06  1.25547144E-06
 -7.23450487E-07  2.48742990E-02 -3.29699405E-06 -2.62133722E-06  1.88947229E-06
 -6.08763770E-02 -2.94820210E-07 -3.74879629E-06 -1.41618131E-07 -6.19224817E-02
 -2.43032901E-05  6.13487264E-01  2.28968961E-01  4.23530106E-05 -2.67542709E-05
 -4.10417103E-06 -3.64714335E-06  1.79481095E-06  5.30291404E-10 -1.59009899E-01
  7.05992576E-06  9.54514148E-07  6.38214838E-10 -4.96377910E-02  6.57823859E-06
 -2.09623698E-06 -1.98646089E-09  1.21487646E-01  5.94408564E-07  3.46788240E-07
  3.43339050E-09  1.23605897E-01 -3.19683838E-06  2.18111280E-01 -7.41643821E-04
 -2.04715864E-05 -2.50679033E-11 -1.93545385E-12 -2.07250251E-12 -1.66198274E-09
 -6.06136993E-06  2.70060180E-07  1.04964671E-11  7.63681418E-12  2.15482534E-08
  5.03002825E-08  4.00513076E-13  5.13511123E-10  1.87971214E-06 -1.35039681E-07
  1.04907635E-11 -1.68497407E-09 -6.12269364E-06  2.41116934E-08 -5.04943581E-10
  3.36565562E-06  1.22242833E-02  2.59020503E-09 -5.75314372E-07  3.55609990E-06
  3.16010418E-06  4.54105949E-06  4.12907539E-06  1.37668466E-01 -6.11704158E-06
  1.61260523E-06  1.57160645E-06  4.29748904E-02 -5.69841583E-06 -4.06644791E-06
 -3.53329119E-06 -1.05186702E-01 -5.11755556E-07 -2.07944464E-06 -2.30115728E-06
 -1.07003397E-01  4.23841104E-06 -2.28560232E-01  3.49417078E-01 -3.62374388E-05
  1.40314042E-05 -3.55079355E-06 -3.15538868E-06 -4.53953575E-06  4.11593392E-06
 -1.37463238E-01  6.10791460E-06 -1.61255438E-06  1.56659930E-06 -4.29108204E-02
  5.68991825E-06  4.06686285E-06 -3.52050015E-06  1.05029910E-01  5.11011576E-07
  2.07443928E-06 -2.29766409E-06  1.06843978E-01 -4.29878962E-06  2.29435004E-01
  3.50475270E-01  3.62908013E-05  1.41087062E-05 -5.29934126E-09 -4.70920479E-09
  1.07590161E-09  1.20868833E-06 -2.05273350E-04  9.11607543E-09  9.01178318E-10
  3.21542773E-07 -6.40756011E-05  8.49441146E-09 -2.42630691E-09 -2.67425686E-07
  1.56843072E-04  7.72773898E-10  3.04248661E-09 -2.54764903E-06  1.59594866E-04
 -1.78678757E-09 -4.77066361E-04  7.46108789E-01  4.08334045E-08 -3.23942141E-05
  2.63859904E-12  1.52126981E-12 -1.84158685E-07  2.59683595E-05  3.31423594E-12
 -2.31859784E-13 -1.51158284E-09 -8.06357941E-07  4.55018506E-14 -8.54166920E-12
  3.00618342E-07 -4.54337270E-05 -5.35627610E-12  2.43566780E-11 -1.68466968E-07
  2.56267469E-05  2.99653043E-12  3.22641788E-11  5.74492696E-12 -1.68019199E-09
  7.69070827E-08  2.26573225E-05 -1.22897566E-05 -1.09581874E-05 -4.96834759E-02
  2.85681494E-02  1.04215859E-06  2.10306133E-05 -1.58457325E-02  9.10796553E-03
  3.32378274E-07  7.82257271E-06  4.94716407E-02 -2.84727717E-02 -1.03418935E-06
 -1.24440559E-05  2.52753054E-02 -1.45231961E-02 -5.32863869E-07  5.52613519E-05
  1.02063334E-05  5.94058037E-06 -4.92334320E-01 -2.85472235E-01  1.23846594E-05
  1.10426530E-05  4.96253592E-02  2.86688028E-02 -1.04212947E-06 -2.11924642E-05
  1.58272106E-02  9.14005335E-03 -3.32369246E-07 -7.91145052E-06 -4.94136604E-02
 -2.85731225E-02  1.03413901E-06  1.25258160E-05 -2.52459550E-02 -1.45744567E-02
  5.32867591E-07 -5.59900624E-05 -1.02198104E-05  5.91805266E-06  4.93492859E-01
 -2.83468100E-01 -9.48768845E-08 -8.44425690E-08  5.85801664E-05 -5.72920907E-02
 -3.76634355E-11  1.61808982E-07  1.86969463E-05 -1.82707917E-02 -1.22183959E-11
  8.88524970E-08 -5.82027123E-05  5.70583099E-02  5.47198349E-11 -8.17101831E-08
 -2.98868841E-05  2.91816206E-02  5.77756704E-12  7.29460534E-07  1.28364116E-08
 -1.17608338E-05 -1.15796416E-03  5.69477158E-01 -4.93853566E-03 -5.38206051E-03
 -1.38841966E-05 -4.02478638E-08  7.37287798E-06  3.61705092E-02  1.34374566E-05
  6.56242075E-08  1.06119108E-06  3.14300754E-03 -1.61201942E-05 -9.43505529E-08
 -4.89867914E-06  1.40485990E-02 -5.12845093E-06  2.27134780E-09  1.26679976E-06
  1.67970469E-02  6.03659741E-07  5.62980556E-10 -5.21139922E-06  2.53297917E-08
 -2.25936821E-03 -1.99012777E-03  2.95662053E-02  5.13219061E-02 -1.01850713E-06
  4.00078528E-03  9.18682650E-03  1.59472631E-02 -2.92217706E-07  5.38984554E-03
 -1.93567378E-02 -3.36164736E-02  8.64555413E-07  1.60930172E-02 -1.61573750E-02
 -2.80320865E-02  2.01453435E-06  4.23515022E-01  1.92393515E-05 -6.60524128E-06
 -1.91942397E-01  3.30978813E-01 -2.25933295E-03 -1.99009654E-03  2.96706934E-02
 -5.12619251E-02 -1.01869296E-06  4.00072572E-03  9.21929222E-03 -1.59286243E-02
 -2.92275406E-07  5.38979939E-03 -1.94251772E-02  3.35772496E-02  8.64674492E-07
  1.60930608E-02 -1.62144603E-02  2.79993234E-02  2.01463184E-06  4.23511742E-01
  1.92242299E-05  6.64252073E-06 -1.90594186E-01 -3.31755793E-01 -2.25625465E-03
 -1.98738656E-03 -5.92911529E-02 -6.02606069E-05  8.28213031E-07  3.99583464E-03
 -1.84221200E-02 -1.87241941E-05  2.81598300E-07  5.38539779E-03  3.88428494E-02
  3.95018682E-05 -3.45891336E-07  1.60998234E-02  3.23940109E-02  3.29194998E-05
  1.00375174E-06  4.22658679E-01  7.07417346E-06  4.96891774E-09  3.82312072E-01
  7.77591627E-04  2.31505392E-15  1.85766689E-15 -1.22047587E-11  1.89699350E-09
  1.08476357E-11 -2.71829984E-15 -2.01944317E-12  1.91140553E-10  8.26310141E-13
 -2.04643626E-15  2.65430083E-11 -3.71708451E-09 -4.63881537E-12  4.25489133E-15
 -9.55500529E-12  1.34314229E-09  8.74601151E-13  6.15977539E-16 -6.68268265E-11
  2.21439708E-08  9.71298642E-12  2.26516250E-09 -6.05103083E-10 -5.39273834E-10
 -4.59089550E-09 -4.53342669E-09 -8.11351596E-06  1.00729491E-09 -1.48621599E-09
 -1.55481546E-09 -2.42018141E-06  2.60164622E-10  2.74984839E-09  2.90832630E-09
  7.02531208E-06 -1.37641133E-09  2.59294569E-09  3.14932410E-09  2.87024182E-06
 -1.79048267E-05  5.00195544E-01 -2.88182746E-01  1.03668288E-05 -5.94550634E-06
  6.09625817E-10  5.43302073E-10  4.59405035E-09 -4.58133016E-09  8.13258427E-06
 -1.01482583E-09  1.48841634E-09 -1.57027531E-09  2.42586959E-06 -2.62664614E-10
 -2.75586257E-09  2.93712042E-09 -7.04182103E-06  1.38620204E-09 -2.60222379E-09
  3.17679701E-09 -2.87698826E-06  1.79027093E-05 -4.99609193E-01 -2.89199975E-01
 -1.03434654E-05 -5.98575509E-06 -4.52066148E-12 -4.02640952E-12  4.27176920E-11
  3.11229692E-09 -1.90691049E-08  7.52777609E-12  1.43849373E-11  9.28686195E-10
 -5.68817402E-09  2.49763372E-12 -2.76461111E-11 -1.59981434E-09  1.65104068E-08
 -9.78364120E-12 -2.83130410E-11 -1.23652332E-09  6.74976453E-09  2.14005096E-09
 -5.87249382E-04  5.77677576E-01 -2.31735715E-08  1.19805795E-05  6.57715496E-06
  5.33575689E-06  1.96835485E-03 -8.07291439E-07 -3.45556312E-08 -5.30052033E-06
 -3.52188916E-03  1.45366284E-06  7.46515789E-08 -4.00811824E-06  1.36802376E-02
 -5.63588964E-06 -2.84779308E-07  9.23963429E-06  2.34691357E-03 -9.70979353E-07
 -4.93609864E-08 -1.16045139E-05  2.07035499E-07 -8.31679035E-10  1.22247776E-02
  4.23278400E-05 -2.24694656E-03 -1.98425973E-03 -1.45206667E-02  3.81468006E-02
 -2.66743693E-06  4.16083914E-03 -3.83752179E-03  1.15761650E-02 -8.30483642E-07
  4.51652036E-03  4.43835276E-03 -2.29968768E-02  2.02734685E-06  4.51618463E-03
  1.16911724E-02 -2.56769909E-02  1.89334994E-06 -3.56338507E-01 -7.54557982E-06
 -2.83767225E-05  9.04454682E-02 -1.68678732E-01 -2.25809546E-03 -1.99410520E-03
 -1.43340086E-02 -3.82609912E-02 -2.68455646E-06  4.18148354E-03 -3.78087715E-03
 -1.16112877E-02 -8.35724682E-07  4.53893038E-03  4.32587798E-03  2.30692992E-02
  2.03930164E-06  4.53856684E-03  1.15654864E-02  2.57522918E-02  1.90555695E-06
 -3.58108319E-01 -7.76696051E-06  2.84315839E-05  9.02400540E-02  1.69864438E-01
  4.50434119E-03  3.97772278E-03  5.16944182E-02  1.04776956E-04  4.87887031E-06
 -8.34048541E-03  1.62570619E-02  3.15630560E-05  1.48731311E-06 -9.05751079E-03
 -3.54719274E-02 -6.14127176E-05 -3.51241743E-06 -9.04087957E-03 -3.29058035E-02
 -7.13250643E-05 -3.59924622E-06  7.15568444E-01 -3.05286039E-05 -7.03916186E-08
  3.84190860E-01  7.70203394E-04 -2.61613103E-08 -2.11427401E-08 -8.13233127E-07
 -1.96614116E-03  2.87750312E-11  1.97740007E-08  1.44684777E-06  3.52036167E-03
 -1.04865401E-10  1.51552800E-08 -5.63060135E-06 -1.36741277E-02  3.85223651E-10
 -3.65697817E-08 -9.64195076E-07 -2.35155155E-03  6.89647574E-11  5.20339730E-08
  4.53614213E-10 -7.14535333E-07 -4.23392869E-05  1.22288079E-02  3.91082948E-03
  3.45362332E-03 -3.81337129E-02 -2.97615897E-02  5.94840978E-06 -7.24152857E-03
 -1.15730262E-02 -9.60136168E-03  1.82127993E-06 -7.85705808E-03  2.29865366E-02
  2.22580913E-02 -4.15895038E-06 -7.83975048E-03  2.56781614E-02  1.81237157E-02
 -4.24287400E-06  6.19870119E-01  5.76348793E-05  2.40041299E-05 -1.70091166E-01
  2.86107349E-01 -3.90438168E-03 -3.44792924E-03  3.82352698E-02 -2.95746834E-02
 -5.94086984E-06  7.22958733E-03  1.16033774E-02 -9.54463960E-03 -1.81893371E-06
  7.84411632E-03 -2.30441990E-02  2.21453939E-02  4.15321761E-06  7.82679568E-03
 -2.57481605E-02  1.79979307E-02  4.23751381E-06 -6.18851906E-01 -5.76607549E-05
  2.38089552E-05  1.68669576E-01  2.86313812E-01 -6.44406723E-06 -5.69066020E-06
 -1.10950110E-04  3.65140958E-02 -6.90631988E-09  1.19311296E-05 -3.39057609E-05
  1.05119074E-02 -2.10658387E-09  1.29575667E-05  6.86491274E-05 -1.77053866E-02
  4.98662700E-09  1.29080214E-05  7.39609718E-05 -2.64981336E-02  5.09497065E-09
 -1.02354444E-03  6.94046453E-08 -2.53522267E-05 -5.34614507E-04 -7.39972219E-03
  4.09665398E-06  3.94747134E-06  7.97931531E-06  7.45284044E-09  3.84627103E-01
 -1.86359192E-05  1.52224145E-06  1.39679536E-09  7.37058140E-02 -1.12735147E-06
 -1.56511507E-06 -1.47898808E-09 -7.50774995E-02 -2.58681306E-06  3.99456444E-08
  4.63361127E-11  1.73171122E-03 -2.90173093E-06  1.13061471E-04  4.87379106E-07
  4.53645970E-10  9.86507930E-12  8.59975675E-07  7.51901652E-07 -1.27993370E-05
 -2.12980009E-05 -2.59224280E-02 -1.14978625E-06 -2.95933109E-06 -5.02019281E-06
 -3.34597512E-03 -3.85525787E-06  6.84339524E-06  1.12002236E-05  1.91559116E-02
 -6.47345187E-06  9.08130795E-06  1.54022576E-05  1.00752033E-02  7.67169128E-05
 -2.67914034E-01 -4.64534742E-01  2.90265797E-05 -6.92694114E-05  8.59978114E-07
  7.51903750E-07 -1.28426179E-05  2.12720100E-05 -2.59230542E-02 -1.14979074E-06
 -2.96953400E-06  5.01417596E-06 -3.34614743E-03 -3.85525542E-06  6.86615463E-06
 -1.11863494E-05  1.91563421E-02 -6.47344200E-06  9.11261294E-06 -1.53837764E-05
  1.00755847E-02  7.67199668E-05 -2.68859739E-01  4.63989710E-01  2.87462280E-05
  6.93879633E-05  8.61673232E-07  7.53386137E-07  2.40227195E-05  2.44843631E-08
 -2.61073600E-02 -1.15291117E-06  5.71964428E-06  5.82520099E-09 -3.39644080E-03
 -3.85507659E-06 -1.25169560E-05 -1.27718432E-08  1.92852154E-02 -6.46887613E-06
 -1.75540801E-05 -1.78650408E-08  1.01877455E-02  4.78509946E-05  5.36677798E-01
  5.44744734E-04 -5.78258288E-05 -1.18535117E-07  6.06010934E-06  6.45503369E-06
 -1.12474859E-01 -1.25363343E-04  2.23437869E-06 -1.09525425E-05 -3.56485386E-02
 -3.98512392E-05  7.29665564E-07  2.09171812E-05 -1.77596177E-01 -1.98274746E-04
  3.69195507E-06 -2.51419572E-05  1.49943168E-01  1.67405773E-04 -3.11082747E-06
  3.93288886E-05  5.75366558E-05  6.34631636E-08 -5.25562997E-02 -1.01733858E-04
 -6.14895155E-02 -5.35557749E-02 -4.53451120E-02 -1.55208430E-01  1.32210603E-04
  1.20902018E-01 -1.09319129E-02 -3.41694805E-02  2.86431556E-05  7.04835771E-02
  2.48689179E-02  8.40141732E-02 -9.95384485E-05 -4.19523244E-02  1.01459878E-01
  5.92846174E-02 -8.86746415E-05  8.96922999E-02 -9.13020425E-05  1.56929956E-04
  4.03610572E-01 -7.02525617E-03 -6.14683459E-02 -5.35373367E-02 -4.56298002E-02
  1.55071282E-01  1.32169869E-04  1.20860406E-01 -1.09945719E-02  3.41371533E-02
  2.86343316E-05  7.04593741E-02  2.50230409E-02 -8.39392407E-02 -9.95078130E-05
 -4.19378458E-02  1.01568358E-01 -5.90443563E-02 -8.86479258E-05  8.96615894E-02
 -9.10120770E-05 -1.57097546E-04  4.03577726E-01  8.58511290E-03  1.22926245E-01
  1.07065641E-01 -3.14182204E-01 -3.14901845E-04 -2.55957601E-04 -2.41705456E-01
 -7.01098027E-02 -7.03792509E-05 -5.53656513E-05 -1.40927277E-01  1.70398711E-01
  1.70782503E-04  1.94478835E-04  8.38461357E-02  2.03976395E-01  2.14007955E-04
  1.68898790E-04 -1.79507807E-01  1.70178736E-04  1.57930469E-07  4.17023172E-01
  8.08241699E-04 -9.40139047E-09 -1.26401835E-08 -1.25679194E-04  1.12449478E-01
  6.96626929E-10  1.64179228E-08 -3.97796621E-05  3.56976719E-02  1.56697553E-10
 -8.11283189E-08 -1.98161092E-04  1.77594973E-01  6.68940117E-10  7.92348211E-08
  1.67315882E-04 -1.49954466E-01 -5.52433014E-10 -1.63152131E-07  6.20923747E-08
 -5.49576978E-05  1.01458787E-04 -5.24877374E-02  1.06458177E-01  9.27219648E-02
  1.54963442E-01  2.24685774E-01 -2.28982644E-04 -2.09325488E-01  3.41094170E-02
  5.04083565E-02 -4.95783887E-05 -1.22029741E-01 -8.38900835E-02 -1.21931025E-01
  1.72033722E-04  7.26232645E-02 -5.90091847E-02 -1.69865641E-01  1.50084944E-04
 -1.55375605E-01 -1.61225637E-04 -1.03297014E-04 -8.32720321E-03  4.12510157E-01
 -1.06470322E-01 -9.27325426E-02 -1.55429271E-01  2.24400843E-01  2.29012091E-04
  2.09349386E-01 -3.42140672E-02  5.03456176E-02  4.95847715E-05  1.22043737E-01
  8.41429801E-02 -1.21776772E-01 -1.72055805E-04 -7.26314804E-02  5.93747297E-02
 -1.69756871E-01 -1.50104865E-04  1.55393911E-01  1.61416355E-04 -1.03002990E-04
  6.72929061E-03  4.12542693E-01  1.22147258E-05  1.06385570E-05  1.36806130E-05
 -4.41160667E-02 -2.79386611E-08 -2.40187527E-05  1.95860882E-06 -8.76155352E-03
 -6.03839689E-09 -1.40204046E-05 -7.02725581E-06  2.35579480E-02  2.12190599E-08
  8.33429484E-06  8.86588935E-05 -6.73293962E-02  1.83028959E-08 -1.77030778E-05
 -1.50704239E-07  1.66984957E-04 -7.70374697E-04  3.99292810E-01  4.59866439E-09
  4.82858678E-09 -4.34341583E-05  3.33495043E-09  1.59652582E-04 -1.54159827E-08
 -1.70957731E-05  1.26872977E-09  1.53378166E-05  1.06537545E-08 -9.01399126E-05
  6.67006028E-09 -8.63772108E-06 -2.01952426E-08  9.24171320E-05 -6.81341902E-09
  1.30316500E-06  4.36920333E-06 -1.21661022E-01  8.85223287E-06 -3.28833581E-05
 -9.70228277E-08 -3.62143933E-05 -3.14643744E-05 -2.57948328E-05 -9.02217698E-05
 -2.56837422E-01  7.21131565E-05 -6.16124399E-06 -1.93594664E-05 -5.25496070E-02
  4.24970260E-05  1.37423056E-05  5.04373890E-05  1.99059758E-01 -2.23897930E-05
  5.49804987E-05  3.70703596E-05  1.74587019E-01  5.52576446E-05  1.74104121E-01
 -2.29945750E-01  2.01855146E-04 -1.16476077E-05 -3.63514531E-05 -3.15834568E-05
 -2.61957779E-05  9.04422923E-05 -2.57808123E-01  7.23860892E-05 -6.24706336E-06
  1.94069685E-05 -5.27482145E-02  4.26579029E-05  1.39708135E-05 -5.05582556E-05
  1.99812140E-01 -2.24744901E-05  5.51506025E-05 -3.71646377E-05  1.75246933E-01
  5.55098189E-05  1.73134286E-01  2.30498577E-01  2.01811792E-04  1.29235440E-05
  7.25426718E-05  6.30276571E-05 -1.66375873E-04 -2.04357355E-07  5.14599353E-01
 -1.44455241E-04 -3.64806328E-05 -4.38940698E-08  1.05290566E-01 -8.51488641E-05
  8.88881257E-05  1.12216367E-07 -3.98872024E-01  4.48164816E-05  1.08429678E-04
  7.80919816E-08 -3.49870917E-01 -1.15107180E-04 -2.24402525E-01 -5.61862070E-04
  2.06451731E-04  6.24953660E-07 -1.45164714E-11 -1.65862649E-11  2.90542952E-09
  4.29943900E-05 -6.32541170E-07  5.61290641E-11  1.19509892E-09  1.69898267E-05
 -5.52261986E-08 -5.36794504E-11  6.31965939E-09  8.95159299E-05 -1.38001297E-09
  8.84069399E-11 -6.51387709E-09 -9.19007614E-05 -3.53060084E-08 -4.40741011E-09
  8.74282837E-06  1.21735983E-01  9.19535936E-08 -2.76316089E-05  6.24974484E-05
  5.42988408E-05  9.89438961E-05  1.24299980E-04  4.46044411E-01 -1.24463145E-04
  2.11326550E-05  2.73416072E-05  9.12195782E-02 -7.33541283E-05 -5.73288365E-05
 -6.76699011E-05 -3.45740492E-01  3.85981200E-05 -4.31645648E-05 -9.37598106E-05
 -3.03203547E-01 -1.14432509E-04  2.29693889E-01  9.24082552E-02 -3.21501665E-06
  2.07257001E-04 -6.24189575E-05 -5.42306464E-05 -9.91400971E-05  1.23904689E-04
 -4.45483672E-01  1.24306840E-04 -2.11747542E-05  2.72569604E-05 -9.11049047E-02
  7.32620679E-05  5.74363292E-05 -6.74451498E-05  3.45305956E-01 -3.85495492E-05
  4.32360968E-05 -9.35925973E-05  3.02822568E-01  1.14313198E-04 -2.30257576E-01
  9.14382222E-02  1.93664592E-06  2.07241525E-04 -7.84050553E-08 -6.81196550E-08
  2.11505693E-07 -3.13591671E-05 -5.60581150E-04  1.56143510E-07  4.55365821E-08
 -6.05078694E-06 -1.14647115E-04  9.20469597E-08 -1.15641541E-07  1.93677442E-05
  4.34572132E-04 -4.83738956E-08 -8.68432337E-08 -2.97533723E-05  3.81166706E-04
  1.23470880E-07  5.55001458E-04 -3.06125194E-01 -6.01769789E-07  1.86178670E-04
 -4.65424480E-05 -3.61394390E-05  6.06672005E-01 -1.21698755E-03 -1.25918634E-05
  6.64504397E-05  7.39632898E-02 -1.48431528E-04 -1.53402106E-06  2.79734989E-05
 -1.89997571E-01  3.81226011E-04  3.95192791E-06 -1.25245954E-04  1.43858702E-01
 -2.88666791E-04 -2.98295844E-06 -3.33844738E-04 -2.28756368E-05  7.80922478E-08
 -2.53910004E-01 -1.28441096E-03 -6.09003923E-02 -5.11265887E-02 -9.90044806E-03
 -1.11664496E-01  1.96463510E-05  1.34225058E-01 -5.41573276E-03 -2.91042215E-02
  2.46964472E-06  5.22771204E-02 -2.62287978E-02  1.00024051E-01 -1.70445818E-05
 -5.23026623E-02  5.45862407E-02  1.15194902E-01 -1.78275717E-05 -7.82731159E-02
  7.20347999E-06 -3.17771720E-05 -3.19695015E-01 -5.58858555E-02 -6.15410162E-02
 -5.16643996E-02 -1.08051770E-02  1.12488141E-01  1.98654388E-05  1.35636972E-01
 -5.65168686E-03  2.93302321E-02  2.49821527E-06  5.28269662E-02 -2.54186222E-02
 -1.00620684E-01 -1.72426751E-05 -5.28524414E-02  5.55211680E-02 -1.16223747E-01
 -1.80182585E-05 -7.90983343E-02  6.90234536E-06  3.20363859E-05 -3.19585410E-01
  5.30324438E-02  1.22272923E-01  1.02649087E-01 -2.04144130E-01 -3.72398995E-04
 -3.48192707E-05 -2.69484883E-01 -5.60410161E-02 -9.12919410E-05 -3.57244164E-06
 -1.04971514E-01  1.47805167E-01  4.03793180E-04  3.22795393E-05  1.04881544E-01
  2.55392613E-01  2.95510453E-04  2.82643918E-05  1.57734106E-01 -4.37278346E-05
 -8.99535102E-08 -2.25460439E-01 -1.51916845E-03 -3.09556073E-07 -2.41791895E-07
  1.21725331E-03  6.06497536E-01 -3.70112599E-08  4.78029544E-07  1.48417218E-04
  7.39792904E-02 -4.50986064E-09  1.86738560E-07 -3.81160149E-04 -1.89958114E-01
  1.16327687E-08 -7.04393645E-07  2.88643721E-04  1.43859547E-01 -8.76502606E-09
 -1.76491658E-06 -3.47606368E-08 -3.33630516E-05 -1.28503160E-03  2.54183378E-01
 -1.06126183E-01 -8.90937206E-02 -1.11882368E-01 -1.40094040E-01  3.62348085E-05
  2.33898556E-01 -2.91847466E-02 -3.93681785E-02  4.71587407E-06  9.10644032E-02
  1.00113592E-01  9.03447823E-02 -3.27586403E-05 -9.10866183E-02  1.15729269E-01
  1.89120944E-01 -3.15244370E-05 -1.36731189E-01 -3.90137920E-05 -4.03613708E-05
  5.31318982E-02  2.56770494E-01  1.05755735E-01  8.87827263E-02  1.12103683E-01
 -1.39188164E-01 -3.61157732E-05 -2.33082090E-01  2.92309937E-02 -3.91319008E-02
 -4.70098197E-06 -9.07465191E-02 -1.00452755E-01  8.95340570E-02  3.26552632E-05
  9.07682371E-02 -1.15780268E-01  1.88185608E-01  3.14167316E-05  1.36255810E-01
  3.91392195E-05 -4.00898195E-05 -5.61092734E-02  2.56878027E-01  3.69513290E-04
  3.10207467E-04 -6.72308452E-04  5.44770101E-02 -1.05181108E-07 -8.14394125E-04
 -1.80931144E-04  1.13444152E-02 -1.07783117E-08 -3.17159887E-04  5.31964909E-04
 -8.38417169E-02  9.74516459E-08  3.16889182E-04  7.84255214E-04 -1.18915386E-02
  8.54374514E-08  4.77189118E-04 -1.46860772E-07  1.50174009E-05 -1.39577111E-03
  3.51030740E-01 -2.84144522E-02 -2.44433149E-02  3.31101291E-04  1.08827572E-06
  4.27140050E-05  1.23289745E-01  7.00447071E-05  2.88780456E-07 -3.46354545E-06
  1.14693739E-02 -7.28086023E-05 -2.17623728E-07 -3.44684044E-05  1.74871869E-01
  4.00167348E-05  7.92668924E-08  8.11241018E-06  5.72457480E-01  2.05681534E-05
  1.92002880E-08 -1.74974959E-04  1.11792342E-07  8.95515574E-02  7.41523412E-02
  1.29829921E-01  2.25450197E-01 -2.32336176E-05 -2.25081606E-01  1.00490545E-02
  1.74359159E-02 -7.04530330E-08 -6.27250423E-02 -4.98705784E-02 -8.65830114E-02
  8.80268440E-06  1.57413588E-01 -5.83334340E-02 -1.01259468E-01  1.06204463E-05
 -2.51389206E-01 -3.98859369E-05 -6.07870738E-05 -1.00320992E-01  1.72575328E-01
  8.95516785E-02  7.41524407E-02  1.30288196E-01 -2.25186146E-01 -2.32342944E-05
 -2.25081940E-01  1.00844596E-02 -1.74153642E-02 -7.05070405E-08 -6.27252674E-02
 -5.00467297E-02  8.64818256E-02  8.80290638E-06  1.57413693E-01 -5.85394000E-02
  1.01140908E-01  1.06207262E-05 -2.51388471E-01 -4.00099443E-05  6.07076322E-05
 -9.96189230E-02 -1.72981731E-01  8.96223749E-02  7.42106420E-02 -2.60320549E-01
 -2.64873880E-04 -1.51202810E-05 -2.25259820E-01 -2.01154129E-02 -2.04423325E-05
  5.56276825E-07 -6.28190571E-02  1.00073949E-01  1.01813026E-04  5.68031345E-06
  1.57473123E-01  1.17018465E-01  1.18988105E-04  6.97139386E-06 -2.51167163E-01
  5.27989594E-05  5.41325474E-08  1.99598534E-01  4.06601165E-04  2.48104291E-11
  1.59374087E-11  1.03746094E-06 -2.36910460E-04 -1.69086333E-11 -4.48002529E-11
 -1.18814622E-07  1.85951194E-05  2.09793903E-12 -2.30465822E-11 -3.36253225E-07
  7.16176146E-05  5.57285067E-12  5.76336267E-11  6.24511634E-08  2.03177761E-05
 -1.68354636E-12  8.28389346E-11 -4.06609813E-10  7.85359667E-08  3.85900069E-07
  1.51207577E-04 -2.04405947E-05 -1.53925226E-05  4.23547127E-01 -2.43995720E-01
 -8.77910354E-06  6.77084770E-05 -1.11786425E-01  6.44005465E-02  2.31531588E-06
  1.85338015E-05 -3.91886929E-01  2.25695610E-01  8.13996196E-06 -1.15888692E-05
 -1.54640158E-01  8.90717692E-02  3.23176354E-06  5.22856365E-05  1.81924981E-06
  1.09166188E-06 -8.59980328E-02 -5.00295800E-02  2.04226068E-05  1.53804045E-05
 -4.23049506E-01 -2.44856557E-01  8.77824274E-06 -6.76936780E-05  1.11655065E-01
  6.46277373E-02 -2.31508109E-06 -1.84658107E-05  3.91426997E-01  2.26491993E-01
 -8.13925119E-06  1.15843636E-05  1.54459058E-01  8.93862175E-02 -3.23157767E-06
 -5.25328937E-05 -1.82180385E-06  1.08793061E-06  8.62013170E-02 -4.96803242E-02
  1.80681578E-08  1.21779908E-08 -4.96679306E-04  4.88725016E-01  8.43705422E-10
 -1.50303229E-08  1.31086182E-04 -1.28987404E-01 -2.29895146E-10 -6.80711217E-08
  4.59852555E-04 -4.52216600E-01 -7.08560993E-10  4.63726392E-09  1.81574412E-04
 -1.78518686E-01 -1.94541865E-10  2.47196825E-07  2.00715865E-09 -2.06817638E-06
 -2.03231477E-04  9.96599332E-02 -4.73620706E-09 -3.36855765E-09  4.15344752E-05
 -3.59287286E-08 -4.17713227E-04  2.01871583E-08 -1.18046052E-05  1.02124497E-08
  1.09188761E-04  3.86324977E-09 -1.24462186E-05  1.07702350E-08  2.10139230E-04
 -2.36237621E-08  1.59975224E-05 -1.38395866E-08 -7.66129832E-05 -3.13000651E-05
  8.71944962E-01 -7.54441077E-04 -1.51063160E-05 -1.28750481E-07 -3.17874048E-06
 -2.28849372E-06 -5.19634324E-06  1.36609599E-05 -3.31104525E-02  8.34528597E-06
  2.46587715E-06 -5.04104049E-06  9.02001964E-04  5.52281249E-06  2.20156992E-06
  4.30650786E-06  1.13986975E-01 -2.00549103E-06  1.89372633E-06  1.09968127E-05
  1.52049664E-01 -3.60697391E-05  8.70681533E-02  2.97047914E-01 -4.47973147E-05
  8.27711476E-06 -3.19946165E-06 -2.30341116E-06 -5.12198871E-06 -1.37141405E-05
 -3.33274542E-02  8.39966683E-06  2.43687013E-06  5.05886663E-06  9.08010663E-04
  5.55882252E-06  2.24249612E-06 -4.32032875E-06  1.14732624E-01 -2.01851466E-06
  1.97845477E-06 -1.10366457E-05  1.53044720E-01 -3.63271032E-05  8.87946768E-02
 -2.98493503E-01 -4.47489992E-05 -8.67865386E-06  6.34626537E-06  4.56865169E-06
  2.05699773E-05  4.43467218E-08  6.65431250E-02 -1.66513052E-05 -6.34314544E-06
 -1.65915818E-08 -1.82975527E-03 -1.10318301E-05  2.58426117E-06  7.73494746E-09
 -2.28670463E-01  3.98094369E-06  1.15626630E-05  2.64826130E-08 -3.05314490E-01
  4.43620733E-05  6.03409649E-01  7.71498472E-04 -3.80403404E-05 -1.60223865E-07
 -2.23228356E-11 -1.60382148E-11  3.58453950E-08  4.14520817E-05 -2.23288435E-06
  1.00934545E-10 -1.01981322E-08 -1.17935247E-05  5.78024871E-07  1.99706897E-11
 -1.07307336E-08 -1.24211772E-05  1.13826716E-06 -1.34712919E-10  1.38236677E-08
  1.59801542E-05 -4.12355289E-07 -5.61878881E-08  7.54533677E-04  8.72012825E-01
 -1.31489392E-07  5.13549674E-05 -5.50226976E-06 -3.96057202E-06  1.24223246E-05
  1.13455638E-05 -5.75828801E-02  1.44434185E-05 -4.99871402E-06 -3.40782505E-06
  1.58091653E-03  9.56387467E-06  8.45654033E-06  4.83296281E-06  1.98318469E-01
 -3.46158055E-06  1.65349968E-05  1.15315531E-05  2.64695057E-01 -6.79446579E-05
  2.97461820E-01  4.32551508E-01  3.73674185E-06  5.81860275E-05  5.49019927E-06
  3.95188253E-06 -1.24647660E-05  1.12684349E-05  5.74582443E-02 -1.44116955E-05
  5.01487153E-06 -3.37859486E-06 -1.57755253E-03 -9.54292440E-06 -8.45793345E-06
  4.80025120E-06 -1.97887794E-01  3.45389625E-06 -1.65512358E-05  1.14573812E-05
 -2.64121265E-01  6.78109255E-05 -2.98008020E-01  4.30824780E-01 -4.14032755E-06
  5.81391943E-05  1.18830514E-08  8.55291338E-09  5.12815223E-08 -1.24441350E-05
  1.25023388E-04 -3.11720751E-08 -1.73900604E-08  5.37574409E-06 -3.40943571E-06
 -2.06732043E-08  7.49738088E-09 -2.57958551E-06 -4.30314535E-04  7.43004871E-09
  2.95323863E-08 -7.61070698E-06 -5.75030305E-04  8.31664705E-08  1.22088234E-03
 -8.38404784E-02 -1.60149132E-07  4.35235981E-05 -8.10429273E-06 -4.63209185E-06
  1.13120923E-05  1.14007316E-08  5.36760309E-01  5.35048094E-06 -4.02892150E-06
 -4.10901516E-09 -1.90606440E-01 -7.44067660E-07 -8.59366616E-06 -8.49594540E-09
 -4.09327789E-01  4.93872576E-05  8.21774589E-06  8.34284499E-09  3.88748877E-01
 -9.76749311E-05  1.87599252E-04  9.38097754E-07  4.48231989E-07 -1.01749830E-09
  3.00724203E-05  2.08492281E-05 -9.34466392E-06 -3.04480607E-05  3.82920913E-01
 -9.12905748E-05  3.15435255E-06  1.11592824E-05 -1.52534351E-01 -3.49653658E-05
 -5.68962957E-06  1.78587119E-06 -3.17396738E-01  4.33730011E-05  3.25917650E-06
 -3.14233002E-06  2.35426135E-01  1.38877571E-05  5.72029826E-02  9.93364197E-02
  1.04961418E-05 -1.35117894E-05  3.00728255E-05  2.08495032E-05 -9.40670595E-06
  3.04301137E-05  3.82920944E-01 -9.12916994E-05  3.17701103E-06 -1.11532264E-05
 -1.52534362E-01 -3.49661989E-05 -5.68615555E-06 -1.79722817E-06 -3.17397133E-01
  4.33732180E-05  3.25340603E-06  3.14869950E-06  2.35425452E-01  1.38878610E-05
  5.74043744E-02 -9.92191691E-02  1.04426079E-05  1.35549443E-05  3.01558341E-05
  2.09059247E-05  4.33949491E-05  4.45633902E-08  3.82929832E-01 -9.15231307E-05
 -1.61435550E-05 -1.66313643E-08 -1.52538172E-01 -3.51329680E-05 -8.72132495E-06
 -8.90216764E-09 -3.17487256E-01  4.34194142E-05  8.45488324E-06  9.02597416E-09
  2.35266382E-01  2.01902422E-05 -1.14433356E-01 -1.16438082E-04 -2.08316934E-05
 -4.34049294E-08  3.66388199E-05  2.17502032E-05  2.75343274E-01  1.17572598E-04
 -6.23730810E-06 -1.97613890E-04 -1.15712827E-01 -4.93336196E-05  2.59396086E-06
 -1.40955933E-04 -1.50807969E-01 -6.42381536E-05  3.51584930E-06  5.02871660E-04
  2.03995909E-01  8.67295953E-05 -4.63167365E-06 -6.78012680E-04  4.36927724E-07
 -1.57132633E-08  6.09100761E-01  1.59875887E-03 -3.18770766E-02 -2.13072656E-02
  3.72613365E-01  2.25301913E-02 -1.33484635E-05  8.85563382E-02 -1.60756791E-01
  5.70966485E-03  5.40808087E-06  7.22893474E-02 -1.77690559E-01  2.19838077E-02
  2.45921083E-06 -1.58996527E-02  2.13091709E-01 -1.13844233E-01 -5.74084085E-06
 -5.63292815E-02 -3.02933167E-05 -8.64032790E-06  2.23513748E-01  2.82053220E-01
 -3.19429878E-02 -2.13513332E-02  3.72686387E-01 -2.22436828E-02 -1.33598270E-05
  8.87396103E-02 -1.60738704E-01 -5.85430033E-03  5.41185345E-06  7.24381107E-02
 -1.77620692E-01 -2.21655668E-02  2.45536518E-06 -1.59330634E-02  2.12724705E-01
  1.14180789E-01 -5.73995418E-06 -5.64449466E-02 -3.03123038E-05  8.61247574E-06
  2.24325312E-01 -2.81261757E-01  6.45232646E-02  4.31417265E-02  4.12203311E-01
  2.05791162E-04  1.55572241E-06 -1.79467381E-01 -1.51066285E-01 -5.63091621E-05
 -5.42445395E-07 -1.45512341E-01 -1.39525669E-01 -2.85661293E-05  6.34809751E-06
  3.29215573E-02  1.54983940E-02 -1.48785995E-04  1.63633262E-06  1.13139022E-01
 -1.87070157E-05 -1.06397849E-08 -2.64114188E-01 -3.09063291E-04 -1.21701273E-07
 -7.33754814E-08  1.16958824E-04 -2.75788148E-01  5.54173764E-09  8.38773689E-07
 -4.91979209E-05  1.15829071E-01 -2.19119910E-09  6.32735115E-07 -6.41564880E-05
  1.50910061E-01 -3.53160131E-09 -2.47337494E-06  8.68754291E-05 -2.03964243E-01
  4.14237180E-09  3.52412160E-06  2.70076433E-08 -2.58240788E-05 -1.59904925E-03
  6.09141532E-01  5.56580147E-02  3.72089319E-02 -2.25939049E-02 -3.98870309E-01
  9.57531551E-06 -1.54734139E-01 -5.69182657E-03  1.54184491E-01 -3.20965014E-06
 -1.25832070E-01 -2.19981329E-02  1.52070165E-01  3.13282590E-06  2.81737964E-02
  1.13997307E-01 -8.11180587E-02 -4.95456604E-07  9.79597588E-02  3.66246374E-07
  2.88255655E-05  2.81861011E-01 -1.01141109E-01 -5.56224244E-02 -3.71851837E-02
  2.29658409E-02 -3.98799279E-01 -9.55756551E-06  1.54635941E-01  5.56771169E-03
  1.54203582E-01  3.20240261E-06  1.25748815E-01  2.18984721E-02  1.52141206E-01
 -3.13816814E-06 -2.81582342E-02 -1.14083656E-01 -8.14851093E-02  5.03926693E-07
 -9.78941200E-02 -3.89147798E-07  2.88157232E-05 -2.81712698E-01 -1.01954445E-01
 -3.91260492E-05 -2.61773520E-05  1.20820387E-04 -3.59641883E-01  1.33338034E-10
  1.09131989E-04 -7.70885744E-05  1.64070625E-01 -9.76213048E-11  8.71912553E-05
 -1.11090820E-04  1.90454043E-01 -4.84044377E-09 -2.10070794E-05  2.74180663E-04
 -2.78720876E-01 -3.75435331E-10 -6.75387316E-05 -2.92839487E-09  1.40067372E-05
 -6.29029168E-04  3.86280957E-01 -3.07791440E-02 -1.86654682E-02  5.31019637E-04
  2.63632829E-06  9.67581170E-05  1.73483622E-01 -2.34912825E-04 -1.18398666E-06
 -3.87326487E-05  9.87428420E-02 -2.60961394E-04 -1.31520131E-06 -6.47282831E-05
 -3.43502293E-01  2.47769623E-04  1.45231188E-06  8.34141898E-05  5.15933295E-01
  1.85091817E-05  1.73369503E-08  9.07083540E-04 -2.09457122E-06 -1.53214854E-01
 -1.02387449E-01  1.17646815E-01  2.03387703E-01  6.68126913E-05  4.86472280E-01
 -4.54542147E-02 -7.84811812E-02 -3.11765805E-05  1.87220491E-01 -2.33667179E-02
 -4.01707627E-02 -7.04495734E-05 -2.43458563E-01 -1.36405300E-03 -3.18161783E-03
  4.19432129E-05 -8.32689322E-02 -7.68134601E-06 -9.77239844E-06 -2.31493637E-02
  4.09013346E-02 -1.53214425E-01 -1.02387177E-01  1.18059822E-01 -2.03142724E-01
  6.68121531E-05  4.86471110E-01 -4.56138384E-02  7.83864334E-02 -3.11763714E-05
  1.87218945E-01 -2.34485617E-02  4.01211316E-02 -7.04493907E-05 -2.43458483E-01
 -1.36856899E-03  3.17952606E-03  4.19432034E-05 -8.32676288E-02 -7.70127104E-06
  9.75689128E-06 -2.29794729E-02 -4.09942231E-02 -1.53149360E-01 -1.02346808E-01
 -2.34033245E-01 -2.35632994E-04  7.41481100E-05  4.86303133E-01  9.03502794E-02
  9.06956468E-05 -3.40103531E-05  1.86927714E-01  4.61625622E-02  4.57513762E-05
 -7.18876308E-05 -2.43466398E-01  3.33176434E-03  5.42211621E-06  4.18474918E-05
 -8.29950767E-02  6.27600063E-06  6.47164793E-09  4.65098343E-02  9.21494703E-05
 -1.49838575E-03 -5.90376965E-04  6.33137708E-01  6.00834843E-04 -1.36483417E-05
  4.97611931E-03 -3.86642354E-01 -3.66725923E-04  8.40749892E-06  1.06092220E-03
 -2.21884430E-01 -2.10368327E-04  5.14168433E-06 -4.14112517E-04 -1.54365585E-01
 -1.46692875E-04  3.26512527E-06  1.15581148E-04  1.32067675E-05  1.13826151E-08
  2.59190708E-01  5.44608184E-04  5.39377659E-02  2.74840044E-02 -1.36784962E-01
 -2.27061689E-01 -5.39923109E-06 -2.04530501E-01  9.73932050E-02  1.80369663E-01
  5.10136872E-06 -3.02962102E-02  1.57159350E-01  7.40025499E-02  3.34873767E-06
  9.63290851E-02  1.17373120E-01 -3.05171720E-01 -7.59865275E-07 -2.27372121E-02
 -1.17639666E-05  3.53809870E-06  1.59820924E-01  1.26184313E-01  5.39506506E-02
  2.74905700E-02 -1.37277714E-01  2.26836994E-01 -5.39973634E-06 -2.04579303E-01
  9.77846384E-02 -1.80212574E-01  5.10190593E-06 -3.03033825E-02  1.57319352E-01
 -7.37154514E-02  3.34985301E-06  9.63520417E-02  1.16709889E-01  3.05441603E-01
 -7.57491357E-07 -2.27424530E-02 -1.17561448E-05 -3.56242380E-06  1.60315387E-01
 -1.25530806E-01 -1.07783633E-01 -5.49213851E-02 -5.26649208E-01 -5.36217590E-04
  2.78081668E-05  4.09083647E-01  4.06612830E-01  4.14803735E-04 -2.30208798E-05
  6.18439232E-02  2.84565149E-01  2.82268315E-04 -1.95223775E-05 -1.91306329E-01
 -4.02066451E-01 -4.29454532E-04  4.75768549E-06  4.74448202E-02  6.18276462E-06
  6.67960259E-09 -6.10459490E-02 -1.08410700E-04 -6.18488873E-06 -2.43526574E-06
 -6.00429940E-04  6.33370475E-01 -1.90895197E-09  2.05680678E-05  3.66792172E-04
 -3.86714808E-01  1.46193375E-09  4.45442633E-06  2.10526711E-04 -2.21870344E-01
  2.13883665E-09 -1.83044996E-06  1.46242448E-04 -1.54480129E-01  2.25061476E-10
  5.80981842E-07 -2.38729197E-08  2.39758954E-05  5.45181499E-04 -2.59263288E-01
  9.33456365E-02  4.75621369E-02 -2.25291476E-01 -3.97829878E-01 -9.83933296E-06
 -3.54204976E-01  1.78836745E-01  3.04528545E-01  8.83274986E-06 -5.32235710E-02
  7.33290110E-02  2.42532060E-01  1.01612189E-05  1.66018108E-01 -3.02058637E-01
 -2.30900764E-01  9.29488670E-06 -4.06006428E-02  7.38093182E-06 -1.50473268E-07
 -1.26827611E-01 -1.33090983E-02 -9.33381122E-02 -4.75583026E-02  2.26075299E-01
 -3.97332755E-01  9.83838590E-06  3.54177382E-01 -1.79436887E-01  3.04132784E-01
 -8.83198482E-06  5.32228257E-02 -7.37988376E-02  2.42371113E-01 -1.01610237E-05
 -1.66001524E-01  3.02529755E-01 -2.30222653E-01 -9.29617182E-06  4.06026451E-02
 -7.38238998E-06 -1.66402030E-07  1.26906534E-01 -1.28033566E-02 -7.17989314E-06
 -3.65807453E-06 -2.50172032E-05 -6.38576018E-03  2.35833256E-09  2.77974464E-05
  2.98203805E-05 -6.20010321E-03 -1.96666496E-09  6.01222405E-06 -9.77558037E-05
  1.14756478E-01 -1.67765154E-09 -1.11343270E-05 -3.11912769E-04  2.93016576E-01
  2.40026969E-10  6.06533886E-06  6.89438305E-09 -6.35180910E-06  4.64469323E-04
 -2.32634055E-01 -2.61742345E-01 -1.01542686E-01 -3.61774966E-03 -1.84210511E-05
 -9.09502949E-05  8.80428595E-01  2.24562417E-03  1.14402663E-05  6.98987778E-05
  1.97253885E-01  1.30140688E-03  6.62662852E-06  9.63457279E-05 -8.68986293E-02
  7.38452139E-04  3.84332589E-06  1.34025456E-05  5.17567599E-02  1.73489670E-06
  9.46181663E-10 -1.06723020E-03  2.77692609E-06  1.78450794E-03  9.50609423E-04
 -9.88654083E-02 -1.71110909E-01  2.76981629E-05  1.45717631E-02  9.50069467E-02
  1.64408293E-01 -2.36313161E-05  7.98717730E-02  1.83558818E-02  3.24826390E-02
 -2.61975891E-05  7.61467134E-02 -2.89172636E-01 -4.98877914E-01 -7.89871700E-06
  1.13836717E-01 -3.47984472E-06 -6.65332061E-06  9.11530071E-02 -1.59148661E-01
  1.78883709E-03  9.52790958E-04 -9.92242876E-02  1.70927227E-01  2.76984596E-05
  1.45553405E-02  9.53499391E-02 -1.64228343E-01 -2.36316025E-05  7.98692419E-02
  1.84256480E-02 -3.24554619E-02 -2.61971831E-05  7.61543930E-02 -2.90200981E-01
  4.98299510E-01 -7.89626954E-06  1.13835030E-01 -3.49238896E-06  6.64504977E-06
  9.04996725E-02  1.59518744E-01  2.73225046E-03  1.42764276E-03  2.02170958E-01
  2.04838370E-04  2.13574149E-05  1.09884093E-02 -1.93404761E-01 -1.95817006E-04
 -1.75619859E-05  7.93024317E-02 -3.95681049E-02 -4.21082697E-05 -2.48679599E-05
  7.78148449E-02  5.80238739E-01  5.82898307E-04 -2.58298776E-05  1.13507596E-01
  1.92539195E-05  1.96943354E-08 -1.83028293E-01 -3.67315206E-04 -4.04789781E-07
 -1.09776612E-07 -8.51260546E-05 -1.95280060E-01  4.58605250E-09  1.50585692E-06
  6.24257234E-05  1.43262518E-01 -3.17630112E-09  2.70632169E-07  2.10790613E-05
  4.85076822E-02 -4.85744320E-10  3.30608609E-09  6.13336055E-05  1.40612454E-01
 -3.89352615E-09  3.44659084E-07  2.88268731E-08 -2.07087306E-05 -2.12874801E-03
  6.10460037E-01  3.23925207E-02  1.15925601E-02 -3.46146876E-01  5.52238483E-02
  7.38444456E-05 -9.39861653E-02  3.29995815E-01 -6.74729965E-02 -7.36959089E-05
 -2.93762081E-02  1.00848065E-01 -2.49278421E-01 -8.92798758E-06  5.13409926E-02
 -3.03435809E-01 -1.29332846E-01  7.44513463E-05  8.74018886E-02  9.94127039E-07
  2.16964762E-05  2.02730375E-01 -8.82211192E-02 -3.23382240E-02 -1.15731341E-02
  3.47358864E-01  5.69387372E-02 -7.37589048E-05  9.38286293E-02 -3.31164267E-01
 -6.91077896E-02  7.36096507E-05  2.93270176E-02 -1.01405015E-01 -2.49778407E-01
  8.93704595E-06 -5.12542273E-02  3.04342644E-01 -1.27828495E-01 -7.43510890E-05
 -8.72550460E-02 -9.73922243E-07  2.16779479E-05 -2.02794331E-01 -8.84560796E-02
 -5.43669646E-05 -1.94610566E-05 -8.76476611E-04  6.56621748E-01 -1.05782581E-07
  1.57796049E-04  8.29155633E-04 -6.40807080E-01  1.06782071E-07  4.93019669E-05
  1.53754169E-04 -4.24525952E-01  1.61613618E-08 -8.58614329E-05 -8.45310861E-04
  3.97930719E-01 -1.04546794E-07 -1.46401947E-04  8.81068440E-09  1.08441225E-05
 -2.36023568E-04  2.62672396E-01  1.22987564E-04  3.30340372E-05  1.95515582E-01
 -8.55743937E-05 -3.84433352E-06 -4.42225916E-04 -1.43488303E-01  6.28277377E-05
  2.77977708E-06 -8.42401094E-05 -4.86103781E-02  2.13423098E-05  8.09928418E-07
  2.43611206E-05 -1.40746175E-01  6.15645965E-05  2.89730711E-06 -7.34101514E-05
 -4.58025492E-06 -3.58987598E-08  6.10966768E-01  2.13072311E-03 -1.86025159E-02
 -6.65364909E-03 -4.57212117E-01  3.46315801E-01 -2.90869017E-05  5.39240520E-02
  4.50756944E-01 -3.30222200E-01  2.93331690E-05  1.68582558E-02  3.66596161E-01
 -1.01078107E-01 -3.56936308E-06 -2.95321325E-02 -2.22863221E-01  3.03636720E-01
 -3.46757202E-05 -5.03637438E-02 -2.23058982E-05 -6.19295117E-06  1.45819046E-01
  2.03113897E-01 -1.86964391E-02 -6.68724487E-03 -4.55499596E-01 -3.47079917E-01
 -2.93031353E-05  5.41963014E-02  4.49123983E-01  3.30937876E-01  2.95489598E-05
  1.69435054E-02  3.66096374E-01  1.01096681E-01 -3.54293126E-06 -2.96808290E-02
 -2.21362584E-01 -3.04461948E-01 -3.48935792E-05 -5.06178299E-02 -2.23220038E-05
  6.21045638E-06  1.46053820E-01 -2.02776804E-01  3.73255822E-02  1.33525693E-02
  1.43631906E-01  1.10034749E-03  7.39996250E-05 -1.08225205E-01 -1.22169942E-01
 -1.05565103E-03 -7.46779561E-05 -3.38859629E-02  1.91397829E-01 -4.22446647E-04
 -1.18310023E-05  5.90434369E-02  3.03441188E-01  8.86687266E-04  7.25542675E-05
  1.00852043E-01 -1.32083771E-05  2.40748281E-09 -2.05379580E-01 -3.55566063E-05
 -3.95866108E-05 -9.47592966E-06  1.52082657E-05  1.39770601E-08  7.35719494E-01
  1.34278271E-04 -1.44748443E-05 -1.33611856E-08 -6.99452203E-01  3.82845253E-05
 -1.32289545E-05 -1.22359810E-08 -6.39055917E-01 -1.96226877E-05 -6.32920774E-07
 -4.61093260E-10 -3.24045197E-02 -5.13396474E-05  1.63529066E-04  7.39019612E-07
 -9.07333206E-08  1.77752056E-10 -6.04282896E-06 -2.34484730E-06 -1.78478763E-05
 -1.65349510E-05 -4.06904904E-01  2.75836349E-05  2.02495971E-05  2.04018559E-05
  4.15358636E-01  7.01181919E-06  3.03573318E-06 -3.22679628E-06  2.39508506E-01
 -5.34220184E-06 -2.45887854E-05 -4.48398173E-05  5.67945280E-02  9.63124333E-07
  1.00047194E-01  1.73657297E-01  1.18263902E-05 -1.32952377E-05 -6.04286045E-06
 -2.34485773E-06 -1.78811305E-05  1.65001452E-05 -4.06906995E-01  2.75837118E-05
  2.02907144E-05 -2.03621966E-05  4.15360820E-01  7.01181485E-06  3.02905788E-06
  3.23181431E-06  2.39508363E-01 -5.34228738E-06 -2.46796572E-05  4.47893446E-05
  5.67911797E-02  9.61998850E-07  1.00399747E-01 -1.73452778E-01  1.17713452E-05
  1.33427861E-05 -6.05241603E-06 -2.34811704E-06  1.05399995E-05  1.18098037E-08
 -4.07556531E-01  2.76097459E-05 -1.48284033E-05 -1.61878760E-08  4.16039348E-01
  7.00886494E-06  8.67736879E-06  8.15797918E-09  2.39504502E-01 -5.36780174E-06
  5.27865614E-05  5.37786845E-08  5.58267545E-02  1.17323071E-05 -2.00214674E-01
 -2.03577740E-04 -2.36097949E-05 -4.74935981E-08  2.42838607E-08  3.72221755E-09
  4.62602121E-05 -1.77104059E-08 -4.34674658E-04 -8.45136018E-08 -4.51700898E-05
  1.72955338E-08  4.57582290E-04 -2.58933059E-08  5.33833787E-06 -2.00616247E-09
  4.69775068E-04  9.79531913E-09  1.18328133E-05 -4.51042014E-09  2.52838273E-05
  8.61096745E-06 -2.38666130E-01  9.10358324E-05  7.65803117E-05  2.77152474E-07
 -4.64842640E-07 -9.20332821E-08 -3.88242185E-05  3.39340492E-05  3.68335449E-01
  8.24991880E-07  4.23834320E-05 -3.69398282E-05 -4.21170400E-01  2.28548256E-06
  2.98448378E-05 -1.22205648E-05 -5.90600475E-02  1.23958986E-06 -2.47228010E-05
  2.78748424E-05  4.18089528E-01  5.09598185E-07  1.40047924E-02 -4.28583043E-02
  2.65086073E-05  2.01865445E-05 -4.67122227E-07 -9.24869992E-08 -3.86231129E-05
 -3.39939724E-05  3.70123492E-01  8.29087441E-07  4.21624822E-05  3.70038515E-05
 -4.23214951E-01  2.29660811E-06  2.97797640E-05  1.22339645E-05 -5.93461379E-02
  1.24561864E-06 -2.45460840E-05 -2.79231866E-05  4.20120942E-01  5.19045729E-07
  1.37978021E-02  4.29855211E-02  2.65292293E-05 -2.00711277E-05  9.47570723E-07
  1.89498436E-07 -2.91544938E-06  9.06857076E-08 -7.37701667E-01 -1.72117986E-06
  4.55925485E-06 -9.81341332E-08  8.43530664E-01 -4.58985966E-06  1.23122946E-05
 -4.09503342E-08  1.17982977E-01 -2.48452335E-06 -2.51501702E-06  6.81125388E-08
 -8.38437210E-01  1.26429725E-07 -5.99691072E-02 -1.15062630E-04 -1.13892928E-05
  2.94496535E-08 -8.30760611E-11 -1.28271798E-11 -1.75971818E-08 -4.62159700E-05
  1.81993236E-06  3.02943244E-10  1.71811729E-08  4.51351078E-05 -1.91730321E-06
  1.00668073E-10 -2.11137224E-09 -5.35866531E-06 -2.08346732E-06 -2.58401029E-11
 -4.55280099E-09 -1.18793908E-05 -1.88869509E-07 -1.14291613E-08  9.14014856E-05
  2.38816099E-01 -2.81928418E-07  8.62994686E-05  8.13038114E-07  1.61999511E-07
 -4.70815317E-05  7.07563851E-06 -6.39600381E-01 -1.46805082E-06  5.19830672E-05
 -8.24279826E-06  7.31430763E-01 -3.96946294E-06  1.43078365E-05 -1.68187756E-05
  1.02298694E-01 -2.15567264E-06 -4.28182610E-05  1.11254895E-06 -7.26650873E-01
 -3.32641991E-06  4.27729085E-02  3.55833199E-02  2.18002322E-05  2.74717124E-06
 -8.11772663E-07 -1.61753000E-07  4.71748563E-05  7.26422494E-06  6.38565940E-01
  1.46587608E-06 -5.20838893E-05 -8.44946643E-06 -7.30247836E-01  3.96306445E-06
 -1.43566435E-05 -1.68817420E-05 -1.02132295E-01  2.15221619E-06  4.28845464E-05
  1.27525182E-06  7.25478840E-01  3.32509768E-06 -4.28833846E-02  3.53751816E-02
 -2.18851908E-05  2.71461876E-06 -1.33896893E-09 -2.70190654E-10 -6.27854705E-08
  6.58562304E-05  1.03126859E-03  2.48492296E-09  6.69617266E-08 -7.22329105E-05
 -1.17934147E-03  6.40167572E-09  2.15107134E-08 -3.79788764E-05 -1.64571866E-04
  3.48358530E-09 -4.64751933E-08  4.93701790E-05  1.17315391E-03 -2.25633150E-10
  1.22948907E-04 -3.86699984E-02 -6.04461139E-08  3.74572424E-05 -4.12548977E-01
  6.64243620E-02 -4.95989662E-04 -2.36450182E-06 -6.33842415E-06  9.34586700E-01
  5.02259839E-04  2.41214113E-06  9.47678995E-06  1.12763617E-01  3.13869653E-04
  1.62261004E-06  8.72511004E-05 -1.68964892E-01 -8.65081349E-05 -3.33352401E-07
 -3.10044252E-05 -5.44535267E-01 -1.95422533E-05 -1.80991498E-08  2.95040999E-04
 -3.06293330E-08  1.16636244E-01  1.58440047E-03  2.15175968E-01  3.73282974E-01
  1.41580193E-06 -3.54969121E-01 -3.11259528E-01 -5.39952894E-01 -4.31898016E-06
  1.22314119E-01 -1.00829454E-01 -1.75184674E-01  2.76970356E-05 -1.49082633E-01
  1.26632782E-01  2.20035904E-01 -2.41460323E-05  1.44791186E-01  1.39410960E-05
  2.26706244E-05  1.04424921E-01 -1.80092819E-01  1.16636978E-01  1.58441175E-03
  2.15936036E-01 -3.72845800E-01  1.41442925E-06 -3.54971569E-01 -3.12359020E-01
  5.39320569E-01 -4.31699163E-06  1.22315008E-01 -1.01185529E-01  1.74979715E-01
  2.76976568E-05 -1.49082675E-01  1.27080122E-01 -2.19779003E-01 -2.41466521E-05
  1.44791272E-01  1.39877993E-05 -2.26434717E-05  1.03691634E-01  1.80516569E-01
  1.16806291E-01  1.58638516E-03 -4.31268785E-01 -4.37920813E-04  1.48105847E-05
 -3.55522201E-01  6.23857369E-01  6.33463474E-04 -2.36947035E-05  1.22504409E-01
  2.02285835E-01  2.05900685E-04  2.14114893E-05 -1.49107869E-01 -2.54090711E-01
 -2.58798032E-04 -1.62229970E-05  1.44833256E-01 -1.23269792E-05 -1.26148851E-08
 -2.08334176E-01 -4.23480609E-04  3.84213128E-11 -1.21548072E-11 -1.99863238E-07
  1.05312983E-04  2.09901366E-12 -3.70000079E-11  5.23350111E-07 -2.20351748E-04
 -6.57858822E-12 -7.10307425E-11 -1.70192438E-06  4.43276210E-04  2.66983338E-11
  1.81681464E-11 -5.95238305E-08  3.73994878E-05  5.19904664E-13  9.11963902E-11
 -1.07816004E-10  3.07374178E-08 -5.53745229E-09 -1.44111330E-04 -1.07636561E-04
  7.94565880E-06 -4.21891010E-01  2.42831445E-01  8.73514400E-06  3.69616202E-04
  6.80891449E-01 -3.91899919E-01 -1.40988429E-05 -1.43243596E-04 -4.13743047E-01
  2.38263846E-01  8.56827400E-06 -4.31539311E-05 -5.70966123E-01  3.28611668E-01
  1.18191636E-05  1.00499673E-05  1.04196088E-06  6.04590317E-07 -5.00239366E-02
 -2.90330847E-02  1.07999249E-04 -7.97274984E-06  4.21396075E-01  2.43688179E-01
 -8.73426169E-06 -3.70851743E-04 -6.80092697E-01 -3.93282590E-01  1.40974232E-05
  1.43731801E-04  4.13257333E-01  2.39104467E-01 -8.56740965E-06  4.32817822E-05
  5.70297703E-01  3.29771978E-01 -1.18179804E-05 -1.00612662E-05 -1.04329153E-06
  6.02311259E-07  5.01416972E-02 -2.88294426E-02 -3.62704966E-07  2.70929868E-08
  4.95363679E-04 -4.86649350E-01 -8.88690361E-10  1.23557178E-06 -7.99482082E-04
  7.85397114E-01  1.43070830E-09 -4.88198518E-07  4.85436970E-04 -4.77308800E-01
 -8.59778354E-10 -1.27782193E-07  6.70782975E-04 -6.59038628E-01 -1.21947033E-09
  1.12406702E-08  1.31101820E-09 -1.20219717E-06 -1.17621679E-04  5.78338596E-02
 -3.24294142E-04  1.30713747E-04  1.95032309E-02 -9.28802180E-06 -3.68862062E-07
  5.79035232E-04  7.06088788E-02 -3.32859191E-05 -1.52289980E-06  7.42771222E-05
 -9.82785608E-01  4.64810825E-04  2.04776862E-05 -9.98687351E-05  2.18569324E-01
 -1.03543008E-04 -4.57319767E-06 -3.24486461E-04 -3.64624114E-05  4.79374544E-08
 -4.83378274E-01 -1.70332171E-03  1.76271546E-01 -3.89207535E-02 -1.23399222E-01
  2.35657874E-01 -5.98303846E-07 -5.24985512E-01  2.11683043E-01 -4.29017066E-01
  2.32933797E-06  2.65040162E-01 -2.99157511E-01  9.49108458E-02  1.15596018E-05
  4.57362214E-02  4.09190903E-01 -3.13774893E-02 -2.25683339E-06  2.13896911E-02
  6.06984118E-06  8.92431403E-07  1.34943427E-02 -5.03851966E-02  1.77183044E-01
 -3.91220098E-02 -1.22217823E-01 -2.36354074E-01 -6.30123387E-07 -5.27700234E-01
  2.09532214E-01  4.30296682E-01  2.39228120E-06  2.66410942E-01 -2.98683247E-01
 -9.49560677E-02  1.15809550E-05  4.59732099E-02  4.09031699E-01  3.10973104E-02
 -2.22242800E-06  2.15001330E-02  6.07219634E-06 -9.00789070E-07  1.34393281E-02
  5.06536010E-02 -3.53138207E-01  7.79703158E-02  2.85655339E-01  6.77424842E-04
  4.64290441E-07  1.05180038E+00 -5.32981174E-01 -1.22705193E-03 -2.52003589E-06
 -5.31147898E-01 -1.34074092E-01  3.91858514E-04 -7.83981894E-06 -9.19507168E-02
  3.54621002E-01 -2.74401490E-04 -1.99083515E-05 -4.26932084E-02  1.66300831E-06
 -6.29928913E-09  1.00682086E-01  1.81408905E-04  1.66729377E-06 -6.73083332E-07
 -8.99606954E-06 -1.91525398E-02  3.54497500E-10 -2.95671888E-06 -3.37478041E-05
 -7.11113806E-02  2.40925826E-09 -4.44283376E-07  4.65025945E-04  9.83043628E-01
 -2.91661334E-08  5.30939451E-07 -1.03253441E-04 -2.18632864E-01  6.59268519E-09
  1.68730451E-06 -3.92291575E-09  5.64933258E-05  1.70323847E-03 -4.83436309E-01
 -3.06234178E-01  6.76559325E-02 -2.35292742E-01 -1.50010959E-01  1.03899560E-05
  9.12025996E-01  4.28439314E-01  2.86132868E-01 -2.06063537E-05 -4.60521998E-01
 -9.46007980E-02  1.88784267E-01 -7.28619170E-06 -7.96477782E-02  3.14087812E-02
 -3.72927882E-01 -1.15126548E-05 -3.70043715E-02 -1.19849721E-07 -6.86748625E-06
 -5.05438134E-02  7.15728558E-02  3.05706748E-01 -6.75393991E-02  2.35962318E-01
 -1.48828317E-01 -1.03888467E-05 -9.10455388E-01 -4.29646119E-01  2.83979371E-01
  2.06006582E-05  4.59729452E-01  9.51077244E-02  1.89259309E-01  7.25202841E-06
  7.95116828E-02 -3.18700228E-02 -3.73084444E-01  1.15181810E-05  3.69401251E-02
  1.15943063E-07 -6.86489870E-06  5.02121415E-02  7.16267919E-02  5.25854274E-04
 -1.16170153E-04 -6.88438859E-04  2.59302002E-01 -3.12429390E-10 -1.56625095E-03
  1.25959922E-03 -4.59131535E-01  3.08735157E-09  7.91131737E-04 -1.61045016E-04
  3.54140321E-01  1.21492651E-08  1.37372219E-04 -9.37204819E-05 -4.26901165E-01
  2.90120197E-08  6.31910300E-05  2.97394668E-09 -5.33473853E-06 -1.17459992E-04
 -1.56861031E-02 -1.67539358E-05  9.47766332E-06 -1.28393913E-05 -1.20945896E-08
 -6.17503765E-01  9.84291788E-06  2.43347209E-05  2.29010496E-08  1.17068839E+00
  1.86800089E-05 -1.57885602E-05 -1.49916913E-08 -7.58042055E-01 -2.98034984E-05
  1.25250644E-05  1.17596729E-08  6.03035894E-01 -2.23947530E-05 -1.22585343E-06
  2.35556011E-09 -1.33148331E-08  5.32654709E-11  1.29105499E-05 -4.92065033E-06
 -5.95540489E-06  2.70064601E-06 -3.61506896E-01 -2.77492975E-05  1.14424453E-05
 -4.98895537E-06  6.89030952E-01  1.69993230E-05 -3.24067567E-05 -3.20309096E-05
 -6.71647416E-01 -1.39697316E-05  2.33626115E-05  3.42167059E-05  1.74822090E-01
  1.47373561E-05 -3.27181898E-02 -5.67884669E-02  7.22584831E-06 -1.48105282E-05
  1.29104054E-05 -4.92059632E-06 -5.94996204E-06 -2.71152126E-06 -3.61506917E-01
 -2.77489033E-05  1.14324160E-05  5.00983386E-06  6.89030994E-01  1.69990910E-05
 -3.24719033E-05  3.19671603E-05 -6.71647067E-01 -1.39697937E-05  2.34321846E-05
 -3.41695822E-05  1.74821707E-01  1.47376735E-05 -3.28334250E-02  5.67214912E-02
  7.16574449E-06  1.48399162E-05  1.28812727E-05 -4.90972544E-06 -1.06156856E-05
 -1.02310012E-08 -3.61512903E-01 -2.76675233E-05  2.00406171E-05  1.93057242E-08
  6.89043029E-01  1.69520223E-05  2.30284136E-05  2.44577285E-08 -6.71562343E-01
 -1.39843821E-05 -3.58535101E-05 -3.66475228E-08  1.74709647E-01  1.12058934E-05
  6.54505107E-02  6.65509253E-05 -1.44049213E-05 -2.93964035E-08 -8.78076634E-06
  9.12237520E-06  1.07705762E-01 -6.73683221E-06 -2.23665201E-06 -3.94595742E-05
 -1.87930135E-01  1.18962268E-05  3.90465228E-06  1.23257320E-04 -1.70253980E-01
  9.78886712E-06  3.53953708E-06 -6.26345115E-05 -4.51625898E-01  2.67531595E-05
  9.37430240E-06 -6.39784238E-05 -1.42831176E-05  3.50546187E-09 -5.72485899E-02
 -1.78174107E-04  1.68870503E-01 -1.14601265E-01  4.36680266E-01 -1.84274601E-01
 -3.02223920E-06 -2.52391026E-01 -9.20075434E-01  3.74031737E-01  6.82433010E-06
  2.09699130E-01  1.09870670E+00 -5.38509691E-01 -5.02777971E-06  1.72058784E-02
 -1.67346236E-01  4.96431431E-01 -2.26559173E-07 -1.57219601E-02 -6.25816150E-07
  1.08779257E-06  2.08881954E-02  8.30894567E-03  1.69501257E-01 -1.15029316E-01
  4.35908157E-01  1.84681068E-01 -2.99084715E-06 -2.53333588E-01 -9.18508188E-01
 -3.74852806E-01  6.76057173E-06  2.10482485E-01  1.09644960E+00  5.39719251E-01
 -4.93551279E-06  1.72701414E-02 -1.65266295E-01 -4.97647199E-01 -2.64250347E-07
 -1.57804798E-02 -6.22627462E-07 -1.09352655E-06  2.09039647E-02 -8.19919071E-03
 -3.38187362E-01  2.29503972E-01  1.16918205E-01 -4.65223694E-04 -1.45191903E-05
  5.05438013E-01 -2.70992933E-01  9.46324743E-04  3.01902537E-05 -4.20009796E-01
  1.64187095E-01 -1.34900932E-03 -3.89932784E-05 -3.46066703E-02  6.94249206E-01
  1.19415829E-03 -7.01121580E-06  3.14869592E-02  3.55684366E-06  3.32062050E-09
  6.55744776E-03  4.09011025E-05 -2.80127909E-07  2.35990780E-07  6.05909078E-06
  1.07687462E-01 -2.22888513E-09  6.03374634E-08 -1.04305527E-05 -1.87899292E-01
  3.89845843E-09  3.71919722E-07 -1.04577595E-05 -1.70532263E-01  3.54034135E-09
 -1.89444734E-07 -2.69024398E-05 -4.51512051E-01  9.31681561E-09 -2.79965238E-07
  1.65153840E-09 -1.66692255E-05 -1.77792209E-04  5.72139694E-02  2.93282188E-01
 -1.99061119E-01 -1.84197464E-01  2.22893245E-01  1.42876228E-05 -4.38220568E-01
  3.73892696E-01 -4.86156274E-01 -2.90169046E-05  3.64157559E-01 -5.38446986E-01
  4.74065686E-01  4.19737971E-05  2.98971543E-02  4.96322404E-01  4.08574754E-01
 -1.66832417E-05 -2.72976910E-02  4.50719082E-07  2.06619582E-06 -8.27259572E-03
 -1.13702428E-02 -2.92917580E-01  1.98813643E-01  1.84682306E-01  2.23665682E-01
 -1.42933246E-05  4.37675684E-01 -3.74880917E-01 -4.87724077E-01  2.90298545E-05
 -3.63705027E-01  5.39843170E-01  4.76323090E-01 -4.19829208E-05 -2.98602920E-02
 -4.97508972E-01  4.06493717E-01  1.66841672E-05  2.72636781E-02 -4.56317974E-07
  2.06275342E-06  8.36378447E-03 -1.13542853E-02 -3.63866268E-04  2.46965835E-04
 -4.26038203E-04  5.42727342E-01 -1.46946554E-08  5.43762266E-04  8.62837009E-04
 -1.13536122E+00  3.05431968E-08 -4.51867026E-04 -1.25530232E-03  1.40885311E+00
 -3.95276997E-08 -3.74096293E-05  1.20792321E-03 -4.53495970E-01 -8.35906584E-09
  3.40073268E-05  3.58827361E-09  1.77159887E-07  5.90631331E-05 -2.56842401E-02
  7.02488226E-04 -6.51075762E-04 -5.59311620E-01 -1.40781108E-04  1.16121082E-05
 -4.82808857E-04  1.31319298E+00  3.30623971E-04 -2.72663510E-05  7.77633491E-05
 -6.33419413E-01 -1.59411479E-04  1.31803788E-05  1.74257958E-04 -5.89145133E-01
 -1.48786196E-04  1.22368212E-05 -1.04648697E-04  1.70432674E-05  2.89413758E-09
  4.07689363E-02  1.14347748E-04 -1.50868857E-01  1.22754906E-01  1.15148641E-01
  9.56374865E-02  3.75874438E-05  8.05114095E-02 -2.48778528E-01 -2.17712474E-01
 -8.17676728E-05 -1.85950629E-01  5.11608422E-01  5.94282932E-01  8.75524964E-05
  1.80135324E-01  2.55681237E-01 -4.03967699E-01 -7.18839539E-05 -9.61722077E-02
 -5.16670745E-06 -1.30844120E-05 -6.74342258E-02  1.23933140E-01 -1.51267782E-01
  1.23079495E-01  1.15488729E-01 -9.57478282E-02  3.76901596E-05  8.07236681E-02
 -2.49552960E-01  2.17970719E-01 -8.19906699E-05 -1.86442296E-01  5.13725103E-01
 -5.95073358E-01  8.77920893E-05  1.80612955E-01  2.54240980E-01  4.04808975E-01
 -7.20463415E-05 -9.64273764E-02 -5.21509881E-06  1.31047115E-05 -6.71188208E-02
 -1.24529222E-01  3.01652550E-01 -2.45438811E-01  2.80672464E-01  2.39476744E-04
 -8.59208403E-05 -1.60776272E-01 -6.25777176E-01 -5.42001047E-04  1.87149355E-04
  3.71891194E-01  1.54149477E+00  1.43811648E-03 -2.28701855E-04 -3.60463295E-01
 -4.44706364E-01 -8.25419524E-04  1.42588377E-04  1.92580278E-01 -8.56226193E-06
 -1.11125595E-08 -2.82378697E-01 -5.70933841E-04  2.49803997E-06 -2.31185373E-06
  1.41454126E-04 -5.58860850E-01  7.89354221E-09 -1.89609769E-06 -3.32067996E-04
  1.31229037E+00 -1.85534742E-08  1.62419340E-07  1.60335936E-04 -6.33371849E-01
  9.00591254E-09  9.45480940E-07  1.48663231E-04 -5.89304135E-01  8.33402673E-09
 -4.94830444E-07 -6.11773965E-09  1.86864210E-05  1.12923714E-04 -4.04552572E-02
 -2.61634390E-01  2.12902691E-01  9.54905630E-02  2.26041260E-01  6.73900406E-05
  1.39535115E-01 -2.17397810E-01 -5.01246010E-01 -1.46341817E-04 -3.22592226E-01
  5.93431208E-01  1.20021838E+00  1.58085724E-04  3.12304417E-01 -4.03843933E-01
 -2.12442027E-01 -1.07168710E-04 -1.66778951E-01 -1.39067845E-05 -1.96425938E-05
 -1.24618390E-01  2.10374209E-01  2.61401458E-01 -2.12713145E-01 -9.57730935E-02
  2.25699093E-01 -6.73318244E-05 -1.39409875E-01  2.18034571E-01 -5.00467647E-01
  1.46215109E-04  3.22305107E-01 -5.95084694E-01  1.19809758E+00 -1.57947787E-04
 -3.12028066E-01  4.04663091E-01 -2.10999892E-01  1.07058084E-04  1.66631898E-01
  1.39394859E-05 -1.95957219E-05  1.23659589E-01  2.10689243E-01  2.30374279E-04
 -1.87462579E-04  1.53430035E-04  6.00406221E-02 -6.55814384E-08 -1.22746724E-04
 -3.52811531E-04 -1.23337026E-01  1.42863238E-07  2.84180727E-04  1.00519046E-03
  1.69360903E-01 -1.74582755E-07 -2.74920059E-04 -8.36131162E-04  4.88289745E-01
  1.09865834E-07  1.47035916E-04 -9.62567631E-09  3.03623377E-06 -2.06280094E-04
 -4.53012282E-03  4.72996348E-01 -4.65303173E-01  6.96070341E-05  2.48278449E-07
  3.55142300E-05  2.15631907E-01  3.81186099E-06  2.18274612E-07 -7.60274294E-05
  2.57434118E-01  3.56579676E-05  4.30127458E-08  9.08449875E-05 -5.61102924E-01
 -1.40739267E-04 -7.70870789E-07  2.17758716E-05  2.47996936E-01  8.91143670E-06
  8.29459949E-09 -1.35389069E-04  5.07111135E-08  4.73229925E-01 -3.99690808E-01
 -1.65135637E-01 -2.86668002E-01  1.03485884E-05 -4.03337194E-01  3.64052951E-01
  6.31973774E-01 -2.35811886E-05  6.84218958E-01 -4.13747288E-01 -7.18117962E-01
  1.73869810E-05 -3.20079907E-01  2.32558320E-01  4.03542162E-01 -3.83923265E-05
 -2.93290800E-02 -2.90856661E-06 -3.52199985E-06 -4.15580676E-03  7.12740899E-03
  4.73231879E-01 -3.99692461E-01 -1.65718952E-01  2.86332762E-01  1.03494835E-05
 -4.03338787E-01  3.65338874E-01 -6.31234678E-01 -2.35831560E-05  6.84221748E-01
 -4.15208853E-01  7.17278408E-01  1.73891692E-05 -3.20080555E-01  2.33380096E-01
 -4.03070382E-01 -3.83934411E-05 -2.93289759E-02 -2.91574393E-06  3.51628402E-06
 -4.12682058E-03 -7.14429292E-03  4.73714565E-01 -4.00100302E-01  3.31115374E-01
  3.36694386E-04  2.16576213E-08 -4.03746047E-01 -7.29951383E-01 -7.42251977E-04
 -8.13397726E-07  6.84909163E-01  8.29535273E-01  8.43419213E-04 -8.50794592E-06
 -3.20204020E-01 -4.66335868E-01 -4.73802269E-04 -2.38022289E-05 -2.93262441E-02
  2.67393336E-06  2.79956829E-09  8.30094028E-03  1.68938373E-05 -3.59361604E-06
  3.60945488E-06 -8.24306791E-05 -6.48091659E-09 -1.97204923E-04  8.68487757E-07
  2.02551681E-04  1.59380365E-08  4.43276034E-04 -1.14897978E-06 -1.24181570E-04
 -9.79911909E-09 -6.86638610E-04  5.70087866E-07 -2.49776810E-05 -1.97725371E-09
 -1.80766398E-04  4.65099639E-06 -1.19105385E-01 -9.41503382E-06 -1.16979216E-07
  4.54091241E-09 -2.64253240E-05  2.37354553E-05  1.81023555E-05  2.55127903E-06
 -2.59924103E-01  5.86492249E-06 -3.99776301E-05 -7.82804889E-06  5.83065321E-01
 -2.72616341E-05  8.14868049E-05  4.96974353E-05 -8.09143411E-01  2.78587817E-05
  1.35335643E-05 -3.39571671E-05  6.89473366E-01 -1.22893549E-05 -1.38398606E-03
 -1.59928889E-02 -1.03745358E-05  1.59150938E-05 -2.65088120E-05  2.38104551E-05
  1.80955570E-05 -2.56453604E-06 -2.60769998E-01  5.88264179E-06 -3.99706333E-05
  7.86247897E-06  5.84962829E-01 -2.73483457E-05  8.16285239E-05 -4.98243081E-05
 -8.11776726E-01  2.79495575E-05  1.34455062E-05  3.40600098E-05  6.91716017E-01
 -1.23280946E-05 -1.44656348E-03  1.60273368E-02 -1.03406669E-05 -1.60110336E-05
  5.07606807E-05 -4.56025330E-05  4.02235439E-05  1.93339683E-08  5.21023376E-01
 -1.05800267E-05 -9.32667995E-05 -4.81874729E-08 -1.16875156E+00  5.29196799E-05
  2.21757865E-04  1.57347943E-07  1.62201747E+00 -5.59094807E-05 -9.13306961E-05
 -1.08043097E-07 -1.38104320E+00  2.55294636E-05 -2.91671216E-02 -3.70127884E-05
 -3.90380985E-05 -8.03580177E-08  1.25643075E-08 -1.26211396E-08 -6.57504817E-09
  8.23631117E-05  6.96671009E-07 -3.01109459E-09  1.61477350E-08 -2.02407335E-04
 -1.57729368E-06  4.03408925E-09 -9.85553200E-09  1.24157026E-04  2.38196571E-06
 -2.01667845E-09 -1.97755930E-09  2.49660629E-05  4.21135121E-07 -4.93453774E-09
 -9.47061120E-06  1.19057610E-01 -9.29559605E-09  4.77272948E-06  4.46480660E-05
 -4.01125492E-05  6.36576405E-06 -2.72182091E-05  4.51340697E-01 -9.51798902E-06
 -1.21773357E-05  6.28672873E-05 -1.01247290E+00  4.63761413E-05 -2.15806053E-05
 -1.57705219E-04  1.40518871E+00 -4.84004450E-05  1.00203459E-05  4.16444570E-05
 -1.19686058E+00  2.06931266E-05  1.60029739E-02  1.99617337E-02  1.66487979E-05
 -2.86287429E-05 -4.45945532E-05  4.00644939E-05 -6.34308476E-06 -2.72268685E-05
 -4.50853181E-01  9.50487347E-06  1.21215884E-05  6.28785327E-05  1.01137925E+00
 -4.63218897E-05  2.17512852E-05 -1.57568093E-04 -1.40367102E+00  4.83483183E-05
 -1.01326864E-05  4.15603072E-05  1.19556549E+00 -2.06695605E-05 -1.60408244E-02
  1.98991237E-02 -1.65127464E-05 -2.86660558E-05 -4.58012550E-08  4.11588679E-08
 -1.66523703E-08 -2.20122062E-05 -4.88744668E-04  8.96701188E-09  4.20699913E-08
  4.75376961E-05  1.09635995E-03 -4.82547986E-08 -1.40177865E-07 -6.96263402E-05
 -1.52172982E-03  5.24529141E-08  1.07327195E-07 -1.87765349E-05  1.29494960E-03
 -2.37269291E-08  3.53379382E-05 -7.82745411E-03  3.86101940E-08 -1.07183080E-06
 -1.68667268E+00  1.70041663E+00  1.74721208E-04  9.60386659E-07 -1.72026629E-04
  3.69676162E-01 -2.68607068E-04 -1.60183226E-06  3.79797754E-04 -5.19318246E-01
  2.30521157E-05  3.26169637E-07 -6.49796641E-04  2.43085020E-01 -2.13056249E-04
 -7.76090024E-07 -2.35569678E-04  1.75990623E-01  6.59094559E-06  6.79395133E-09
 -2.62639620E-04  2.60846062E-07 -3.18111209E-01  2.85627046E-01 -1.10256466E-01
 -1.91471207E-01  8.53455262E-05  1.63090822E-01  2.46321379E-01  4.27758229E-01
 -1.86738006E-04 -2.41920746E-01 -2.60343714E-01 -4.52074299E-01  2.93941362E-04
 -1.13154388E-02  2.17444068E-01  3.77406823E-01  1.05977663E-04 -3.74082580E-02
  4.68728517E-06  9.67922508E-06 -1.12774427E-02  1.94201656E-02 -3.18109363E-01
  2.85625402E-01 -1.10646645E-01  1.91248451E-01  8.53407377E-05  1.63089384E-01
  2.47193054E-01 -4.27260583E-01 -1.86727246E-04 -2.41917570E-01 -2.61264579E-01
  4.51547628E-01  2.93925808E-04 -1.13157034E-02  2.18212605E-01 -3.76966177E-01
  1.05990537E-04 -3.74085505E-02  4.70672945E-06 -9.66918029E-06 -1.11987331E-02
 -1.94665295E-02 -3.17656100E-01  2.85221870E-01  2.21501906E-01  2.25277958E-04
  7.66144621E-05  1.62748993E-01 -4.94857495E-01 -5.03303705E-04 -1.67210990E-04
 -2.41115086E-01  5.22895821E-01  5.31783841E-04  2.71901419E-04 -1.14240539E-02
 -4.36249223E-01 -4.43484687E-04  1.24391929E-04 -3.74579002E-02 -1.33544184E-05
 -1.35361055E-08  2.26199819E-02  4.59963780E-05 -9.67137878E-04  1.06844588E-03
  1.11465227E-05  1.15375046E-08  5.22578051E-01 -3.21583637E-04 -2.50476373E-05
 -2.57247943E-08 -1.17719405E+00 -8.61572611E-05  4.40441515E-05  4.14500673E-08
  2.11935157E+00 -5.44414032E-05  1.28081474E-05  1.15063050E-08  6.23951782E-01
  9.70875491E-05 -5.70366039E-05 -1.72321112E-07 -3.55226950E-07  4.58576805E-10
  1.13751169E-04 -1.14473976E-04 -2.85807225E-05 -4.16046455E-05 -2.23692525E-01
 -3.31173097E-05  5.65432716E-05  8.01461922E-05  5.03081948E-01  7.10551867E-05
 -7.64374733E-06  1.88992355E-05 -8.96862468E-01  1.61451675E-05  2.07843133E-06
  1.51662770E-05 -3.21071479E-01 -3.25982095E-05 -2.87934784E-02 -4.99683104E-02
 -3.14912967E-05  5.22268136E-05  1.13753010E-04 -1.14475808E-04 -2.86661097E-05
  4.15488085E-05 -2.23691534E-01 -3.31179800E-05  5.67080961E-05 -8.00365123E-05
  5.03079672E-01  7.10578476E-05 -7.60647644E-06 -1.89091877E-05 -8.96859135E-01
  1.61452541E-05  2.11028056E-06 -1.51627164E-05 -3.21073116E-01 -3.25983589E-05
 -2.88951586E-02  4.99098373E-02 -3.12789419E-05 -5.23551977E-05  1.14212275E-04
 -1.14932868E-04  4.38254328E-05  4.50083198E-08 -2.23381133E-01 -3.32830929E-05
 -8.31133532E-05 -8.55226097E-08  5.02365257E-01  7.17295928E-05 -3.97183594E-05
 -3.86873527E-08 -8.95802611E-01  1.61578396E-05 -2.47105131E-05 -2.45702359E-08
 -3.21755131E-01 -3.58183333E-05  5.77233043E-02  5.86823584E-05  6.30113863E-05
  1.28058088E-07  9.29369803E-01 -1.06301428E+00 -4.25291450E-04 -1.89223638E-06
  1.42002615E-04  5.64138664E-01  9.49009487E-04  4.22500607E-06 -3.22134314E-04
 -7.52175938E-02 -2.25448174E-04 -9.50238007E-07  6.33592601E-04 -5.19055580E-03
  1.53217611E-04  6.88817487E-07  1.68734029E-04 -4.74317967E-02 -1.68743523E-06
 -1.43245673E-09  4.54780334E-04 -6.17460607E-07 -1.08664639E+00  1.13745275E+00
 -2.78599365E-02 -4.83558462E-02 -6.29260049E-05 -1.36825967E-01  7.66111324E-02
  1.32968623E-01  1.41730764E-04 -1.26622391E-02 -1.89255684E-01 -3.28521319E-01
 -2.52981006E-04 -6.03089570E-02  1.26785610E-01  2.20128895E-01 -9.58467637E-05
  2.82832332E-02 -6.13320237E-06 -1.01997183E-05  3.06569873E-02 -5.28635708E-02
 -1.08664787E+00  1.13745426E+00 -2.79571459E-02  4.82972083E-02 -6.29257238E-05
 -1.36825390E-01  7.68788275E-02 -1.32808042E-01  1.41730048E-04 -1.26651254E-02
 -1.89921909E-01  3.28133206E-01 -2.52979218E-04 -6.03091222E-02  1.27231782E-01
 -2.19868632E-01 -9.58477262E-05  2.82839115E-02 -6.15372723E-06  1.01868745E-05
  3.04423942E-02  5.29889726E-02 -1.08696933E+00  1.13778370E+00  5.52544248E-02
  5.61695856E-05 -6.46056788E-05 -1.36670309E-01 -1.52137058E-01 -1.54653130E-04
  1.46374319E-04 -1.33939371E-02  3.78381931E-01  3.84749533E-04 -2.64548362E-04
 -6.03555499E-02 -2.53430481E-01 -2.57773270E-04 -8.80733874E-05  2.84575704E-02
  1.53251740E-05  1.55884216E-08 -6.14483737E-02 -1.24975327E-04  4.85436438E-05
 -5.57600440E-05 -8.34078361E-05  4.20252837E-07  3.23523784E-08  5.52495032E-05
 -3.15851660E-02 -1.01338155E-04  5.86959098E-07 -4.17168844E-05  2.66500639E-01
  8.41071137E-04 -5.40079308E-06  2.56432249E-06 -1.50924738E-02 -4.78090344E-05
  3.46963575E-07  2.15684152E-05  2.75117678E-06  9.00054552E-09  4.61127162E-03
  2.41103741E-07  8.62994206E-01 -9.25126872E-01 -1.45598030E-02  6.35045787E-02
 -3.09991634E-06  2.36737244E-01  3.33863930E-02 -1.46948138E-01  7.17106266E-06
 -1.62322046E-01 -4.95172190E-02  2.57536359E-01 -1.20802750E-05 -1.74155147E-02
 -7.55642878E-02 -1.94175772E-01  8.34743831E-06  2.18290781E-03  6.98052727E-07
 -2.78195995E-07 -3.31025757E-03 -4.00644421E-03  8.56631080E-01 -9.18305609E-01
 -1.47024094E-02 -6.32831125E-02 -3.06944045E-06  2.34991261E-01  3.37164284E-02
  1.46433665E-01  7.10059597E-06 -1.61123842E-01 -5.00939482E-02 -2.56580936E-01
 -1.19619771E-05 -1.72871781E-02 -7.51302454E-02  1.92745068E-01  8.28073140E-06
  2.16639412E-03  6.98773740E-07  2.80395677E-07 -3.34400134E-03  3.98675854E-03
 -1.71956621E+00  1.84336943E+00  9.52108976E-02 -1.27259796E-05  4.76711374E-06
 -4.71706331E-01 -2.20626217E-01  2.84784104E-05 -1.10090625E-05  3.23474457E-01
  3.95611787E-01 -2.15615578E-05  1.77542388E-05  3.46644209E-02 -4.10539213E-01
 -3.39566790E-04 -5.04887739E-06 -4.34338173E-03 -2.96577600E-07  1.08539143E-09
  3.58018673E-03  1.93466780E-05 -4.76497862E-08  5.67480192E-08  4.06659491E-07
  8.77817530E-05  1.99702963E-11 -1.52069496E-08  9.92433061E-05 -3.20216544E-02
 -1.50531349E-09 -4.70468374E-08 -8.40306507E-04  2.66683500E-01  1.23861137E-08
  1.49215830E-08  4.75117633E-05 -1.51348567E-02 -6.60159547E-10  2.48175463E-08
 -8.87860204E-09  2.92395940E-06 -1.17310534E-06 -4.43752423E-03  1.48728444E+00
 -1.59436764E+00  6.34554860E-02  5.86158163E-02 -7.16764868E-06  4.08056124E-01
 -1.46840091E-01 -1.35950800E-01  1.65726383E-05 -2.79930816E-01  2.57094586E-01
  2.46881977E-01 -2.78507996E-05 -2.99943691E-02 -1.93097572E-01 -2.98665106E-01
  1.57368058E-05  3.81295617E-03 -3.04038297E-07  1.74414707E-07  4.05786545E-03
 -1.34772173E-03 -1.49095860E+00  1.59830633E+00 -6.35122313E-02  5.87574222E-02
  7.18094332E-06 -4.09063915E-01  1.46973330E-01 -1.36278442E-01 -1.66033951E-05
  2.80621642E-01 -2.57384508E-01  2.47457286E-01  2.79026914E-05  3.00684586E-02
  1.94027465E-01 -2.99098080E-01 -1.57734751E-05 -3.82213373E-03  3.00699931E-07
  1.73872642E-07 -4.03799082E-03 -1.38104992E-03  3.67435594E-03 -3.93889859E-03
 -1.50980909E-04 -5.12555851E-02 -1.02971895E-08  1.00783883E-03  3.50312006E-04
  1.18298535E-01  2.37784130E-08 -6.90834836E-04 -6.43144334E-04 -1.98315577E-01
 -3.84049823E-08 -7.40900867E-05  8.39796590E-04  3.64347945E-02  1.07672433E-08
  9.16431902E-06  8.74851712E-12  6.44865839E-07 -1.89189658E-05  5.64214438E-03
 -8.40302744E-04  1.04530905E-03 -8.34737382E-01  6.01514456E-04  1.74561251E-05
 -3.45080765E-04  1.97425924E+00 -1.42265726E-03 -4.13031836E-05 -4.93971654E-04
 -5.19012432E-01  3.74104106E-04  1.13410940E-05  3.69418357E-04  3.28124797E-02
 -2.37087513E-05 -5.75875220E-07  5.22837907E-04  5.39868659E-05 -1.02266957E-07
  8.58878779E-01  3.23921620E-03  1.54583501E-01 -1.81781260E-01 -1.55258708E-01
 -2.55832600E-01  1.39204291E-05 -7.44140936E-03  3.89967780E-01  6.34433644E-01
 -3.46643307E-05  3.46283903E-01 -1.08137964E-01 -2.31421275E-01  4.17974953E-06
  7.69812525E-02  2.53562738E-01  1.94430692E-01 -1.37684907E-06 -1.38727354E-01
 -1.80155686E-05 -2.10751351E-05 -1.15922357E-01  2.31654308E-01  1.55512137E-01
 -1.82873182E-01 -1.56670971E-01  2.57084919E-01  1.40046202E-05 -7.49024908E-03
  3.93469640E-01 -6.37545831E-01 -3.48732838E-05  3.48377145E-01 -1.09415500E-01
  2.32506055E-01  4.21031038E-06  7.74457118E-02  2.54636956E-01 -1.95577225E-01
 -1.36776518E-06 -1.39564209E-01 -1.81292309E-05  2.11863961E-05 -1.15784185E-01
 -2.33460627E-01 -3.07850642E-01  3.61966954E-01 -5.99373235E-01 -5.95710064E-04
 -9.14201828E-06  1.68293955E-02  1.49097107E+00  1.47340802E-03  2.26246477E-05
 -6.95917164E-01 -5.09270272E-01 -5.61204190E-04  6.02226362E-06 -1.54316538E-01
  5.90917623E-01  3.54605497E-04 -2.02438519E-05  2.77960216E-01 -2.28962436E-05
 -1.33626739E-08 -5.18239010E-01 -1.02209857E-03 -4.42438260E-06  5.50713190E-06
 -6.01829340E-04 -8.35005901E-01  2.93785949E-08 -1.83485204E-06  1.42398364E-03
  1.97570024E+00 -6.96038282E-08 -2.51991836E-06 -3.74122102E-04 -5.19215943E-01
  2.07838596E-08  1.85672927E-06  2.32895897E-05  3.24020836E-02 -5.69814303E-10
  2.75464284E-06  1.27863978E-09  8.96606120E-05  3.24157306E-03 -8.59631083E-01
  2.67631910E-01 -3.14885539E-01 -2.56067327E-01 -4.52324821E-01  2.39910029E-05
 -1.31208388E-02  6.35171435E-01  1.12692569E+00 -5.95691584E-05  6.02485976E-01
 -2.31207704E-01 -3.75947614E-01  8.52931572E-06  1.33996070E-01  1.94539089E-01
  4.79061694E-01  2.85671681E-06 -2.41249726E-01 -2.01180838E-05 -4.23179119E-05
 -2.33580902E-01  3.84445871E-01 -2.67087750E-01  3.14245138E-01  2.56442832E-01
 -4.50911027E-01 -2.39442986E-05  1.31011203E-02 -6.36095174E-01  1.12341772E+00
  5.94527244E-05 -6.01282716E-01  2.31592136E-01 -3.74669453E-01 -8.51758407E-06
 -1.33727161E-01 -1.94627831E-01  4.77987251E-01 -2.86021260E-06  2.40765048E-01
  2.01424002E-05 -4.22055398E-05  2.31613723E-01  3.84582186E-01 -5.32588768E-04
  6.26545395E-04 -1.03229851E-03 -7.92114625E-03 -1.60464704E-08  2.95143024E-05
  2.56354182E-03  2.45636935E-02  3.97118968E-08 -1.20955070E-03 -9.07494386E-04
  2.51396317E-02  9.75449702E-09 -2.68444766E-04  8.80808798E-04  1.41761984E-01
 -3.51934123E-08  4.82944435E-04 -3.39783122E-08 -5.67621311E-06 -8.63138397E-04
 -1.84478160E-02  7.26824285E-01 -9.97955610E-01  2.96539486E-04  1.32896941E-06
  8.62521293E-05  1.39802615E+00 -7.75832031E-04 -3.46832763E-06 -2.00315999E-04
 -1.17055238E+00  1.76020271E-04  9.11661612E-07  4.93415778E-04  9.64511282E-01
  1.52170347E-04  6.54409370E-07  1.93352297E-05 -2.95401442E-02 -1.08886659E-06
 -1.14259609E-09 -3.10501630E-04  3.70839142E-07  4.07522431E-01 -5.36092915E-01
 -9.43417232E-03 -1.64036043E-02 -4.51799821E-05  6.86848975E-01  5.09318635E-02
  8.84789636E-02  1.07231690E-04 -1.09482677E+00 -1.88762261E-01 -3.27708041E-01
 -2.15095751E-04  1.72474503E-01  2.08680968E-01  3.62609686E-01 -1.83994834E-05
  3.64066174E-02 -4.54473439E-06 -6.61506022E-06  4.93878877E-02 -8.51937667E-02
  4.07523283E-01 -5.36094015E-01 -9.46826625E-03  1.63857214E-02 -4.51797700E-05
  6.86849359E-01  5.11135676E-02 -8.83785520E-02  1.07230999E-04 -1.09482576E+00
 -1.89428692E-01  3.27324138E-01 -2.15094230E-04  1.72475233E-01  2.09418073E-01
 -3.62185926E-01 -1.84007842E-05  3.64057378E-02 -4.55797739E-06  6.60559128E-06
  4.90401534E-02  8.53925427E-02  4.07757602E-01 -5.36396858E-01  1.93282109E-02
  1.96704005E-05 -4.57415644E-05  6.86978094E-01 -1.03109629E-01 -1.04900107E-04
  1.10340964E-04 -1.09457324E+00  3.78451790E-01  3.84818736E-04 -2.26770929E-04
  1.72646119E-01 -4.18693786E-01 -4.26326634E-04 -5.40607226E-06  3.61919190E-02
  1.30535175E-05  1.33376317E-08 -9.80662218E-02 -1.99417525E-04  7.51355305E-11
 -1.18003026E-10 -4.65813865E-07  1.37334713E-04  7.00545362E-12  2.30398801E-10
  1.29593109E-06 -3.86422793E-04 -1.94033137E-11 -1.11593585E-10 -9.15808004E-07
  2.90270941E-04  1.34057320E-11  9.74023589E-11  1.29739218E-06 -4.27610882E-04
 -1.86400691E-11 -2.03897611E-11  2.10143243E-11 -8.57391739E-09  8.69774772E-08
  9.50943716E-05  6.55126435E-07 -2.15275727E-06 -2.23888350E-01  1.28990727E-01
  4.63444845E-06  4.24956035E-05  5.90000105E-01 -3.39926333E-01 -1.22132654E-05
 -1.21359560E-04 -1.05021699E+00  6.04873829E-01  2.17499200E-05  4.06255887E-05
  1.63155208E+00 -9.39414996E-01 -3.37926667E-05  2.60767005E-05  3.78710513E-07
  2.24329627E-07 -1.80622172E-02 -1.05529574E-02 -6.42752037E-07  2.13668309E-06
  2.23625523E-01  1.29445864E-01 -4.63397767E-06 -4.25786945E-05 -5.89307462E-01
 -3.41125731E-01  1.22120253E-05  1.21671196E-04  1.04898478E+00  6.07008317E-01
 -2.17477498E-05 -4.07091733E-05 -1.62963888E+00 -9.42730628E-01  3.37893159E-05
 -2.61575819E-05 -3.79215838E-07  2.23513196E-07  1.81048705E-02 -1.04795581E-02
 -1.23921747E-08  1.60994971E-08  2.62639734E-04 -2.58394265E-01 -4.67713358E-10
  8.30819417E-08 -6.92101925E-04  6.80925580E-01  1.23140183E-09 -3.11786882E-07
  1.23241706E-03 -1.21196235E+00 -2.17308720E-09  8.35548979E-08 -1.91517341E-03
  1.88281448E+00  3.37886080E-09  8.09192227E-08  4.64858887E-10 -4.32806513E-07
 -4.26955764E-05  2.09003569E-02 -4.57180143E-05  9.88801055E-05 -2.39910112E-01
 -6.67889826E-05  4.97342532E-06 -3.53093703E-04  8.64685711E-01  2.40760751E-04
 -1.79328363E-05  4.90503059E-05 -6.34541015E-01 -1.77139449E-04  1.31006008E-05
 -3.44774227E-04  4.14785988E+00  1.15256657E-03 -8.58356422E-05  3.80887510E-05
  1.67464098E-05 -1.39983380E-09  1.86933468E-01  5.18266638E-04 -2.88204768E-02
  7.04305439E-02  6.51399583E-02 -2.46191441E-02  3.65022981E-06 -3.41841726E-01
 -2.07115915E-01  5.80799399E-02 -1.03714471E-05  8.73208797E-01  6.67434636E-01
  1.46513174E-01  7.13260598E-06 -8.95176280E-01 -2.47300016E+00 -2.61942625E-01
 -1.88040372E-05 -4.63760578E-02 -4.53415234E-06 -8.74206889E-06 -4.93242312E-02
  7.87853860E-02 -2.88944388E-02  7.06112768E-02  6.50533199E-02  2.46971426E-02
  3.66386467E-06 -3.42718492E-01 -2.06911556E-01 -5.82932620E-02 -1.04109356E-05
  8.75447836E-01  6.67948077E-01 -1.46393018E-01  7.18122095E-06 -8.97471736E-01
 -2.47391453E+00  2.61016053E-01 -1.89746055E-05 -4.64947711E-02 -4.56456950E-06
  8.75545490E-06 -4.91195475E-02 -7.91928570E-02  5.77298716E-02 -1.41072896E-01
  2.24530381E-02 -3.57397506E-05 -1.04603214E-05  6.84579534E-01 -1.06540187E-01
  6.92910045E-05  3.15137094E-05 -1.74819055E+00  9.21228436E-01  5.06457966E-04
 -6.09704578E-05  1.79289324E+00 -2.92610818E+00 -1.26049782E-03  2.00783615E-04
  9.28153309E-02 -9.02632264E-06 -9.23072544E-09 -1.85888459E-01 -3.80804683E-04
 -1.91735785E-07  4.15624727E-07  6.65142483E-05 -2.39971287E-01  3.25706825E-09
 -1.53441932E-06 -2.39719104E-04  8.65005086E-01 -1.17707282E-08  5.74617919E-07
  1.75360475E-04 -6.34432754E-01  8.45697699E-09 -1.35752799E-06 -1.15212074E-03
  4.14883870E+00 -5.57380891E-08  9.21989505E-08 -1.28627930E-08  2.45087636E-05
  5.18657653E-04 -1.87043208E-01 -4.99821300E-02  1.22152542E-01 -2.46725596E-02
  3.65858841E-02  9.17911380E-06 -5.92987272E-01  5.82625995E-02 -1.39736358E-01
 -2.66271656E-05  1.51481614E+00  1.46001917E-01  8.37276353E-01  3.32758002E-05
 -1.55325641E+00 -2.60007717E-01 -2.77654617E+00 -1.16061449E-04 -8.05033267E-02
 -8.35536174E-06 -1.50456173E-05 -7.93213030E-02  1.40346904E-01  4.99395952E-02
 -1.22048569E-01  2.46941339E-02  3.66727049E-02 -9.17353474E-06  5.92481977E-01
 -5.82835416E-02 -1.39941777E-01  2.66111549E-05 -1.51352400E+00 -1.46717056E-01
  8.36762035E-01 -3.32620217E-05  1.55193253E+00  2.61996694E-01 -2.77562723E+00
  1.16023315E-04  8.04344317E-02  8.37967395E-06 -1.50164019E-05  7.86771409E-02
  1.40550979E-01  4.26239446E-05 -1.04166807E-04 -6.40932307E-05  7.92880195E-02
 -7.58233898E-09  5.05677095E-04  1.66006613E-04 -2.40476563E-01  2.28406613E-08
 -1.29123773E-03  8.79770702E-05  5.82844565E-01 -4.39521298E-08  1.32498665E-03
  1.98266621E-04 -2.32199736E+00  1.44162975E-07  6.86606649E-05 -6.80443099E-09
  1.29112972E-07 -1.44817195E-04  3.62201081E-03  1.29639214E-05 -3.00631130E-05
 -1.54508370E-06 -1.41606566E-09 -7.49756142E-02  1.20535410E-04  4.63302208E-06
  4.20434892E-09  2.25429034E-01 -1.69913169E-04 -2.24556987E-05 -2.10575777E-08
 -1.08402225E+00 -3.74673443E-04  1.24285423E-04  1.15213287E-07  6.00475638E+00
 -2.66344561E-05  2.63990312E-05  1.03813191E-07 -2.01146939E-09  1.96207485E-11
  7.57210993E-06 -1.91288543E-05  3.82221649E-06  1.96209234E-06  1.30058392E-01
  8.65956154E-05 -9.08521502E-06 -1.15172554E-06 -4.06877536E-01 -2.25704829E-04
  1.09295038E-05 -2.23843891E-05  1.15079636E+00  2.09300855E-04 -1.10124951E-05
  7.98943054E-05 -2.75692752E+00  3.62069739E-06  1.74222426E-02  3.02496102E-02
  2.92219843E-06 -3.78940588E-06  7.57210510E-06 -1.91288414E-05  3.82617995E-06
 -1.95475656E-06  1.30058291E-01  8.65955015E-05 -9.08747938E-06  1.13462420E-06
 -4.06877216E-01 -2.25704373E-04  1.08840358E-05  2.24023145E-05  1.15079526E+00
  2.09300941E-04 -1.08499508E-05 -7.99063488E-05 -2.75692488E+00  3.62046822E-06
  1.74837087E-02 -3.02141089E-02  2.90662193E-06  3.80112472E-06  7.57149410E-06
 -1.91271399E-05  4.43066606E-07  2.14996876E-10  1.30045105E-01  8.65741589E-05
 -7.14165777E-06 -6.52673996E-09 -4.06834193E-01 -2.25636140E-04  4.97022182E-05
  4.84935598E-08  1.15060293E+00  2.09291445E-04 -1.49312467E-04 -1.46731674E-07
 -2.75649335E+00  5.49156140E-06 -3.49030581E-02 -3.54992326E-05 -5.81093506E-06
 -1.17641973E-08 -6.17907434E-02  1.60345874E-01  5.57660072E-04  2.42157173E-06
  8.74595230E-07 -1.26194404E+00 -1.69088640E-03 -7.42166077E-06 -2.77247585E-06
  9.02276725E+00  3.46845508E-02  1.49194587E-04  4.17018100E-04  1.11010433E-01
 -6.71723278E-03 -2.86701309E-05  4.02743706E-05 -6.02140675E-01 -2.13290217E-05
 -1.86560636E-08  1.71137502E-03 -1.88717474E-06  2.98685604E-02 -8.06328960E-02
  4.39853890E-03  8.39898513E-03 -7.37554456E-06  5.24336834E-01 -1.20705327E-02
 -2.35617714E-02  2.31271140E-05 -2.84559830E+00 -9.05601282E-01 -1.55643136E+00
 -6.35064019E-06 -3.93705475E-01 -5.49395112E-02 -1.02612876E-01 -1.11826142E-05
  8.71328758E-02  3.14693804E-06  7.61758535E-06  1.07440191E-01 -1.87043893E-01
  2.98704713E-02 -8.06380320E-02  4.41373682E-03 -8.38956323E-03 -7.37514472E-06
  5.24364182E-01 -1.21113562E-02  2.35344664E-02  2.31257973E-05 -2.84574609E+00
 -9.08829864E-01  1.55464121E+00 -6.33731588E-06 -3.93725684E-01 -5.51434271E-02
  1.02520209E-01 -1.11826120E-05  8.71359154E-02  3.16376530E-06 -7.61256313E-06
  1.06677957E-01  1.87485018E-01  3.03814184E-02 -8.20118215E-02 -9.12021848E-03
 -1.06652921E-05 -6.99331741E-06  5.31694502E-01  2.48841470E-02  3.00636919E-05
  2.20337956E-05 -2.88508855E+00  1.82209390E+00  1.82372376E-03 -6.12227948E-05
 -3.98635749E-01  1.19905912E-01  1.35598030E-04 -1.48850721E-05  8.79673998E-02
  3.14060076E-06  3.53905483E-09 -2.16962825E-01 -4.37890916E-04  2.67982018E-04
 -7.05782331E-04  9.02398252E-02 -9.19925051E-04 -1.86874735E-06  5.85871381E-03
 -2.36265418E-01  2.40554302E-03  4.88513409E-06 -4.62608587E-02  7.43460484E+00
 -7.58614776E-02 -1.56186397E-04 -7.77653759E-04 -1.61510175E+00  1.64897411E-02
  3.32772173E-05  2.96667219E-03  6.70676490E-05 -8.63273029E-07  3.85576080E-01
  5.11313747E-03 -3.33257180E-02  9.04958892E-02 -5.75906025E-02  5.41366444E-02
 -5.45265634E-06 -5.01038746E-01  1.89290530E-01 -2.01611591E-01  1.71528658E-05
  2.84476314E+00 -6.73795912E-01  2.13153957E+00 -1.05121844E-04  2.90409980E-01
  8.40461848E-01 -1.78117872E-01 -9.74124475E-06 -6.20187439E-02  1.08442585E-05
 -1.90611763E-05 -2.11123079E-01 -1.27494157E-02 -3.46415227E-02  9.40689548E-02
 -5.62610084E-02 -5.43827217E-02 -5.74281266E-06 -5.20805320E-01  1.84333463E-01
  2.03047834E-01  1.80871435E-05  2.95697178E+00 -6.21271761E-01 -2.17381040E+00
 -1.10850349E-04  3.01837948E-01  8.36241116E-01  1.65474009E-01 -9.35792837E-06
 -6.44631745E-02  1.02752522E-05  1.94903591E-05 -2.10917417E-01  7.45158822E-03
  6.75614020E-02 -1.83460334E-01  3.72862255E-02  1.02825388E-03  1.28803629E-05
  1.01438940E+00 -1.64388962E-01 -3.57440429E-03 -3.98865580E-05 -5.75756440E+00
  3.05437972E+00  2.43145250E-02  1.79715073E-04 -5.86034298E-01  5.38779144E-01
 -9.97294690E-03 -2.66385592E-05  1.25267906E-01 -1.67845524E-05 -1.87761638E-07
 -1.90339276E-01 -2.82127513E-03  3.85325161E-06 -1.01552627E-05  9.20774630E-04
  9.01341955E-02 -2.08027536E-08  8.44614833E-05 -2.41056403E-03 -2.35674962E-01
  5.43410771E-08 -6.70159729E-04  7.58711918E-02  7.43399860E+00 -1.74635221E-06
 -9.51694720E-06 -1.64819559E-02 -1.61586436E+00  3.70375289E-07  4.28404552E-05
  6.67930695E-07  8.29450725E-05  5.11186349E-03 -3.85784515E-01 -5.90084141E-02
  1.60238171E-01  5.36706634E-02  6.46499362E-03 -1.29820309E-05 -8.86481807E-01
 -2.00358352E-01 -4.95222659E-02  4.17921265E-05  5.03245497E+00  2.13603446E+00
  1.85120039E+00 -2.56117103E-04  5.12418949E-01 -1.63707004E-01  6.37203215E-01
  1.69488847E-05 -1.09634179E-01 -2.34711801E-05 -1.83565239E-05  8.22337531E-03
  1.97731517E-01  5.82447856E-02 -1.58164522E-01 -5.49603131E-02  5.13726040E-03
  1.28566520E-05  8.74997931E-01  2.04647542E-01 -4.45710707E-02 -4.13975785E-05
 -4.96724877E+00 -2.15424840E+00  1.79847321E+00  2.53699856E-04 -5.05761738E-01
  1.81224281E-01  6.41406051E-01 -1.71609158E-05  1.08211948E-01  2.37456246E-05
 -1.78762671E-05 -1.37677224E-02  1.97907433E-01  7.57701736E-04 -2.05751807E-03
  5.08295776E-04 -8.82505442E-02  1.44495246E-07  1.13752840E-02 -2.15388767E-03
  3.03624130E-01 -4.47414211E-07 -6.45660998E-02  3.61697132E-02 -1.88988594E+00
  2.01442931E-06 -6.56902633E-03  5.09037890E-03  9.37548849E-01 -2.97258518E-07
  1.40447863E-03 -2.03496788E-07  1.52063299E-05 -2.57389326E-03  2.16904994E-01
 -4.44070454E-02  1.14562631E-01  1.06100234E-05  7.85334125E-08  4.42549029E-06
 -4.49577618E-01  2.10678386E-05 -2.18278966E-08 -1.96010764E-05  8.69846760E-01
  6.43326570E-04  8.81302609E-07 -1.03021960E-04  1.66756963E+01  2.01713100E-03
  1.34457086E-05  1.44645175E-03  1.09866266E-01  3.95582860E-06  3.69190872E-09
  5.40380507E-06  7.18069941E-08 -3.83198612E-02  1.09807546E-01 -1.22324314E-02
 -2.12533400E-02  1.63853713E-05 -5.86729133E-01  2.52607502E-02  4.39102290E-02
 -5.37735681E-05  2.06143651E+00  8.53780279E-02  1.48227390E-01  1.56629032E-04
 -7.40298181E+00 -8.22908359E-01 -1.42740354E+00 -4.32786540E-04 -3.32186072E-02
 -3.85991702E-07  9.86001546E-07 -5.72066172E-03  9.83851931E-03 -3.83199294E-02
  1.09807742E-01 -1.22755558E-02  2.12284363E-02  1.63854213E-05 -5.86730038E-01
  2.53497367E-02 -4.38587928E-02 -5.37736360E-05  2.06143954E+00  8.56797912E-02
 -1.48052943E-01  1.56628244E-04 -7.40299824E+00 -8.25813201E-01  1.42572787E+00
 -4.32780350E-04 -3.32185288E-02 -3.84010368E-07 -9.86569360E-07 -5.68053796E-03
 -9.86162281E-03 -3.83258089E-02  1.09825010E-01  2.45034728E-02  2.49865067E-05
  1.56211846E-05 -5.86766263E-01 -5.05928457E-02 -5.16814260E-05 -5.21919928E-05
  2.06114539E+00 -1.70734428E-01 -1.72920841E-04  1.61928329E-04 -7.40525649E+00
  1.64806955E+00  1.67298693E-03 -4.83869957E-04 -3.31880205E-02 -2.80778277E-06
 -2.76890294E-09  1.13317384E-02  2.30336956E-05 -2.68902314E-05  6.69506678E-05
 -1.77491569E-01  2.99102105E-04  3.67617022E-06 -2.92297983E-04  6.21080437E-01
 -1.04666877E-03 -1.28674314E-05  2.22533377E-03 -2.46256744E+00  4.14934995E-03
  5.10784804E-05  2.78672158E-03 -1.32893054E+01  2.23886509E-02  2.75505702E-04
 -1.74200643E-05 -7.45008787E-06  8.49751287E-09  3.55317539E-02  1.68355539E-04
 -1.70221723E-02  4.97383885E-02 -8.25569201E-02 -2.36020742E-02  5.91040736E-07
 -2.81796422E-01  2.76273886E-01  7.62094157E-02 -1.32657191E-06  8.45615653E-01
 -6.50620531E-01 -3.66645212E-01  6.40217116E-06 -8.96247674E+00  1.54899936E+00
 -2.48540586E+00  1.95066575E-04 -8.41025685E-04 -8.55079155E-06  4.80518942E-06
  1.59888430E-02  2.77812963E-02 -1.71822362E-02  5.02060842E-02 -8.27340175E-02
  2.40291063E-02  5.83242416E-07 -2.84446257E-01  2.76845747E-01 -7.76210094E-02
 -1.29402329E-06  8.53570214E-01 -6.53362534E-01  3.71141481E-01  6.37789131E-06
 -9.04674225E+00  1.53047126E+00  2.49575825E+00  1.97489938E-04 -8.48859505E-04
 -8.50918875E-06 -4.81022405E-06  1.59517492E-02 -2.78036870E-02  3.42118468E-02
 -9.99622428E-02 -1.23849307E-01  6.01952928E-05  4.82401360E-06  5.66328007E-01
  4.09561325E-01 -2.10714606E-04 -1.73528576E-05 -1.70029424E+00 -1.28984876E+00
 -1.25569146E-04  4.10503531E-05  1.80053052E+01 -2.77492003E+00 -1.08655052E-02
 -3.98761927E-04  1.66855750E-03  1.88807080E-06  3.06441267E-08 -3.21725387E-02
  2.11417295E-05  1.99270520E-07 -5.00782598E-07  2.99088270E-04  1.77532754E-01
 -9.61002758E-09  2.29509789E-06 -1.04661469E-03 -6.21277451E-01  3.36546391E-08
 -1.63709316E-05  4.15065167E-03  2.46345974E+00 -1.33838895E-07 -2.34344942E-05
  2.23923879E-02  1.32881159E+01 -7.21425018E-07  1.35583811E-07  1.41187014E-08
  5.96902816E-06 -1.68442361E-04  3.55911482E-02  2.96597636E-02 -8.66657146E-02
  2.39396300E-02  1.10243707E-01  1.45481708E-06  4.91059971E-01 -7.73381745E-02
 -3.65709919E-01 -6.06068607E-06 -1.47383191E+00  3.69546231E-01  1.07916444E+00
  4.68489507E-06  1.56207006E+01  2.48557547E+00  1.34597783E+00 -4.47388600E-04
  1.46236471E-03 -5.88674700E-06  2.27179121E-06  2.78095542E-02 -1.61956651E-02
 -2.95673731E-02  8.63957371E-02 -2.37169803E-02  1.10066337E-01 -1.45762749E-06
 -4.89530320E-01  7.65865118E-02 -3.65136825E-01  6.06657639E-06  1.46924467E+00
 -3.68213334E-01  1.07641666E+00 -4.71596177E-06 -1.55720235E+01 -2.49661182E+00
  1.32745586E+00  4.46332782E-04 -1.45776433E-03  5.92814200E-06  2.30987555E-06
 -2.78301437E-02 -1.61585384E-02 -9.24025934E-05  2.69989066E-04  2.64576524E-04
  6.88851484E-02 -1.29141196E-08 -1.52973274E-03 -8.70592817E-04 -2.32111841E-01
  4.64806720E-08  4.59288508E-03  3.03823224E-03  4.38837820E-01 -1.10146089E-07
 -4.86440818E-02  1.05249307E-02 -2.97693745E+00  1.07222352E-06 -4.53888364E-06
 -1.58380815E-08  1.06139847E-05  2.18362358E-05  3.20591081E-02
Total SCF Density                          R   N=        3916
  6.49783975E-01  5.64107235E-01  5.05013286E-01 -7.57994215E-07 -1.87947213E-06
  1.04511631E-01 -3.24562721E-09 -8.00092799E-09  3.20915113E-09  1.04519257E-01
  5.54397307E-07  9.08896841E-07 -8.90387273E-08 -8.68165365E-11  1.00265147E-01
 -1.18893804E-01 -2.01041959E-01  3.37448189E-06  1.18634416E-08 -3.03292381E-06
  6.48616995E-01 -4.95842803E-06 -7.79823635E-06  1.62044004E-01 -5.96388346E-09
 -1.27367931E-07  1.56488454E-05  2.51342392E-01 -2.13795491E-08 -3.37400961E-08
 -4.58262715E-09  1.62044173E-01 -1.23814458E-10  6.48613718E-08 -2.38280301E-08
  2.51324750E-01  8.44302113E-07  1.31807844E-06 -1.27199547E-07 -1.22252606E-10
  1.55957592E-01 -4.17719103E-06 -1.82573829E-07 -1.74594448E-10  2.42584501E-01
 -9.99065910E-02 -1.51802170E-01  5.48849291E-05  2.51622991E-07 -1.92738043E-06
  4.41189039E-01  8.94043346E-05  4.09367598E-07 -2.45567946E-06  3.43882892E-01
 -5.42617005E-06 -8.88461971E-06  7.60247790E-02 -3.07413183E-08  6.16333382E-07
  2.49366110E-05  1.17839754E-01 -4.92547888E-08  9.67313296E-07  2.74788801E-05
  1.04823861E-01 -2.82702280E-08 -4.57864542E-08 -1.31891780E-08  7.59973507E-02
  5.83344895E-10  1.25445691E-07 -3.09102699E-08  1.17792156E-01  9.15386934E-10
  1.41945999E-07  2.38389558E-08  1.04822869E-01  9.08848387E-07  1.61507800E-06
  6.14894825E-07  5.75855761E-10  1.05662598E-01 -5.46896845E-06  9.65346656E-07
  9.04404476E-10  1.64353066E-01 -2.17484942E-06  1.35937062E-07  1.31269503E-10
  1.11350607E-01 -3.37279102E-02 -4.70737437E-02  2.23129361E-05  9.88607547E-08
  8.03098499E-06  1.17002522E-01  3.82986398E-05  1.68807122E-07  1.24942776E-05
  5.68232621E-02  2.21575083E-05  1.22271492E-07  7.30256131E-06  3.40560137E-02
 -2.00192869E-06 -4.05610858E-06  1.27475247E-02 -2.44543990E-08  1.22710372E-07
  1.75927067E-05  1.78419102E-02 -3.63332987E-08  2.31753827E-07 -8.49615801E-06
  5.22134274E-02  2.06162988E-08 -6.78763700E-07  2.83932359E-06  7.87935459E-02
  1.51812692E-09 -3.96794001E-09 -8.38933967E-09  1.27347162E-02  1.14712467E-10
  4.04500416E-08 -2.03753764E-08  1.78222355E-02  2.14707737E-10 -6.54397644E-08
  7.72238468E-08  5.22353824E-02 -6.47845549E-10  4.59589952E-08  8.54292295E-08
  7.88091747E-02 -5.52062476E-07 -6.66439259E-07  1.18814614E-07  1.13064522E-10
  1.84362253E-02  1.09777268E-06  2.26216344E-07  2.15092761E-10  2.86766579E-02
 -4.32199902E-07 -6.79107213E-07 -6.35690406E-10  1.94286830E-02  2.44727243E-06
 -1.56403747E-06 -1.46926973E-09  3.38995776E-03  3.04941719E-03  5.29408111E-03
  2.22206920E-06  8.91488570E-09  1.14637348E-06 -1.70719122E-02  2.94499404E-06
  1.16200235E-08  1.78218944E-06 -8.36681441E-03  1.36524557E-06  3.50303061E-09
  1.37271603E-06 -4.81358611E-03  1.82660225E-07 -4.38561453E-10  7.59808366E-08
  6.92761520E-04  1.09438121E-07  1.90056397E-07  1.06640099E-06 -4.94945159E-10
 -7.99965425E-06 -6.13156724E-07  1.73772480E-06 -7.75954324E-10 -1.22766387E-05
 -2.98985602E-07 -6.96675269E-07  4.49285106E-10 -3.82442769E-06 -1.72377569E-07
 -3.19437519E-06  7.99883407E-10  1.60271744E-06 -1.42796331E-07  4.66456669E-03
  1.01609412E-10  1.76811609E-10 -4.94967192E-10  1.53374082E-06 -3.27068119E-08
 -5.72165533E-10 -7.76340208E-10  2.47006019E-06 -5.00759184E-08 -2.71015635E-10
  4.52496641E-10 -1.12288684E-06 -1.31318756E-08 -1.56016472E-10  8.11935424E-10
 -3.95981540E-06  9.44738684E-09 -1.33779376E-10  2.36674916E-09  4.66659876E-03
 -5.91065460E-07 -2.66108449E-07  1.12603282E-02  3.43856419E-05 -2.33778855E-07
 -2.71509267E-06  1.76534819E-02  5.38968487E-05 -3.66358803E-07  1.22166637E-05
 -1.02916578E-02 -3.13957445E-05  2.13251857E-07  2.81357396E-06 -1.84565633E-02
 -5.63107969E-05  3.82457069E-07  1.76916233E-08 -1.11540236E-07 -2.55465352E-11
  8.47347014E-03 -2.62178808E-11 -1.24591128E-09  3.43448296E-05 -1.12709956E-02
 -4.94920344E-10  8.42727445E-09  5.38446738E-05 -1.76674237E-02 -7.76368832E-10
 -1.66687984E-08 -3.13822025E-05  1.02911126E-02  4.51960485E-10  8.02584085E-09
 -5.62963552E-05  1.84541137E-02  8.10469296E-10 -8.19325083E-10 -1.73008103E-10
 -4.64283385E-08  7.68327997E-09  8.47156149E-03  1.31568969E-03  1.79059298E-03
  4.20974982E-03  7.30724944E-03 -5.83080698E-07 -1.21351659E-03  6.48504259E-03
  1.12569116E-02 -8.48862666E-07  2.18735233E-02 -7.26948515E-03 -1.26219150E-02
  4.66134559E-07 -2.04811768E-02  8.23362520E-03  1.42937018E-02 -1.26479145E-06
  1.71924494E-03  2.09787918E-07  4.65434940E-07  2.90414149E-03 -5.00730057E-03
  6.39855335E-01  1.92709128E-03  2.56011259E-03  6.69993531E-03  1.16296820E-02
 -9.42363141E-07 -1.12632492E-03  9.91954877E-03  1.72181273E-02 -1.34133182E-06
  3.45337198E-02 -1.06088611E-02 -1.84207626E-02  6.04745630E-07 -2.60167805E-02
  1.06324623E-02  1.84580853E-02 -1.67181448E-06  2.66655731E-03  3.25495452E-07
  7.18305596E-07  4.45185392E-03 -7.67564149E-03  5.69304494E-01  5.23764617E-01
 -1.07625201E-02 -1.73312239E-02 -1.08230023E-02 -4.08409597E-02  3.26862348E-06
  5.39504809E-02 -1.81177782E-02 -6.32625296E-02  5.17886977E-06  4.24452628E-02
  4.43529722E-02 -5.40223383E-02  2.28522833E-06  6.66086105E-03  7.12109664E-02
 -2.70021952E-02 -9.39608105E-07 -9.87543250E-04 -6.65849992E-09 -1.51635370E-06
 -2.32364933E-02 -4.83382396E-03  5.97037998E-03  9.23825777E-03  1.62083786E-01
 -1.86800081E-02 -3.00810918E-02 -4.08368757E-02 -5.82006712E-02  4.47448788E-06
  9.36361709E-02 -6.32583520E-02 -9.15024798E-02  7.07312717E-06  7.37209725E-02
 -5.40258869E-02 -1.82967534E-02  4.93696326E-06  1.15592183E-02 -2.70017715E-02
  3.98977062E-02  1.18352763E-06 -1.71558303E-03 -1.34332613E-06 -1.94514843E-06
  4.71104797E-03  1.77417009E-02  1.03630458E-02  1.60351669E-02 -3.37645101E-02
  1.22933580E-01  1.66657058E-06  2.68443347E-06  3.40655837E-06  4.71484617E-06
  4.60028725E-02 -8.32378708E-06  5.07155873E-06  6.88775968E-06  7.15548137E-02
 -5.60764495E-06  6.36038335E-06  1.20070679E-05  4.84673324E-02  2.43307031E-06
  8.80774630E-06  1.81056567E-05  8.45078064E-03  1.14060947E-06 -1.20158760E-02
 -2.08639652E-02  9.37443687E-07 -1.54745587E-06 -9.67548170E-07 -1.50668205E-06
  1.78263822E-06  4.39777111E-06  1.45321373E-01 -3.95531100E-03 -5.03886427E-03
 -2.00645655E-02 -3.48276649E-02  2.93676618E-06 -2.69770119E-03 -2.84233031E-02
 -4.93342480E-02  4.09735435E-06 -1.01307000E-01  2.77066282E-02  4.81117074E-02
 -1.12959078E-06  5.25800152E-02 -2.14418688E-02 -3.72238495E-02  3.68917680E-06
 -7.40316008E-03 -9.12476485E-07 -2.03402356E-06 -1.27013265E-02  2.18976024E-02
 -1.35240149E-01 -2.28328189E-01 -2.51632606E-02 -4.36761090E-02  4.29396451E-06
  7.05559060E-01 -1.64964969E-02 -2.61028203E-02 -1.51379468E-02 -5.97375174E-02
  4.89056969E-06  7.95319702E-02 -2.53864808E-02 -9.25006204E-02  7.74095792E-06
  6.14692654E-02  6.51162213E-02 -7.86551669E-02  3.43171688E-06  1.04489931E-02
  1.03161279E-01 -3.98965048E-02 -1.29851255E-06 -1.53990149E-03 -3.97563764E-08
 -2.17996185E-06 -3.37341956E-02 -7.00210637E-03  6.53897751E-03  1.07549131E-02
  2.36348991E-01 -5.02102804E-02  2.56882979E-06 -3.13206459E-02  3.44710069E-01
 -2.86320788E-02 -4.53053411E-02 -5.97313011E-02 -8.44361590E-02  6.70101532E-06
  1.38034479E-01 -9.24940653E-02 -1.32686876E-01  1.05814778E-05  1.06761494E-01
 -7.86590392E-02 -2.61001464E-02  7.31509919E-06  1.81330345E-02 -3.98944639E-02
  5.68948923E-02  1.82438063E-06 -2.67502602E-03 -1.93130395E-06 -2.81942201E-06
  6.82343474E-03  2.57750482E-02  1.13494051E-02  1.86667496E-02 -5.02099126E-02
  1.78128925E-01  6.34292823E-06 -5.43607403E-02 -7.45544268E-02  2.58260574E-01
  2.55472209E-06  4.06773467E-06  5.05587096E-06  6.98934215E-06  6.89225001E-02
 -1.24339172E-05  7.52941037E-06  1.02156556E-05  1.07204989E-01 -8.23539529E-06
  9.41031567E-06  1.76877113E-05  7.26152688E-02  3.57099349E-06  1.29783234E-05
  2.66101295E-05  1.26614508E-02  1.70193463E-06 -1.75388413E-02 -3.04537892E-02
  1.34723717E-06 -2.22999819E-06 -1.14420512E-06 -1.89323483E-06  2.65215006E-06
  6.48765810E-06  2.12930424E-01  5.79610222E-06  3.81856238E-06  9.35065238E-06
  3.12020650E-01  1.74212889E-02  2.95950161E-02  1.24469756E-02  2.16188760E-02
 -1.06429212E-06 -1.08746971E-01  2.15863006E-02  3.74902310E-02 -2.17473670E-06
 -1.67097382E-01  5.81159797E-02  1.00906427E-01 -4.69215721E-06  3.03481384E-02
 -4.15808275E-03 -7.21447667E-03  2.28306015E-06 -4.13089640E-03 -7.45478068E-07
 -1.92833539E-06 -1.24388837E-02  2.14390414E-02 -1.49106485E-01 -2.30494309E-01
 -5.22935170E-02 -9.07749623E-02  1.08683923E-05  6.45215644E-01 -7.13542577E-02
 -1.23859509E-01  1.55287994E-05  6.54535029E-01 -6.07038770E-03 -9.78916652E-03
 -1.28864241E-02 -2.99537876E-02  2.62386574E-06  3.07333986E-02 -2.17756254E-02
 -4.63396758E-02  4.16202172E-06  2.56672713E-02  5.88167071E-02 -4.52770524E-02
  1.31048433E-06  2.99784774E-03  9.41642690E-02 -2.59840040E-02 -1.57331865E-06
 -4.48584818E-04  6.30935550E-08 -2.16898723E-06 -3.03054556E-02 -5.81906662E-03
  3.70262502E-03  6.84108215E-03  1.99570791E-01 -6.28648535E-02  5.06820914E-06
 -2.19555634E-02  2.91082281E-01 -9.28007800E-02  7.47682387E-06 -3.62994031E-02
  2.54422635E-01 -1.05347857E-02 -1.69885233E-02 -2.99498621E-02 -4.76324789E-02
  3.03495645E-06  5.33302067E-02 -4.63352082E-02 -7.55247119E-02  4.79407499E-06
  4.46153662E-02 -4.52832833E-02  6.31919031E-03  3.56238613E-06  5.20500962E-03
 -2.59863382E-02  6.40357543E-02  8.83755340E-07 -7.79949050E-04 -1.83208175E-06
 -2.64960833E-06  5.65502762E-03  2.36993865E-02  6.42522899E-03  1.18720117E-02
 -6.28666716E-02  1.26670625E-01  1.02833299E-05 -3.81023691E-02 -9.28040156E-02
  1.83466364E-01  1.51312598E-05 -6.30049493E-02 -9.40704475E-02  1.45334528E-01
  1.22033867E-06  1.94273944E-06  3.03400955E-06  3.74760989E-06  4.65662992E-02
 -5.96823523E-06  4.40508007E-06  5.21658789E-06  7.24310264E-02 -3.97218266E-06
  7.14412798E-06  1.36832489E-05  4.90563748E-02  2.88777123E-06  1.18361244E-05
  2.41631386E-05  8.55123215E-03  1.25755356E-06 -1.67526166E-02 -2.90899525E-02
  1.28568855E-06 -2.21440588E-06 -7.89382513E-07 -1.37652335E-06  3.81602682E-06
  8.10843825E-06  1.94555473E-01  4.41350509E-06  5.49131635E-06  1.16826769E-05
  2.84804146E-01  1.11537206E-05  7.95791434E-06  1.54545830E-05  2.63102926E-01
  2.35259995E-02  3.39259692E-02  3.03178711E-02  5.26435706E-02 -5.34477872E-06
 -9.05068912E-02  4.60401267E-02  7.99428495E-02 -8.35628979E-06 -5.94719845E-02
  5.21865177E-02  9.06546316E-02 -5.66184321E-06 -1.78667172E-02  5.00112798E-02
  8.68692983E-02 -2.21367127E-06  2.55474941E-03 -1.30136435E-06 -3.13148532E-06
 -9.94969933E-03  1.71520432E-02  2.48323029E-02  2.75446972E-02 -1.19725712E-02
 -2.07324899E-02  2.22732419E-05 -3.70073576E-02 -1.83087521E-02 -3.17069631E-02
  3.27758701E-05  4.71612793E-02  1.04875850E-02  1.82699623E-02  2.82455944E-05
  1.62888035E-01  2.49104686E-03  3.27279899E-03 -2.06540965E-03  3.52397729E-03
 -2.08861924E-07 -7.24914896E-03 -3.49321207E-03  5.18612321E-03 -3.15544380E-07
 -2.64847695E-03  1.09521044E-02  3.30816408E-03 -3.91433339E-07 -2.59131779E-03
  1.64203606E-02  6.93614147E-03 -4.71688321E-07  3.65249589E-04  4.40603335E-07
 -8.49750803E-07 -5.43169706E-03  4.35378511E-04  5.22146410E-03  7.20590746E-03
  3.89459931E-02 -1.74177089E-02  2.40771129E-06 -1.67441313E-02  5.67933223E-02
 -2.59389222E-02  3.55576260E-06 -9.07638477E-03  5.39236590E-02 -2.06531760E-02
  3.21132735E-06  1.87907140E-02  1.56690029E-02  4.32249260E-03  5.67844790E-03
  3.52365670E-03  2.02731270E-03 -4.04341786E-07 -1.25760443E-02  5.18571663E-03
  2.53126533E-03 -6.16607140E-07 -4.57798599E-03  3.29939587E-03  1.47981676E-02
 -2.43721418E-07 -4.49488398E-03  6.92897541E-03  2.44730628E-02 -3.53334619E-07
  6.33741302E-04 -6.33699963E-07 -4.81015239E-07 -4.70684865E-04  5.95541758E-03
  9.06349882E-03  1.25079522E-02 -1.74267385E-02  1.87538066E-02  4.18784954E-06
 -2.90632126E-02 -2.59521117E-02  2.67225838E-02  6.19515231E-06 -1.57534973E-02
 -2.06644919E-02  2.99814198E-02  5.47892968E-06  3.26298094E-02 -2.54759938E-03
  1.27202970E-02 -2.31018842E-07 -3.33572105E-07 -2.16576665E-07 -4.19324954E-07
 -2.89264669E-03  9.30167460E-07 -4.08877681E-07 -7.80896701E-07 -4.49954646E-03
  8.47335156E-07  8.98862448E-07  1.99315029E-06 -3.05318438E-03 -1.98238539E-07
  2.72191065E-06  5.19016293E-06 -5.35104280E-04  1.35416241E-07 -4.84369484E-03
 -8.41079366E-03  4.18849085E-07 -8.84102219E-07 -6.00095754E-07 -8.44918469E-07
  1.39090850E-06  2.42370651E-06  4.87508084E-02  2.02130650E-06  1.99697371E-06
  3.49054612E-06  7.11071043E-02  2.56697398E-06  2.30887070E-06  3.91418905E-06
  6.84793941E-02  5.67725453E-06  6.50122294E-07  1.01583470E-06  2.02727321E-02
  2.17279438E-03  3.18780972E-03  2.34413292E-03  4.06981819E-03 -9.66142897E-07
 -8.74634822E-03  3.64166125E-03  6.32236334E-03 -1.51015008E-06 -6.02782357E-03
  1.83508834E-03  3.18516045E-03 -9.76315084E-07 -1.55442584E-03  2.44744940E-04
  4.24698670E-04 -1.94569067E-07  2.25504456E-04  1.14630127E-07  2.13371230E-07
  2.19811688E-04 -3.79327833E-04  2.01970189E-05  6.60770600E-05 -2.64193447E-03
 -4.58664662E-03 -9.96770582E-07 -3.21233998E-04 -3.84716525E-03 -6.67900216E-03
 -1.46333491E-06  3.98339950E-03 -1.93289480E-03 -3.35578894E-03 -1.44503746E-06
  3.95991947E-03  1.60738661E-04  2.78946520E-04 -3.70831535E-07  3.33351446E-04
  2.58661770E-07  3.84894375E-07  1.47655325E-07  6.38357248E-07  4.03682225E-03
 -1.07777732E-06  2.28169052E-07  9.71087397E-07  6.27907302E-03 -6.95062729E-07
 -1.29415113E-08  9.06071871E-07  4.25388314E-03  1.31588682E-07 -6.31466585E-08
  8.96769459E-07  7.42103558E-04  8.28117895E-08 -2.48272835E-04 -7.84570653E-04
  1.09800445E-07 -5.78202828E-08  1.47035286E-08  2.58400387E-08 -6.38408399E-07
  2.00894945E-07  5.99840552E-03 -7.89968132E-08 -9.34974618E-07  2.94793618E-07
  8.82694819E-03  4.43336810E-07 -6.22943195E-07  5.50453180E-07  7.65586374E-03
  9.87677100E-07 -1.93884547E-08  2.36329048E-07  1.55508220E-03 -2.84474917E-08
  3.07613784E-04  4.51692088E-07  6.74374742E-07  7.05126567E-07  8.56446402E-07
  7.00815333E-03 -1.89481574E-06  1.07660223E-06  1.30385905E-06  1.09008158E-02
 -1.21100369E-06  8.92009658E-07  9.80442775E-07  7.38463509E-03  2.17810535E-07
  7.93672386E-07  9.86360934E-07  1.28810164E-03  1.57999339E-07 -7.84718147E-04
 -1.15824944E-03  6.12141190E-08 -1.93121849E-07  5.90938156E-08  9.89065779E-08
  2.02067767E-07 -4.19899081E-07  1.04132125E-02 -2.97246165E-07  2.97623847E-07
 -6.16639253E-07  1.53235500E-02  6.05817303E-07  5.49155593E-07 -1.79094968E-08
  1.32905627E-02  1.65606652E-06  2.37021267E-07  2.41122014E-07  2.69967922E-03
 -4.86553215E-08  5.18571076E-04  9.09144213E-04  1.92550165E-03  2.85706111E-03
  5.47500068E-03  1.65063383E-03 -3.44149038E-07 -7.93346460E-03  8.43227618E-03
  2.59952484E-03 -5.39651905E-07 -5.29822867E-03  7.00016770E-03 -1.26337071E-03
 -3.56697302E-07 -1.49895434E-03  4.43335114E-03 -2.76156285E-03 -1.57784305E-07
  2.17257577E-04  1.43086490E-07  4.57086222E-08 -6.42053036E-04 -1.17759158E-03
  4.85453625E-04  8.10788288E-04  6.33172169E-03 -9.14801289E-03 -1.28838241E-07
 -2.51078861E-03  9.26798914E-03 -1.33741355E-02 -1.86538665E-07  1.17744553E-03
  9.04762447E-03 -9.57217690E-03 -2.88272319E-07  2.62537223E-03  2.12762526E-03
 -1.08621181E-03 -1.01475295E-07  2.92125963E-04 -2.65004828E-08  4.95637359E-08
  9.32809715E-04 -3.32072059E-03 -4.92736898E-03 -1.61212209E-03 -7.35490507E-03
  7.20693845E-07  1.36825315E-02 -2.54010695E-03 -1.13931998E-02  1.13216824E-06
  9.13742598E-03  1.30015128E-03 -5.52272093E-03  6.43160343E-07  2.58657805E-03
  2.77846930E-03 -1.24213100E-03  1.09545567E-07 -3.74439426E-04 -4.19984618E-08
 -2.08502568E-07 -1.17760172E-03  7.05585330E-04 -8.36976319E-04 -1.39788524E-03
  9.15411958E-03  4.21085709E-03  2.36336729E-07  4.32883789E-03  1.33831893E-02
  6.14506458E-03  3.46102702E-07 -2.03072799E-03  9.59255561E-03  1.99152128E-03
  5.23949724E-07 -4.53034246E-03  1.09412894E-03 -8.72454878E-04  1.87709076E-07
 -5.03693854E-04 -4.26116568E-08 -2.11733358E-08 -8.57324107E-05  1.03098233E-03
  1.31567815E-03  1.79057530E-03  4.22458251E-03 -7.29863734E-03 -5.83104315E-07
 -1.21347378E-03  6.50789601E-03 -1.12436544E-02 -8.48899403E-07  2.18734924E-02
 -7.29512198E-03  1.26071135E-02  4.66177524E-07 -2.04811738E-02  8.26267832E-03
 -1.42769463E-02 -1.26484427E-06  1.71924197E-03  2.10750999E-07 -4.65027254E-07
  2.88375052E-03  5.01906628E-03 -4.17669913E-04 -6.15526828E-04 -2.88109495E-03
  5.04765437E-03  1.83332943E-07  1.64630203E-03 -4.65993171E-03  6.83088803E-03
  3.55825433E-07  7.95213200E-04 -2.56736882E-03  4.20067682E-03  9.48694767E-08
 -3.73717236E-03 -3.46086966E-03  1.54097065E-03  6.40344266E-07 -5.24357390E-05
 -4.45591925E-09 -3.70773614E-08 -1.87890025E-04  1.84275123E-04  6.39855340E-01
  1.92707298E-03  2.56008561E-03  6.72354141E-03 -1.16159748E-02 -9.42400635E-07
 -1.12626039E-03  9.95450640E-03 -1.71978505E-02 -1.34138809E-06  3.45336693E-02
 -1.06462761E-02  1.83991657E-02  6.04808339E-07 -2.60167768E-02  1.06699778E-02
 -1.84364491E-02 -1.67188316E-06  2.66655434E-03  3.26981771E-07 -7.17673121E-07
  4.42059860E-03  7.69367994E-03 -6.15526949E-04 -9.48380527E-04 -4.76248406E-03
  8.18241507E-03  3.06478619E-07  2.66883366E-03 -7.51091243E-03  1.12662847E-02
  5.53385781E-07  7.26247751E-04 -4.92236018E-03  7.02774150E-03  2.59353398E-07
 -5.08441076E-03 -4.80040120E-03  2.18007232E-03  8.85713296E-07 -1.00746647E-04
  4.99563799E-09 -6.30801488E-08 -4.40251148E-04  3.03860725E-04  5.69304502E-01
  5.23764630E-01 -1.08004762E-02 -1.73923469E-02 -1.09893368E-02  4.09369086E-02
  3.27785476E-06  5.41407376E-02 -1.83754399E-02  6.34111706E-02  5.19345801E-06
  4.25951170E-02  4.41329912E-02  5.41493607E-02  2.29545977E-06  6.68454360E-03
  7.11011013E-02  2.70657912E-02 -9.37078600E-07 -9.91023452E-04 -1.24654936E-08
  1.52037010E-06 -2.32461445E-02  4.70320700E-03 -2.87081633E-03 -4.74582150E-03
 -2.09906400E-03  7.99492080E-03 -1.88342966E-06  1.53813268E-02 -4.37720893E-03
  1.20064725E-02 -2.50263314E-06  4.43782123E-02  3.16079114E-03  2.80315097E-02
 -4.50660374E-06  8.22212015E-02 -4.81463766E-03  2.52023870E-02 -2.99776605E-06
  7.45381384E-04  1.38112086E-07  6.75094319E-08 -8.42080418E-04 -2.51141040E-04
  5.99143562E-03  9.27083702E-03  1.61946261E-01  1.86580585E-02  3.00457476E-02
  4.09328230E-02 -5.80343660E-02 -4.46818185E-06 -9.35261192E-02  6.34069946E-02
 -9.12448817E-02 -7.06313353E-06 -7.36346787E-02  5.41529004E-02 -1.80767290E-02
 -4.93253657E-06 -1.15456309E-02  2.70653036E-02  4.00077314E-02 -1.18531903E-06
  1.71356227E-03  1.34735822E-06 -1.93939015E-06 -4.83042430E-03  1.77319869E-02
 -5.05350586E-03 -8.19208772E-03 -8.07122840E-03  3.53892119E-02  3.08172740E-07
  2.65877729E-02 -1.20793498E-02  5.09364426E-02  4.83736938E-07  3.96513049E-02
 -1.55292122E-02  6.08846340E-02  7.76868609E-07  5.88565025E-02 -5.53404952E-03
  2.43409964E-02 -1.00998388E-07 -6.92579133E-05 -9.69412467E-08 -2.40684487E-07
  3.88848100E-04  1.54115888E-03 -1.03508774E-02 -1.60163370E-02  3.38439034E-02
  1.23070981E-01  1.66663535E-06  2.68453804E-06  3.41628129E-06 -4.70826666E-06
  4.60027919E-02 -8.32411531E-06  5.08577323E-06 -6.87799230E-06  7.15546939E-02
 -5.60787313E-06  6.38500846E-06 -1.19943358E-05  4.84673963E-02  2.43306347E-06
  8.84467499E-06 -1.80875722E-05  8.45087605E-03  1.14073728E-06 -1.20582601E-02
  2.08394667E-02  9.31197404E-07  1.55135826E-06  1.83314256E-07  3.06448285E-07
 -1.88282986E-06 -3.11732752E-07 -4.10218194E-02 -8.43619643E-07 -2.40495227E-06
 -4.51733930E-07 -5.90627557E-02 -5.28160655E-06 -5.92207008E-06 -2.66818981E-06
 -6.52568487E-02 -1.47346791E-05 -5.01155784E-06 -4.99106522E-07 -2.63688908E-02
  2.49727962E-08 -1.01071026E-03  6.95672861E-05 -9.39983444E-08  6.45802822E-08
 -9.67583637E-07 -1.50673688E-06  1.79170489E-06 -4.39422822E-06  1.45321424E-01
 -3.95526149E-03 -5.03879324E-03 -2.01352587E-02  3.47866166E-02  2.93687798E-06
 -2.69787412E-03 -2.85234738E-02  4.92761570E-02  4.09751559E-06 -1.01306843E-01
  2.78043493E-02 -4.80553172E-02 -1.12975513E-06  5.25800113E-02 -2.15175179E-02
  3.71802341E-02  3.68931773E-06 -7.40315758E-03 -9.16686494E-07  2.03225157E-06
 -1.26121665E-02 -2.19490745E-02  1.64630363E-03  2.66883550E-03  1.54354026E-02
 -2.65564213E-02 -8.43717606E-07 -7.93146141E-03  2.35846749E-02 -3.73767706E-02
 -1.42068336E-06  2.38639650E-04  1.87136650E-02 -2.42060361E-02 -1.04169283E-06
  1.13035417E-02  1.17123786E-02 -5.84699151E-03 -2.10819345E-06  4.24122434E-04
 -4.73961064E-08  2.23169677E-07  1.90956285E-03 -1.00121862E-03 -1.35240180E-01
 -2.28328237E-01 -2.52519914E-02  4.36248229E-02  4.29411336E-06  7.05559224E-01
 -1.65546757E-02 -2.61948834E-02 -1.53812519E-02  5.98778765E-02  4.90438903E-06
  7.98124673E-02 -2.57632416E-02  9.27179842E-02  7.76277386E-06  6.16863033E-02
  6.47959324E-02  7.88401162E-02  3.44687059E-06  1.04861291E-02  1.02998955E-01
  3.99904633E-02 -1.29462199E-06 -1.54532930E-03 -4.81047557E-08  2.18572323E-06
 -3.37481779E-02  6.81243946E-03 -4.64601847E-03 -7.48796501E-03 -4.37711945E-03
  1.19667505E-02 -2.40582047E-06  2.35085533E-02 -8.28101376E-03  1.79931513E-02
 -3.15292337E-06  6.58372515E-02  2.82274128E-03  4.14874835E-02 -6.12224882E-06
  1.19960005E-01 -7.41061802E-03  3.68849703E-02 -4.27784823E-06  1.09457322E-03
  2.19288494E-07  1.22134699E-07 -1.26843504E-03 -4.06795719E-04  6.56203297E-03
  1.07928332E-02  2.36144490E-01  5.03283209E-02  2.58190908E-06 -3.14310689E-02
  3.44406428E-01  2.85984355E-02  4.52521156E-02  5.98716558E-02 -8.41929328E-02
 -6.69157232E-06 -1.37872288E-01  9.27114282E-02 -1.32310266E-01 -1.05665283E-05
 -1.06636553E-01  7.88439711E-02 -2.57798115E-02 -7.30844674E-06 -1.81117272E-02
  3.99883257E-02  5.70574589E-02 -1.82685247E-06  2.67187702E-03  1.93708820E-06
 -2.81114659E-06 -6.99681131E-03  2.57609846E-02 -6.84035634E-03 -1.12815454E-02
 -1.21190610E-02  5.09363678E-02  4.47229303E-07  3.74246911E-02 -1.81591622E-02
  7.32726374E-02  7.04137994E-07  5.69168786E-02 -2.29622290E-02  8.80377227E-02
  1.12839608E-06  8.55407484E-02 -8.30323973E-03  3.54902771E-02 -9.93562309E-08
 -5.33263209E-05 -1.42028125E-07 -3.49902942E-07  6.09369979E-04  2.16911826E-03
 -1.13360704E-02 -1.86448185E-02  5.03279455E-02  1.78333278E-01 -6.33782972E-06
  5.42968848E-02  7.47296558E-02  2.58564046E-01  2.55482155E-06  4.06789286E-06
  5.07028214E-06 -6.97957467E-06  6.89223766E-02 -1.24344045E-05  7.55048927E-06
 -1.02011503E-05  1.07204805E-01 -8.23572777E-06  9.44658576E-06 -1.76688739E-05
  7.26153559E-02  3.57097769E-06  1.30325953E-05 -2.65834875E-05  1.26615890E-02
  1.70212175E-06 -1.76007054E-02  3.04180274E-02  1.33823762E-06  2.23560848E-06
  3.55799872E-07  5.53343612E-07 -2.50169108E-06 -4.88436294E-07 -5.90627514E-02
 -1.42054445E-06 -3.15155531E-06 -7.09990163E-07 -8.49903037E-02 -7.97546582E-06
 -8.37862221E-06 -3.99852313E-06 -9.44271925E-02 -2.16975531E-05 -7.30058702E-06
 -7.62719052E-07 -3.85402890E-02  2.02087648E-08 -1.40380749E-03  2.25595874E-04
 -1.25306939E-07  1.12833963E-07 -1.14424330E-06 -1.89329769E-06  2.66552230E-06
 -6.48239015E-06  2.12930482E-01  5.79628484E-06  3.83783909E-06 -9.34307744E-06
  3.12020711E-01  1.74212886E-02  2.95950027E-02  1.24909157E-02 -2.15936022E-02
 -1.06437303E-06 -1.08746851E-01  2.16624818E-02 -3.74463302E-02 -2.17487274E-06
 -1.67097144E-01  5.83209169E-02 -1.00787987E-01 -4.69250268E-06  3.03480710E-02
 -4.17277624E-03  7.20614257E-03  2.28309757E-06 -4.13090576E-03 -7.49471202E-07
  1.92688241E-06 -1.23516005E-02 -2.14894467E-02  7.95207426E-04  7.26238099E-04
  4.44587421E-02 -3.95608966E-02 -5.28174493E-06  2.38669765E-04  6.59528479E-02
 -5.67827496E-02 -7.97566507E-06  1.58419906E-03  4.89437791E-02 -3.99382385E-02
 -6.20711514E-06 -8.33491357E-03  1.14496615E-02 -9.30503147E-03 -2.42493558E-06
  4.06525875E-04 -5.29828920E-07 -7.90899671E-08  5.51834839E-03  7.95595878E-04
 -1.49106492E-01 -2.30494322E-01 -5.24778850E-02  9.06682221E-02  1.08686862E-05
  6.45215709E-01 -7.16058197E-02  1.23713851E-01  1.55291972E-05  6.54534718E-01
 -6.09179871E-03 -9.82369655E-03 -1.30084311E-02  3.00241710E-02  2.63013464E-06
  3.08417987E-02 -2.19643753E-02  4.64485792E-02  4.17192073E-06  2.57579848E-02
  5.86323396E-02  4.53835541E-02  1.31789851E-06  3.00864909E-03  9.40585776E-02
  2.60452444E-02 -1.57138939E-06 -4.50165750E-04  5.49665974E-08  2.17459476E-06
 -3.03170611E-02  5.64756862E-03 -2.55881269E-03 -4.90804445E-03  3.18644523E-03
  1.54117612E-02 -5.92742081E-06  1.86643583E-02  2.86074013E-03  2.27888448E-02
 -8.38664239E-06  4.88624892E-02  7.56124304E-03  4.01462842E-02 -9.96383009E-06
  9.38038152E-02 -8.50051394E-03  3.22343286E-02 -4.52390383E-06  5.86526110E-04
 -5.32588635E-08 -2.18638862E-07 -7.22530152E-04  3.84877846E-04  3.71567498E-03
  6.86519547E-03  1.99314791E-01  6.30125892E-02  5.08933467E-06 -2.20329480E-02
  2.90704377E-01  9.30188362E-02  7.50790454E-06 -3.64273778E-02  2.54039575E-01
  1.05224162E-02  1.69685795E-02  3.00202557E-02 -4.75105221E-02 -3.02993155E-06
 -5.32675676E-02  4.64441249E-02 -7.53360417E-02 -4.78610522E-06 -4.45633567E-02
  4.53898001E-02  6.50361425E-03 -3.55986631E-06 -5.19884627E-03  2.60475158E-02
  6.41416418E-02 -8.86751711E-07  7.79030586E-04  1.83771974E-06 -2.64154639E-06
 -5.81299114E-03  2.36877221E-02 -4.20589436E-03 -7.03774451E-03 -2.81489421E-02
  6.08589433E-02  2.65658998E-06  2.42440677E-02 -4.16608550E-02  8.79996485E-02
  3.98212675E-06  4.00378043E-02 -4.03217722E-02  9.37830004E-02  3.70346077E-06
  8.05182494E-02 -9.19787929E-03  3.38717807E-02  1.50994690E-07 -4.33964100E-04
  1.56686166E-07 -2.03618726E-07 -2.19977397E-03  1.30722054E-03 -6.41767602E-03
 -1.18580576E-02  6.30144502E-02  1.26926624E-01 -1.02732532E-05  3.80575950E-02
  9.30221458E-02  1.83844289E-01 -1.51163963E-05  6.29308751E-02  9.42915292E-02
  1.45717668E-01  1.22037673E-06  1.94280136E-06  3.04173175E-06 -3.74175760E-06
  4.65662465E-02 -5.96843507E-06  4.41584196E-06 -5.20812997E-06  7.24309522E-02
 -3.97229991E-06  7.17214669E-06 -1.36688390E-05  4.90565266E-02  2.88780836E-06
  1.18853773E-05 -2.41387873E-05  8.55137614E-03  1.25772741E-06 -1.68117126E-02
  2.90558024E-02  1.27675234E-06  2.21975656E-06  9.48537111E-08  2.59326952E-07
 -4.50511253E-06 -7.85586469E-07 -6.52568198E-02 -1.04160229E-06 -6.12008685E-06
 -1.14020130E-06 -9.44271562E-02 -6.20697805E-06 -9.95642728E-06 -3.72303039E-06
 -9.91450125E-02 -1.86278142E-05 -6.96262780E-06 -4.85033409E-07 -3.62575887E-02
  2.10261449E-07 -2.11671863E-03 -1.13124504E-03 -2.46385363E-07 -1.19664590E-07
 -7.89404485E-07 -1.37656398E-06  3.83273875E-06 -8.10090992E-06  1.94555577E-01
  4.41363524E-06  5.51539973E-06 -1.16718546E-05  2.84804276E-01  1.11539216E-05
  7.98966098E-06 -1.54387952E-05  2.63103094E-01  2.35259628E-02  3.39259353E-02
  3.04248887E-02 -5.25819116E-02 -5.34495636E-06 -9.05068647E-02  4.62026723E-02
 -7.98492354E-02 -8.35655692E-06 -5.94719312E-02  5.23705105E-02 -9.05483016E-02
 -5.66212884E-06 -1.78668580E-02  5.01875610E-02 -8.67672533E-02 -2.21395365E-06
  2.55474375E-03 -1.30777352E-06  3.12885028E-06 -9.87981042E-03 -1.71923505E-02
 -3.73716708E-03 -5.08440464E-03  8.23405366E-02 -5.86889949E-02 -1.47349079E-05
  1.13035234E-02  1.20133445E-01 -8.52963572E-02 -2.16978862E-05 -8.33501622E-03
  9.39670960E-02 -8.03271005E-02 -1.86281263E-05 -6.20982001E-02  3.43855523E-03
 -1.97133610E-02 -3.02071926E-06 -1.45291957E-04 -1.21963697E-06 -7.65594676E-07
  7.63124203E-03  3.58700873E-03  2.48323139E-02  2.75447125E-02 -1.20149231E-02
  2.07079966E-02  2.22733041E-05 -3.70074083E-02 -1.83735129E-02  3.16695210E-02
  3.27759637E-05  4.71610083E-02  1.05244014E-02 -1.82486353E-02  2.82455179E-05
  1.62887620E-01  2.49982583E-03  3.28433386E-03 -2.05105274E-03 -3.53225606E-03
 -2.09695071E-07 -7.27470114E-03 -3.47207585E-03 -5.19830567E-03 -3.16814077E-07
 -2.65777477E-03  1.09655928E-02 -3.31589856E-03 -3.91932883E-07 -2.60041371E-03
  1.64486640E-02 -6.95240150E-03 -4.72417967E-07  3.66537731E-04  4.37582346E-07
  8.51636932E-07 -5.43077604E-03 -4.69578230E-04 -3.45773193E-03 -4.79596428E-03
 -4.77451714E-03  5.47480984E-03 -5.01254175E-06  1.17004873E-02 -7.35231720E-03
  8.21607240E-03 -7.30209214E-06  1.14307716E-02 -8.45348179E-03  9.11178473E-03
 -6.96356794E-06  3.39856642E-03 -7.16031934E-03  5.21769912E-03 -1.87385372E-06
 -4.19778010E-05 -1.59515079E-07 -3.37325384E-07 -2.93888791E-04  1.28637368E-04
  5.23989258E-03  7.23133953E-03  3.88751293E-02  1.74586574E-02  2.41628892E-06
 -1.68032259E-02  5.66877864E-02  2.59998980E-02  3.56845122E-06 -9.10844957E-03
  5.38396280E-02  2.07017473E-02  3.22254255E-06  1.88569551E-02  1.56586592E-02
 -4.31740810E-03 -5.67176974E-03 -3.53194031E-03  2.01299301E-03  4.03932978E-07
  1.25612640E-02 -5.19790987E-03  2.51019826E-03  6.15986980E-07  4.57253206E-03
 -3.30710995E-03  1.47847579E-02  2.42983429E-07  4.48965180E-03 -6.94521670E-03
  2.44448668E-02  3.52464480E-07 -6.32996996E-04  6.35607634E-07 -4.78024197E-07
  4.35418813E-04  5.95634819E-03 -1.54800487E-03 -2.18983033E-03 -2.52616165E-02
  2.43008599E-02  4.89100455E-07  5.87080707E-03 -3.69721282E-02  3.54319482E-02
  7.48143264E-07  9.32835627E-03 -3.23204206E-02  3.38247548E-02  4.71129883E-07
  1.97204047E-02 -5.25153788E-03  9.48652052E-03 -3.42023510E-07 -1.69371284E-04
  1.67160221E-07 -8.57775312E-08 -2.21635435E-03 -5.10145302E-04 -9.05287546E-03
 -1.24932916E-02  1.74677394E-02  1.88248152E-02 -4.18307436E-06  2.90291514E-02
  2.60131673E-02  2.68283283E-02 -6.18809980E-06  1.57350662E-02  2.07131109E-02
  3.00656250E-02 -5.47255672E-06 -3.25915162E-02  2.55359964E-03  1.27307046E-02
 -2.31032860E-07 -3.33590571E-07 -2.17439875E-07  4.18901380E-07 -2.89261168E-03
  9.30207062E-07 -4.10482811E-07  7.80089376E-07 -4.49948975E-03  8.47363969E-07
  9.02923362E-07 -1.99125924E-06 -3.05308752E-03 -1.98199509E-07  2.73245857E-06
 -5.18452173E-06 -5.35053413E-04  1.35464553E-07 -4.86079008E-03  8.40093068E-03
  4.15280705E-07  8.85836684E-07  6.40337590E-07  8.85703917E-07 -2.99804224E-06
  9.50764947E-08 -2.63688628E-02 -2.10816870E-06 -4.27815421E-06  9.09110692E-08
 -3.85402498E-02 -2.42490261E-06 -4.52368807E-06 -1.59952239E-07 -3.62575604E-02
 -3.02064181E-06 -1.87455961E-06  3.38280802E-07 -1.00099402E-02  2.21139343E-07
 -1.27046911E-03 -1.47010352E-03 -1.59383353E-07 -2.21433942E-07 -6.00127672E-07
 -8.44962378E-07  1.39589377E-06 -2.42098832E-06  4.87509100E-02  2.02140821E-06
  2.00415577E-06 -3.48664819E-06  7.11072483E-02  2.56702880E-06  2.31689291E-06
 -3.90963594E-06  6.84795240E-02  5.67714305E-06  6.52194405E-07 -1.01454982E-06
  2.02727767E-02  2.17279012E-03  3.18780484E-03  2.35240188E-03 -4.06503916E-03
 -9.66196584E-07 -8.74633812E-03  3.65450855E-03 -6.31494084E-03 -1.51023375E-06
 -6.02782898E-03  1.84156268E-03 -3.18141877E-03 -9.76369341E-07 -1.55443092E-03
  2.45609562E-04 -4.24197123E-04 -1.94578837E-07  2.25503783E-04  1.15069597E-07
 -2.13146190E-07  2.18266384E-04  3.80219207E-04 -5.24364208E-05 -1.00747827E-04
  7.45236212E-04  7.07753703E-05  2.49725655E-08  4.24126271E-04  1.09445838E-03
  5.55546487E-05  2.02075668E-08  4.06532544E-04  5.85638357E-04  4.35160922E-04
  2.10269862E-07 -1.45284175E-04 -4.23237248E-05  1.69288665E-04  2.21148905E-07
  1.11526010E-05 -2.62325829E-08 -3.69533764E-08  1.75520109E-04  6.76109643E-05
  2.01990351E-05  6.60793388E-05 -2.65124958E-03  4.58125752E-03 -9.96816211E-07
 -3.21237459E-04 -3.86073107E-03  6.67115659E-03 -1.46340199E-06  3.98338086E-03
 -1.93971153E-03  3.35185076E-03 -1.44510446E-06  3.95991368E-03  1.61304907E-04
 -2.78618110E-04 -3.70849297E-07  3.33350717E-04  2.59591038E-07  3.86281800E-07
  1.50396325E-07 -6.39831579E-07  4.05105331E-03 -1.08167548E-06  2.32347170E-07
 -9.73326352E-07  6.30120891E-03 -6.97555465E-07 -9.28393792E-09 -9.08116964E-07
  4.26888433E-03  1.32021646E-07 -5.97135357E-08 -8.98902592E-07  7.44723392E-04
  8.31386358E-08 -2.51466641E-04  7.86411897E-04  1.09693595E-07  5.86628669E-08
 -4.53214157E-09  4.86597916E-09  1.38050632E-07  9.77206080E-08 -1.01056550E-03
 -4.69377600E-08  2.19245754E-07  1.43198288E-07 -1.40334431E-03 -5.29989984E-07
 -5.33879423E-08 -1.56367567E-07 -2.11901386E-03 -1.22120189E-06 -1.59861302E-07
 -1.67307218E-07 -1.27345583E-03 -2.63070991E-08  4.42359080E-05  1.30185629E-04
 -1.45712936E-09  3.12024828E-08  1.48269185E-08  2.60464197E-08 -6.37618801E-07
 -2.01343861E-07  6.01955903E-03 -7.96171814E-08 -9.33813767E-07 -2.95447563E-07
  8.85807586E-03  4.44572216E-07 -6.20737213E-07 -5.51698315E-07  7.68286525E-03
  9.91058496E-07 -1.84286833E-08 -2.36866276E-07  1.56057107E-03 -2.85476049E-08
  3.09724154E-04 -4.51184225E-07 -6.73618974E-07 -7.06594461E-07  8.53765109E-07
 -6.99991072E-03  1.89269886E-06 -1.07883105E-06  1.29977441E-06 -1.08879951E-02
  1.20964215E-06 -8.94058979E-07  9.76820468E-07 -7.37595752E-03 -2.17528274E-07
 -7.95817924E-07  9.82913132E-07 -1.28659248E-03 -1.57839185E-07  7.86560138E-04
 -1.15505017E-03 -6.02082671E-08 -1.93259274E-07  3.70693421E-08  6.30925758E-08
 -6.67400731E-08 -2.40621858E-07 -7.16207380E-05 -2.23275636E-07 -1.20978367E-07
 -3.49857390E-07 -2.28447391E-04  7.79888674E-08  2.18944428E-07 -2.03507217E-07
  1.12694239E-03  7.63083218E-07  3.37176028E-07 -8.54464225E-08  1.46751928E-03
  3.68972287E-08 -1.29414988E-04 -3.34718370E-04 -5.98480280E-09 -4.31382906E-08
 -5.90659634E-08 -9.88574834E-08 -2.02516760E-07 -4.20741956E-07 -1.04009793E-02
  2.97096450E-07 -2.98277662E-07 -6.17878099E-07 -1.53055469E-02 -6.04938636E-07
 -5.50400609E-07 -2.01557420E-08 -1.32749546E-02 -1.65408518E-06 -2.37557720E-07
  2.40166612E-07 -2.69651661E-03  4.85995643E-08 -5.19788150E-04  9.07029634E-04
  1.91197531E-03  2.83699160E-03  5.47166683E-03 -1.60958980E-03 -3.41244039E-07
 -7.87773774E-03  8.42702609E-03 -2.53604651E-03 -5.35088223E-07 -5.26102616E-03
  7.00275946E-03  1.30005995E-03 -3.54098849E-07 -1.48841417E-03  4.43897981E-03
  2.77562947E-03 -1.57330995E-07  2.15732496E-04  1.43012071E-07 -4.45725402E-08
 -6.51606746E-04  1.17206958E-03 -1.87138315E-04 -4.39010639E-04 -8.42285011E-04
 -3.96826673E-04 -9.37369895E-08  1.90547235E-03 -1.26881264E-03 -6.20768157E-04
 -1.24850612E-07  5.52153749E-03 -7.25415829E-04  2.19296717E-03 -2.46858874E-07
  7.64577144E-03 -2.97873746E-04  2.21780748E-03 -1.60270041E-07  1.75793417E-04
 -1.34349177E-09  6.15424910E-09  2.69338694E-04 -7.26765952E-05  4.82046279E-04
  8.05096566E-04  6.35030550E-03  9.14372925E-03 -1.27880530E-07 -2.49315974E-03
  9.29515687E-03  1.33679419E-02 -1.85136473E-07  1.16916593E-03  9.06707635E-03
  9.58244781E-03 -2.86151790E-07  2.60691041E-03  2.12983768E-03  1.09408929E-03
 -1.00717210E-07  2.90074588E-04 -2.65742568E-08 -4.95331139E-08  9.32110793E-04
  3.32851780E-03  4.93894067E-03  1.64934593E-03 -7.35820776E-03 -7.22125414E-07
 -1.37146690E-02  2.59757312E-03 -1.13984055E-02 -1.13441268E-06 -9.15891225E-03
 -1.26043832E-03 -5.52010874E-03 -6.44639372E-07 -2.59266558E-03 -2.75790474E-03
 -1.23650360E-03 -1.10194496E-07  3.75318707E-04  4.30076273E-08 -2.08608433E-07
  1.17207957E-03  7.15142635E-04 -1.85038925E-04 -3.05650795E-04  2.44577352E-04
  1.54006569E-03 -6.49527489E-08  1.00898335E-03  3.97218666E-04  2.16743440E-03
 -1.13329597E-07 -7.73135228E-04 -3.90496523E-04  1.31537021E-03  1.18674158E-07
 -3.55593689E-03 -1.28813714E-04 -5.01385987E-04  2.20787100E-07 -6.68963814E-05
 -3.11201798E-08 -4.31772678E-08  7.32924745E-05  1.18045395E-04  8.38945599E-04
  1.40117266E-03 -9.13689867E-03  4.22944854E-03 -2.36865221E-07 -4.33901313E-03
 -1.33579467E-02  6.17224848E-03 -3.46867748E-07  2.03548113E-03 -9.55977913E-03
  2.01099904E-03 -5.25137583E-07  4.54098886E-03 -1.08370202E-03 -8.70237940E-04
 -1.88128984E-07  5.04876739E-04  4.25493596E-08 -2.12898639E-08  8.53309162E-05
  1.03167591E-03  1.31279106E-03  1.78612139E-03 -8.42295160E-03 -8.56284897E-06
 -3.20623080E-07 -1.20230527E-03 -1.29779144E-02 -1.31927243E-05 -4.44589535E-07
  2.18664223E-02  1.45658830E-02  1.48108515E-05  1.28935595E-08 -2.04784594E-02
 -1.65013804E-02 -1.67819510E-05 -7.51971213E-07  1.71865927E-03 -2.35213714E-07
 -2.34466088E-10 -5.78703769E-03 -1.17698807E-05 -4.17183929E-04 -6.14777191E-04
  5.80986302E-03  3.98698166E-05  3.21892780E-09  1.64413835E-03  8.24423275E-03
 -6.03918024E-04  8.83894163E-08  7.94375274E-04  4.91816923E-03 -1.13311659E-04
 -6.03454180E-08 -3.74010107E-03  3.06928211E-03 -2.22034361E-03  5.05197449E-07
 -5.23504535E-05 -2.60321534E-08 -2.75444425E-08 -6.65069269E-05  2.54675073E-04
 -4.17183480E-04 -6.14776673E-04  5.80992706E-03 -2.80636654E-05  3.21805308E-09
  1.64413812E-03  8.24298261E-03  6.20666772E-04  8.83902903E-08  7.94381155E-04
  4.91792628E-03  1.23298169E-04 -6.03465938E-08 -3.74009900E-03  3.06476083E-03
  2.22657993E-03  5.05205309E-07 -5.23507070E-05 -2.60890686E-08  2.74920709E-08
 -6.54708942E-05 -2.54944174E-04  6.39856549E-01  1.92247621E-03  2.55325869E-03
 -1.34051216E-02 -1.36275608E-05 -5.24645983E-07 -1.10934482E-03 -1.98511940E-02
 -2.01782584E-05 -7.22972827E-07  3.45223154E-02  2.12579948E-02  2.16154890E-05
 -5.67273678E-08 -2.60131453E-02 -2.13088522E-02 -2.16714412E-05 -1.00960731E-06
  2.66603016E-03 -3.65064207E-07 -3.64047401E-10 -8.87169152E-03 -1.80437979E-05
 -6.14798585E-04 -9.47206132E-04  9.46419535E-03 -1.50070142E-05  1.16305879E-08
  2.66532703E-03  1.35094789E-02 -8.45084868E-04  1.17733471E-07  7.24652095E-04
  8.54313415E-03 -7.31964429E-04 -1.98310967E-08 -5.08821306E-03  4.29364432E-03
 -3.05808643E-03  6.97470467E-07 -1.00595002E-04 -5.15443460E-08 -3.99498702E-08
 -4.48156265E-05  5.33048225E-04 -6.14797988E-04 -9.47205336E-04  9.46413727E-03
  3.42388122E-05  1.16294179E-08  2.66532628E-03  1.35077241E-02  8.72531091E-04
  1.17734409E-07  7.24661960E-04  8.54162384E-03  7.49311878E-04 -1.98311699E-08
 -5.08821138E-03  4.28741777E-03  3.06681056E-03  6.97481413E-07 -1.00595395E-04
 -5.16274276E-08  3.98458557E-08 -4.26477703E-05 -5.33226974E-04  5.69306434E-01
  5.23767712E-01  2.15529177E-02  3.47078974E-02 -8.17097468E-02 -9.59953841E-05
 -1.53333990E-06 -1.08032233E-01 -1.27927579E-01 -1.48693473E-04 -2.50531402E-06
 -8.51070910E-02 -4.94212927E-02 -1.27009845E-04 -2.37328653E-06 -1.33691858E-02
  2.43437320E-02 -6.34670075E-05 -1.05184616E-06  1.97675968E-03 -1.37711032E-06
 -1.31795807E-09 -1.49825034E-02 -5.68931668E-05 -2.93122053E-03 -4.70558614E-03
  2.59935926E-02  8.21686314E-03 -7.28105331E-07  1.52835766E-02  3.70559163E-02
  1.19441286E-02 -1.10516881E-06  1.20346422E-02  4.09357104E-02  6.37411697E-03
 -2.59291143E-07  9.65719172E-03  8.46639203E-03  2.16826356E-03  3.71150853E-07
 -4.34104236E-04 -8.60330358E-08 -2.39207755E-07 -1.64306414E-03  6.68434070E-05
 -2.94141448E-03 -4.72227304E-03  2.60595769E-02 -8.17875630E-03 -7.30908193E-07
  1.53376950E-02  3.71533172E-02 -1.18879755E-02 -1.10890036E-06  1.21531300E-02
  4.10500934E-02 -6.33772092E-03 -2.66391978E-07  9.86184538E-03  8.53771911E-03
 -2.17341493E-03  3.65045834E-07 -4.32863072E-04 -8.66144352E-08  2.39025424E-07
 -1.64320766E-03 -7.50322681E-05 -1.19583055E-02 -1.85032430E-02  1.03448254E-01
  2.19138029E-05  3.52897226E-05 -9.59947279E-05  1.26826794E-02 -1.61416143E-09
 -1.09844754E-04 -1.48716113E-04  1.82964629E-02 -2.63725629E-09 -8.66421445E-05
 -1.26935980E-04  7.54975961E-02 -2.36272793E-09 -1.36106340E-05 -6.34787631E-05
  8.67747689E-02 -9.42894528E-10  2.01014947E-06 -1.33459691E-09 -6.14032515E-08
 -6.80883140E-05  2.59836745E-02 -5.01606110E-03 -8.21080798E-03  2.42788108E-02
  7.29908684E-03 -1.36306105E-06  2.66285850E-02  3.60211272E-02  9.50517182E-03
 -1.81257025E-06  5.82664871E-02  4.99311961E-02  2.31103516E-02 -3.47718181E-06
  1.00668683E-01  3.29042341E-02  1.10602656E-02 -2.99626387E-06  6.09664113E-04
 -4.67526303E-08  6.98130573E-09 -2.17439679E-04  7.38795889E-04  5.01008582E-03
  8.20121569E-03 -2.42406557E-02  7.23311018E-03  1.36174470E-06 -2.65974265E-02
 -3.59648946E-02  9.40780469E-03  1.81055716E-06 -5.82417677E-02 -4.98946955E-02
  2.29959296E-02  3.47695057E-06 -1.00648688E-01 -3.29093393E-02  1.09889426E-02
  2.99715133E-06 -6.10540528E-04  4.65630924E-08  7.56132106E-09  2.11098852E-04
  7.39525130E-04 -1.21608513E-05 -1.88161882E-05 -7.93975690E-05  1.81534817E-01
  9.95926712E-07  1.60449586E-06 -1.81237904E-06 -1.89931922E-09  4.59816575E-02
 -4.96253810E-06 -2.29294300E-06 -2.42203498E-09  7.15231060E-02 -2.95412921E-06
 -1.05392776E-05 -1.06727192E-08  4.84807030E-02  2.85265070E-06 -2.05841000E-05
 -2.08490925E-08  8.47072767E-03 -2.18657720E-07  2.40705427E-02  2.44840965E-05
 -5.93624017E-07 -1.20375295E-09  1.84368273E-07  3.05266512E-07 -9.74676777E-07
 -1.17335442E-06 -4.10085208E-02 -8.40033593E-07 -1.52855289E-06 -1.44744949E-06
 -5.90429295E-02 -4.61519157E-06 -1.74701294E-06 -5.07696620E-06 -6.52397752E-02
 -1.32378898E-05  1.58819869E-06 -3.98155770E-06 -2.63706042E-02 -7.24920959E-09
  5.67477923E-04 -8.39243790E-04  4.05320481E-08  8.85675505E-08  1.84385806E-07
  3.05295260E-07 -9.77144992E-07  1.17153274E-06 -4.10084769E-02 -8.40126931E-07
 -1.53161810E-06  1.44456983E-06 -5.90428610E-02 -4.61538675E-06 -1.75750270E-06
  5.07369545E-06 -6.52396926E-02 -1.32381499E-05  1.57998675E-06  3.98491624E-06
 -2.63706024E-02 -7.24640048E-09  5.65770034E-04  8.40395414E-04  4.08961665E-08
 -8.84016649E-08 -5.95423300E-07 -9.30867513E-07 -3.40155475E-06 -3.39621674E-09
  1.45336342E-01 -3.94249934E-03 -5.02032206E-03  4.01447116E-02  4.08070835E-05
  1.68581127E-06 -2.74465488E-03  5.68820764E-02  5.78088539E-05  2.32564231E-06
 -1.01273046E-01 -5.55221988E-02 -5.64617916E-05  5.98029689E-07  5.25728826E-02
  4.29751257E-02  4.37031325E-05  2.35381563E-06 -7.40304765E-03  1.03137072E-06
  1.02751952E-09  2.53126336E-02  5.14830888E-05  1.64437568E-03  2.66556618E-03
 -3.07045464E-02  2.86922679E-05  1.12847914E-07 -7.92139396E-03 -4.41475923E-02
  1.64925677E-03 -1.64752651E-08  2.43891901E-04 -3.03087275E-02  4.04128960E-03
 -2.50266492E-08  1.13126786E-02 -1.09299489E-02  7.19558793E-03 -1.63926348E-06
  4.23621313E-04  2.03502880E-07  1.26184810E-07 -8.03208168E-05 -2.15433961E-03
  1.64437489E-03  2.66556502E-03 -3.07044021E-02 -9.10856248E-05  1.12852447E-07
 -7.92139420E-03 -4.41441229E-02 -1.73895275E-03 -1.64736013E-08  2.43861694E-04
 -3.03004321E-02 -4.10284047E-03 -2.50315458E-08  1.13126938E-02 -1.09152982E-02
 -7.21779874E-03 -1.63928954E-06  4.23622636E-04  2.03766819E-07 -1.25773426E-07
 -8.90806369E-05  2.15399722E-03 -1.35247668E-01 -2.28339926E-01  5.03990674E-02
  5.12449733E-05  2.72553069E-06  7.05599345E-01  3.30358162E-02  5.22759987E-02
 -1.18831785E-01 -1.40418793E-04 -2.40372444E-06 -1.59269676E-01 -1.85961133E-01
 -2.17427845E-04 -3.90908227E-06 -1.23259960E-01 -7.14215183E-02 -1.84926329E-04
 -3.57087694E-06 -2.09708332E-02  3.39148400E-02 -9.37723737E-05 -1.59524890E-06
  3.08289436E-03 -1.96778706E-06 -1.84274832E-09 -2.17800706E-02 -8.26448567E-05
 -3.58717863E-03 -6.00357197E-03  3.70911963E-02  1.19258283E-02 -1.18703423E-06
  2.05838054E-02  5.28337516E-02  1.72783594E-02 -1.79200458E-06  1.62063045E-02
  5.85599805E-02  9.35764305E-03 -5.48681730E-07  1.38054619E-02  1.22881472E-02
  3.12126138E-03  5.33949146E-07 -5.95659684E-04 -1.27591470E-07 -3.57923006E-07
 -2.38346727E-03  2.44809335E-05 -3.60231481E-03 -6.02822702E-03  3.71885137E-02
 -1.18695334E-02 -1.19063293E-06  2.06632451E-02  5.29772966E-02 -1.71954667E-02
 -1.79673372E-06  1.63801374E-02  5.87289053E-02 -9.30403284E-03 -5.58391481E-07
  1.41037119E-02  1.23927348E-02 -3.12820758E-03  5.25230283E-07 -5.93787889E-04
 -1.28440619E-07  3.57611892E-07 -2.38382893E-03 -3.63206198E-05 -1.30947551E-02
 -2.15376953E-02  1.49164948E-01 -1.18052566E-04 -4.79950188E-06  6.27243849E-02
  2.15270436E-01  3.35893741E-05  5.31530853E-05 -1.40420090E-04  1.92435854E-02
 -2.52653188E-09 -1.61944678E-04 -2.17464077E-04  2.78573667E-02 -4.10905731E-09
 -1.25482860E-04 -1.84818468E-04  1.10460703E-01 -3.56044308E-09 -2.13494280E-05
 -9.37897368E-05  1.26155416E-01 -1.43902003E-09  3.13518575E-06 -1.86677093E-09
 -1.27733238E-07 -9.88597832E-05  3.77128925E-02 -7.44681425E-03 -1.21305859E-02
  3.60002487E-02  9.47377972E-03 -1.74742707E-06  3.90877825E-02  5.34101002E-02
  1.21634567E-02 -2.29298712E-06  8.54835029E-02  7.37951786E-02  3.23048216E-02
 -4.75313889E-06  1.46707600E-01  4.83066749E-02  1.57929255E-02 -4.27886537E-06
  9.19557407E-04 -5.98949769E-08  3.01580655E-08 -2.45843990E-04  1.05223774E-03
  7.43949843E-03  1.21183433E-02 -3.59438808E-02  9.37647478E-03  1.74524670E-06
 -3.90458091E-02 -5.33270878E-02  1.20199629E-02  2.28967581E-06 -8.54501851E-02
 -7.37414131E-02  3.21358407E-02  4.75244832E-06 -1.46679007E-01 -4.83135530E-02
  1.56883432E-02  4.28014430E-06 -9.20759330E-04  5.95732701E-08  3.10062845E-08
  2.36725383E-04  1.05316022E-03 -1.33141852E-05 -2.18980482E-05 -1.18052903E-04
  2.65269059E-01 -4.79045583E-09  6.37644457E-05 -1.75266349E-04  3.87644897E-01
  1.52677556E-06  2.44126480E-06 -2.73894656E-06 -2.86916420E-09  6.88903030E-02
 -7.47914791E-06 -3.48929316E-06 -3.68279329E-09  1.07156792E-01 -4.39273141E-06
 -1.55507164E-05 -1.57517492E-08  7.26334871E-02  4.22853223E-06 -3.02030095E-05
 -3.05952369E-08  1.26903393E-02 -2.88222012E-07  3.51333851E-02  3.57367536E-05
 -8.33933692E-07 -1.69150714E-09  3.33510022E-07  5.21987972E-07 -1.51304236E-06
 -1.54972541E-06 -5.90418476E-02 -1.35742309E-06 -2.36246987E-06 -1.87536219E-06
 -8.49592075E-02 -6.95222224E-06 -2.69343837E-06 -7.27488383E-06 -9.43999753E-02
 -1.95072105E-05  2.28697977E-06 -5.82010704E-06 -3.85419259E-02 -2.74800119E-08
  8.99765334E-04 -1.10088866E-03  4.23998819E-08  1.32566157E-07  3.33536096E-07
  5.22030509E-07 -1.51631588E-06  1.54687505E-06 -5.90417833E-02 -1.35756023E-06
 -2.36646448E-06  1.87088073E-06 -8.49591074E-02 -6.95250802E-06 -2.70847693E-06
  7.26980878E-06 -9.43998534E-02 -1.95075863E-05  2.27497538E-06  5.82494402E-06
 -3.85419221E-02 -2.74767307E-08  8.97524505E-04  1.10271542E-03  4.29441636E-08
 -1.32392504E-07 -7.36588498E-07 -1.22282475E-06 -4.96635606E-06 -4.96078945E-09
  2.12947999E-01  3.84374942E-06 -7.00448306E-06 -6.99449475E-09  3.12040021E-01
  1.74196665E-02  2.95895584E-02 -2.49639305E-02 -2.54020007E-05 -2.88463428E-07
 -1.08713654E-01 -4.32748968E-02 -4.40369211E-05 -8.28916617E-07 -1.67034832E-01
 -1.16418371E-01 -1.18389181E-04 -1.06870747E-06  3.03314908E-02  8.35737666E-03
  8.49922295E-06  2.02395564E-06 -4.13443569E-03  1.04923465E-06  1.03568386E-09
  2.47860334E-02  5.04241731E-05  7.94573487E-04  7.25035959E-04 -5.64944586E-02
  1.86051893E-02 -3.19062413E-06  2.42278505E-04 -8.21609623E-02  2.85547149E-02
 -4.90761485E-06  1.58389791E-03 -5.90608235E-02  2.22930486E-02 -3.97038116E-06
 -8.30123041E-03 -1.37811454E-02  5.23856340E-03 -1.90325965E-06  4.05572646E-04
  2.47082193E-07 -3.12490552E-07 -3.43072289E-03 -4.39278085E-03  7.94567062E-04
  7.25027067E-04 -5.64564727E-02 -1.87199516E-02 -3.19069854E-06  2.42293937E-04
 -8.21026821E-02 -2.87216027E-02 -4.90772655E-06  1.58390182E-03 -5.90153509E-02
 -2.24130030E-02 -3.97047259E-06 -8.30117306E-03 -1.37704980E-02 -5.26658960E-03
 -1.90328841E-06  4.05574546E-04  2.46461233E-07  3.13001186E-07 -3.44854900E-03
  4.37879009E-03 -1.49108791E-01 -2.30498029E-01  1.04700161E-01  1.06481107E-04
  7.60721743E-06  6.45232688E-01  1.42859416E-01  1.45280396E-04  1.10785900E-05
  6.54457171E-01  1.21591652E-02  1.96090194E-02 -6.48824041E-02 -7.04143020E-05
 -4.69718758E-07 -6.15522785E-02 -1.02219178E-01 -1.08927843E-04 -7.94930880E-07
 -5.15383007E-02 -1.97794445E-02 -1.06458166E-04 -1.59994745E-06 -6.03599770E-03
  4.90668299E-02 -6.10597437E-05 -1.24168889E-06  8.98649787E-04 -1.97742348E-06
 -2.05008714E-09 -2.03872744E-02 -7.56407312E-05 -2.35559255E-03 -3.62726135E-03
  5.18761779E-02  8.42095617E-05  1.62798283E-06  1.16140309E-02  7.47686376E-02
  3.66881947E-05  2.38716424E-06  1.01250350E-02  7.21619512E-02 -2.86120214E-03
  2.82009913E-06  2.25720669E-02  1.32052019E-02  3.38979950E-03  9.22236954E-07
 -6.69610132E-04 -1.38521993E-07 -1.98764845E-09 -4.86570173E-05  1.80324818E-03
 -2.36436810E-03 -3.64304950E-03  5.19648932E-02 -3.33696514E-06  1.62033880E-06
  1.16715183E-02  7.48995370E-02  8.28159913E-05  2.37643863E-06  1.02517917E-02
  7.23137075E-02  2.94881760E-03  2.80614071E-06  2.28191245E-02  1.33032516E-02
 -3.38749181E-03  9.13355149E-07 -6.69019738E-04 -1.38976055E-07  2.00527939E-09
 -4.13052774E-05 -1.80747695E-03 -7.41232059E-03 -1.36962067E-02  9.04474020E-02
 -1.47779990E-04 -8.20553842E-06  4.39592464E-02  1.30002980E-01 -2.18136767E-04
 -1.20324561E-05  7.26753139E-02  9.11531510E-02  1.23619334E-05  1.99366923E-05
 -7.04078659E-05  4.35638608E-03 -5.47875614E-10 -6.25801165E-05 -1.08944264E-04
  4.90520661E-03 -9.23152358E-10 -5.25541513E-05 -1.06365596E-04  8.49480049E-02
 -1.56017329E-09 -6.17459695E-06 -6.10896989E-05  1.09150493E-01 -1.10060768E-09
  9.13034493E-07 -2.08332439E-09  7.18188065E-08 -8.90929248E-05  3.36067324E-02
 -4.31994029E-03 -7.77030177E-03  4.36354681E-02  1.21617141E-02 -3.76166515E-06
  2.82864213E-02  6.44687787E-02  1.60784530E-02 -5.27759565E-06  6.23411951E-02
  7.75994981E-02  2.91746667E-02 -6.87191793E-06  1.21569357E-01  4.48243023E-02
  1.21629064E-02 -4.36339785E-06  2.89656102E-04 -2.18365291E-07 -1.45799373E-07
  7.29346392E-07  1.99040007E-03  4.31513261E-03  7.76289626E-03 -4.35545101E-02
  1.20730118E-02  3.76523581E-06 -2.82626997E-02 -6.43491381E-02  1.59476056E-02
  5.28282284E-06 -6.23203064E-02 -7.75117410E-02  2.90228669E-02  6.87807955E-06
 -1.21522993E-01 -4.48219567E-02  1.20648690E-02  4.36544498E-06 -2.91010925E-04
  2.18385730E-07 -1.45359165E-07 -8.89649073E-06  1.98670991E-03 -7.53879400E-06
 -1.39290808E-05 -1.47793836E-04  2.35792424E-01 -8.27210459E-09  4.46985473E-05
 -2.18156681E-04  3.44546082E-01 -1.21330137E-08  7.39172135E-05 -2.21123576E-04
  3.08626835E-01  8.42418787E-07  1.33335327E-06 -1.29498971E-06 -1.38867759E-09
  4.65511602E-02 -4.05591322E-06 -1.28544397E-06 -1.42267209E-09  7.24092786E-02
 -2.36135692E-06 -1.32896375E-05 -1.34540170E-08  4.90902350E-02  3.08239650E-06
 -2.81131511E-05 -2.84822327E-08  8.58169909E-03 -5.79518248E-07  3.35618673E-02
  3.41403897E-05 -8.81999087E-07 -1.79268157E-09  9.03080468E-08  2.32208687E-07
 -1.28153956E-06 -2.90341527E-06 -6.52325849E-02 -8.93026513E-07 -2.02419775E-06
 -3.88211869E-06 -9.43909487E-02 -5.40989197E-06 -2.16630402E-06 -8.09242619E-06
 -9.91157905E-02 -1.71632663E-05  2.33744962E-06 -5.50342322E-06 -3.62607574E-02
  1.57173440E-07  8.42587779E-05 -2.39742506E-03  1.87338320E-07  5.79467358E-08
  9.03232716E-08  2.32236118E-07 -1.28759186E-06  2.90106831E-06 -6.52325311E-02
 -8.93126379E-07 -2.03231062E-06  3.87837391E-06 -9.43908630E-02 -5.41010133E-06
 -2.18301940E-06  8.08843594E-06 -9.91156960E-02 -1.71635755E-05  2.32610001E-06
  5.50834616E-06 -3.62607698E-02  1.57186459E-07  7.93845132E-05  2.39758842E-03
  1.87581498E-07 -5.71781220E-08 -5.58584932E-07 -9.50106187E-07 -5.69530828E-06
 -5.71704319E-09  1.94583313E-01  3.04501932E-06 -8.05257552E-06 -8.08153703E-09
  2.84839294E-01  8.88971376E-06 -1.20189373E-05 -1.21383323E-08  2.63146398E-01
  2.35224246E-02  3.39250560E-02 -6.07720924E-02 -6.17991136E-05 -3.46112117E-06
 -9.05207816E-02 -9.22932394E-02 -9.38521068E-05 -5.49564830E-06 -5.94705891E-02
 -1.04583689E-01 -1.06509523E-04 -2.41034072E-06 -1.78853849E-02 -1.00203779E-01
 -1.02123151E-04  9.02824987E-07  2.55247844E-03  2.88371112E-06  2.88443165E-09
  1.98255075E-02  4.02914675E-05 -3.73817770E-03 -5.08620028E-03 -9.20494769E-02
  4.17839753E-02 -1.11244541E-05  1.13092302E-02 -1.34014340E-01  6.11253064E-02
 -1.64360502E-05 -8.31953610E-03 -1.16585574E-01  4.09925362E-02 -1.42699891E-05
 -6.20186580E-02 -1.87575452E-02 -6.89732797E-03 -2.56301983E-06 -1.45676612E-04
  6.94900382E-08 -1.16063386E-06 -6.90290820E-03 -4.84188743E-03 -3.73818242E-03
 -5.08620583E-03 -9.19645138E-02 -4.19712317E-02 -1.11246692E-05  1.13092440E-02
 -1.33890054E-01 -6.13979213E-02 -1.64363601E-05 -8.31935768E-03 -1.16502203E-01
 -4.12298315E-02 -1.42702400E-05 -6.20180393E-02 -1.87716100E-02  6.85899957E-03
 -2.56304506E-06 -1.45674293E-04  6.71454318E-08  1.16080001E-06 -6.92254598E-03
  4.81377463E-03  2.48357843E-02  2.75494461E-02  2.39400984E-02  2.41992917E-05
  2.15309846E-05 -3.70213676E-02  3.66162789E-02  3.70247212E-05  3.16397106E-05
  4.70990198E-02 -2.10494398E-02 -2.15877043E-05  2.89053576E-05  1.62827251E-01
 -4.98680901E-03 -6.55209409E-03  4.06001254E-03  8.29863606E-06  2.39065616E-07
  1.45156831E-02  5.52347982E-03  1.22161040E-05  3.81022874E-07  5.27789115E-03
  1.66968864E-02  7.80453877E-06 -2.07901867E-07  5.18795946E-03  2.84666297E-02
  1.63550410E-05 -3.60157301E-07 -7.31195901E-04 -4.37588041E-07 -1.13429347E-09
 -6.21866895E-03 -1.78974903E-05  3.96098129E-04  5.12500578E-04  2.55694771E-02
 -7.66391376E-03  1.18529142E-06 -7.93142941E-04  3.71425418E-02 -1.11672146E-02
  1.75676924E-06  2.33142199E-03  3.32531967E-02 -8.13282190E-03  1.59398000E-06
  1.53381309E-02  5.30629919E-03  1.97853535E-03  2.03762656E-07 -1.25407449E-04
 -7.49504063E-08  1.25211638E-07  1.31818132E-03  1.28515862E-03  3.88436011E-04
  5.01829931E-04  2.56007186E-02  7.72828634E-03  1.17629021E-06 -7.66575796E-04
  3.71888801E-02  1.12613011E-02  1.74366129E-06  2.36100297E-03  3.33042475E-02
  8.21662725E-03  1.58118176E-06  1.53640619E-02  5.33562213E-03 -1.96158008E-03
  1.99586594E-07 -1.25654806E-04 -7.52349030E-08 -1.24906951E-07  1.32503902E-03
 -1.28204410E-03 -1.04634990E-02 -1.44401094E-02  8.71757200E-03 -4.09182748E-05
 -3.58921131E-06  3.35543915E-02  1.17762902E-02 -6.09361931E-05 -5.30295015E-06
  1.81972386E-02  1.80805451E-02 -4.85173391E-05 -4.78824579E-06 -3.76493673E-02
  1.12545946E-02 -5.06913088E-06 -6.65868936E-06  8.29859791E-06 -4.08893080E-03
  2.40816018E-10  1.47455595E-05  1.22129609E-05 -6.46946696E-03  3.83426044E-10
  5.32848023E-06  7.76571961E-06  9.07608310E-03 -1.87607381E-10  5.24692430E-06
  1.62630795E-05  1.24445584E-02 -3.46272195E-10 -7.43358933E-07 -1.15402046E-09
  6.91855579E-07 -1.68381592E-05  5.16988135E-03 -3.76729875E-03 -5.24664990E-03
  2.30717971E-02 -6.04886209E-03 -4.44286870E-06  1.30640701E-02  3.40188507E-02
 -9.07184803E-03 -6.46935115E-06  1.45738786E-02  3.33036155E-02 -7.88742554E-03
 -6.31361374E-06  1.28531616E-02  1.24538468E-02 -2.98476702E-03 -2.05400561E-06
 -1.21059319E-04 -2.62612065E-07 -2.27044852E-07  8.04073096E-04  1.11358698E-03
  3.76809785E-03  5.24768242E-03 -2.30074729E-02 -6.08006528E-03  4.44533421E-06
 -1.30656560E-02 -3.39248295E-02 -9.11812119E-03  6.47300361E-06 -1.45690849E-02
 -3.32198959E-02 -7.93845646E-03  6.31693085E-06 -1.28219168E-02 -1.24369361E-02
 -3.01409056E-03  2.05444237E-06  1.20805591E-04  2.62926577E-07 -2.26768816E-07
 -8.05898997E-04  1.10770419E-03 -1.06378390E-05 -1.46799877E-05 -4.09823696E-05
  4.90107818E-02 -3.63839405E-09  3.41085061E-05 -6.10284295E-05  7.17795697E-02
 -5.37549731E-09  1.84988571E-05 -4.85969445E-05  6.58603477E-02 -4.85816412E-09
 -3.82738488E-05 -5.99294835E-06  1.71496480E-02 -7.57377622E-08 -1.29563154E-07
  2.55305648E-07  2.58265181E-10 -2.88546160E-03  4.78088679E-07  5.69484435E-07
  5.76451271E-10 -4.48784977E-03  6.85834036E-07 -2.79391693E-06 -2.82207086E-09
 -3.03120637E-03 -3.56133226E-07 -6.76285710E-06 -6.87311385E-09 -5.24167186E-04
 -3.64857543E-07  9.70710964E-03  9.87221344E-06 -4.79571728E-07 -9.84749237E-10
  5.60395919E-07  7.75576102E-07  3.83070917E-07 -1.94174339E-06 -2.63651841E-02
 -1.84871730E-06  4.78828256E-07 -2.77739670E-06 -3.85344354E-02 -2.23897104E-06
  5.63449092E-07 -3.23229547E-06 -3.62557702E-02 -3.27442423E-06  9.79320992E-07
 -1.38813604E-06 -1.00146606E-02  1.99942606E-07 -6.33812849E-04 -1.83595267E-03
  1.92006197E-07 -3.73823991E-08  5.60409987E-07  7.75595690E-07  3.79032988E-07
  1.94258076E-06 -2.63652110E-02 -1.84876566E-06  4.73049138E-07  2.77845548E-06
 -3.85344717E-02 -2.23902170E-06  5.56748963E-07  3.23352082E-06 -3.62558119E-02
 -3.27443974E-06  9.76451287E-07  1.39015084E-06 -1.00146923E-02  1.99953965E-07
 -6.37544835E-04  1.83465909E-03  1.91855507E-07  3.81691406E-08 -2.74829374E-07
 -3.96037527E-07 -1.55025526E-06 -1.57967903E-09  4.87747853E-02  9.78339493E-07
 -2.17739077E-06 -2.21847911E-09  7.11409200E-02  2.00211733E-06 -2.97848797E-06
 -3.03776092E-09  6.85097896E-02  6.85273011E-06 -9.26067610E-07 -9.44122947E-10
  2.02829040E-02  2.17179423E-03  3.18668410E-03 -4.69559152E-03 -4.77587042E-06
 -3.83936345E-07 -8.74411903E-03 -7.29510975E-03 -7.41940753E-06 -6.04865973E-07
 -6.02919877E-03 -3.67533901E-03 -3.73708138E-06 -4.02610826E-07 -1.55579325E-03
 -4.89863623E-04 -4.97631272E-07 -9.93229230E-08  2.25322075E-04 -1.29477651E-07
 -1.30927855E-10 -4.38393693E-04 -8.90897364E-07 -5.25133072E-05 -1.00876278E-04
 -3.11574497E-04  6.79750308E-04 -5.41419528E-09  4.24530786E-04 -4.99450999E-04
  9.74008200E-04 -1.53662964E-08  4.07025612E-04  8.39740160E-05  7.24492701E-04
  7.13461315E-08 -1.44404028E-04  1.68176574E-04  4.84058884E-05  1.02526143E-07
  1.11400228E-05 -3.94245420E-09 -2.09804129E-08 -1.45792385E-04 -1.18706791E-04
 -5.25127418E-05 -1.00875256E-04 -3.10190941E-04 -6.80381391E-04 -5.41082924E-09
  4.24527264E-04 -4.97468325E-04 -9.75020309E-04 -1.53612986E-08  4.07023252E-04
  8.54467552E-05 -7.24320172E-04  7.13513051E-08 -1.44404443E-04  1.68273676E-04
 -4.80645475E-05  1.02528093E-07  1.11400710E-05 -3.98446261E-09  2.09723929E-08
 -1.46273429E-04  1.18112685E-04  2.07437547E-05  6.67092235E-05  5.29080097E-03
  5.38108859E-06 -5.13813849E-07 -3.22237899E-04  7.70500529E-03  7.83655426E-06
 -7.50080685E-07  3.97860354E-03  3.87209691E-03  3.93835892E-06 -7.38948996E-07
  3.95876525E-03 -3.21781436E-04 -3.27209768E-07 -1.93008045E-07  3.33182103E-04
 -2.83936776E-07 -4.27424618E-07  4.98051777E-07  6.30398628E-10 -8.08208403E-03
  1.21637640E-06  7.36272953E-07  9.34677060E-10 -1.25713487E-02  7.42632762E-07
  8.98726826E-07  1.22237508E-09 -8.51874622E-03 -4.31019626E-07  1.39411208E-06
  1.76432187E-09 -1.48715147E-03 -6.57998629E-08 -1.60887030E-03 -1.84271505E-06
  1.06912059E-07  2.49913179E-10  2.49117249E-08  3.58079355E-08 -1.18432528E-07
 -1.74590755E-07  4.44916632E-04 -1.10800317E-07 -1.67500413E-07 -2.78330304E-07
  5.06298185E-04  3.26947585E-07 -7.74383374E-08  1.52299045E-07  2.03715542E-03
  1.13637491E-06 -1.22888031E-07  2.81809231E-07  1.90789579E-03  4.70521966E-08
 -2.39530715E-04 -2.93874015E-04  2.25851351E-08 -3.38378128E-08  2.49307722E-08
  3.58540330E-08 -1.18971944E-07  1.74314940E-07  4.43064006E-04 -1.10993170E-07
 -1.68335329E-07  2.77934627E-07  5.03594029E-04  3.26489751E-07 -7.75266716E-08
 -1.52368634E-07  2.03456796E-03  1.13559287E-06 -1.22552129E-07 -2.82004250E-07
  1.90714664E-03  4.70584855E-08 -2.40197157E-04  2.93488156E-04  2.24430617E-08
  3.39321581E-08 -2.74307260E-08 -4.48696164E-08 -9.30452342E-08  3.09168623E-10
 -1.20132992E-02  1.24247817E-07 -1.42723257E-07  4.48445840E-10 -1.76777836E-02
 -4.57957203E-07  2.72672121E-07  7.80581811E-10 -1.53342197E-02 -1.55126913E-06
  2.59321846E-07  3.38250278E-10 -3.11678769E-03  2.73200374E-08  1.20683968E-03
 -2.88580836E-10 -4.34322002E-10  6.23955830E-10 -1.15732197E-07 -8.21981219E-06
  1.23575654E-09  9.24578853E-10 -1.73211060E-07 -1.27855518E-05  7.55244514E-10
  1.22418721E-09 -3.02187745E-07 -8.66318902E-06 -4.38681039E-10  1.77105478E-09
 -3.44929279E-07 -1.51195599E-06 -6.62385606E-11 -1.84350778E-06  2.03697893E-04
  1.72093097E-10 -3.15058548E-08  9.56358651E-09  2.31820616E-08 -8.99706710E-08
  1.80948889E-08 -9.09737253E-04 -9.71915412E-08 -1.31285018E-07  2.86429233E-08
 -1.32803054E-03 -2.33517058E-07 -1.97752398E-07 -4.67910541E-08 -1.26697650E-03
 -3.94471832E-07 -1.20035664E-07 -3.16575996E-08 -3.64980401E-04  2.00167432E-09
 -3.44795039E-05 -5.08221971E-05 -2.52746958E-09 -6.15266637E-10 -9.51352827E-09
 -2.31103378E-08  8.96976339E-08  1.86318366E-08  9.10641988E-04  9.69699151E-08
  1.30892710E-07  2.94743772E-08  1.32905992E-03  2.34186260E-07  1.97697292E-07
 -4.67008547E-08  1.27111975E-03  3.96785894E-07  1.19852167E-07 -3.19887154E-08
  3.68861200E-04 -1.90624396E-09  3.40942704E-05 -5.01551633E-05  2.57575219E-09
 -5.36327784E-10 -2.62326174E-11 -4.29564818E-11  3.09149869E-10 -3.96534989E-07
 -1.22186344E-05  1.18466396E-10  4.48259710E-10 -5.82702962E-07 -1.79799229E-05
 -4.73958149E-10  7.80949160E-10 -4.93817208E-07 -1.55964945E-05 -1.58077762E-09
  3.38916917E-10 -7.34386747E-08 -3.17045142E-06  2.78234555E-11  1.21839228E-06
  8.89285437E-06 -3.83666145E-03 -5.69352344E-03  8.29581007E-03  1.76472776E-05
  2.86040572E-07  1.58114479E-02  1.28766495E-02  2.72120503E-05  4.57681042E-07
  1.05656645E-02  4.78245527E-03  2.06017209E-05  3.21260385E-07  2.99166156E-03
 -3.58444408E-04  1.19055676E-05  1.38911676E-07 -4.32579188E-04  1.13466763E-07
  2.64856122E-10  1.38821749E-03  5.51564130E-06  2.53696620E-04  4.83448643E-04
 -1.08983731E-03 -3.94003055E-04  1.27325882E-07 -1.82209090E-03 -1.50476522E-03
 -5.43015230E-04  1.89427435E-07 -2.07020243E-03 -2.28074600E-03 -5.14494687E-04
  1.22049295E-07 -7.09225985E-04 -7.06606416E-04 -1.09450704E-04 -3.91938625E-08
 -2.91722255E-05  3.87262985E-09  2.49566687E-08  1.55622948E-04  1.38235642E-04
  2.53981160E-04  4.84376375E-04 -1.08845412E-03  3.86531227E-04  1.27408716E-07
 -1.82676117E-03 -1.50280532E-03  5.32101330E-04  1.89486068E-07 -2.09123234E-03
 -2.28705557E-03  5.10867780E-04  1.23003282E-07 -7.43390613E-04 -7.14872759E-04
  1.11750524E-04 -3.81824307E-08 -2.99273077E-05  3.84798006E-09 -2.48540096E-08
  1.56155059E-04 -1.38542452E-04 -9.68049478E-04 -1.61633396E-03 -9.49660518E-03
  1.39709862E-05  1.90810268E-07  5.00375601E-03 -1.38738384E-02  2.04572949E-05
  2.74589544E-07 -2.34207338E-03 -7.52950243E-03  2.20028829E-05  3.54987516E-07
 -5.23603208E-03  2.42071950E-04  5.85808513E-06  1.08912951E-07 -5.82019573E-04
  2.17730435E-08 -3.34277666E-11  1.08023781E-03 -7.80230018E-06 -1.15784400E-05
  2.14788906E-05 -4.52785261E-03  5.87901978E-10  3.21549432E-05  3.32512275E-05
 -6.94016400E-03  9.40612943E-10  2.14871190E-05  1.75920434E-05 -7.73793409E-03
  6.54408196E-10  6.08187490E-06  5.40587088E-06 -6.03305477E-03  2.75005481E-10
 -8.79988515E-07  3.06414896E-10 -7.38932666E-08  5.51637115E-06 -1.32392749E-03
  7.04894191E-05  2.29201336E-04  5.32112140E-04  1.29209903E-03  1.96011322E-08
 -1.15264751E-03  7.46315409E-04  1.93098556E-03  1.33395442E-08 -5.17445844E-03
 -1.29888763E-03 -2.52014630E-04  2.33284478E-07 -8.40073860E-03 -1.97725269E-03
 -9.22700483E-04  2.48110271E-07 -1.85671297E-04 -1.83827126E-08 -2.33772339E-08
 -7.52994469E-06  2.31644097E-04 -6.94577074E-05 -2.27234152E-04 -5.39170816E-04
  1.29259600E-03 -1.90800413E-08  1.14522920E-03 -7.56360855E-04  1.93164229E-03
 -1.25638342E-08  5.16598932E-03  1.29010252E-03 -2.47296748E-04 -2.32793709E-07
  8.39777945E-03  1.97623076E-03 -9.18232920E-04 -2.48278008E-07  1.85550760E-04
  1.84476231E-08 -2.34431969E-08  7.22303353E-06  2.31110837E-04 -1.96919489E-06
 -3.28796361E-06 -7.50356801E-06 -1.16162081E-02  3.88660688E-10  1.01792656E-05
 -1.09388053E-05 -1.69934854E-02  5.59585747E-10 -4.76268266E-06 -4.88658566E-07
 -1.45811837E-02  7.22987516E-10 -1.06390840E-05  3.29327499E-06 -2.75857737E-03
  2.22363904E-10 -1.18381731E-06  1.60107578E-11  2.72636661E-08  4.02499874E-07
  8.82283523E-04
Grdnt Energy                               R     -2.804575508397984E+02
Grdnt NVar                                 I                7
Grdnt IGetFC                               I                4
Internal Forces                            R   N=           7
  5.61313959E-05  5.53840364E-05 -1.54540833E-04  5.43194193E-05 -2.71294814E-05
 -2.71872215E-05 -2.05847201E-05
Internal Force Constants                   R   N=          28
  5.07673534E-01  9.01772093E-02  5.07669870E-01  9.00846457E-02  9.00842321E-02
  5.06710877E-01  2.93333248E-02  2.93331222E-02 -5.85288778E-02  2.51002892E-01
  2.92222522E-02 -5.85555851E-02  2.92647743E-02 -1.25501341E-01  2.50918432E-01
 -5.85555756E-02  2.92224642E-02  2.92641058E-02 -1.25501555E-01 -1.25417088E-01
  2.50918646E-01 -1.28221339E-05 -1.28220954E-05 -1.28263041E-05  9.89700295E-06
 -1.38612082E-05 -1.38613137E-05  1.35049442E-01
Mulliken Charges                           R   N=           4
 -3.15760913E-01 -2.27997058E-01 -2.27998162E-01 -2.28243867E-01
Optimization MaxStp                        I                2
Optimization Job offset                    I                0
Optimization Num results per geometry      I                2
Optimization Num geometry variables        I               12
Opt point       1 Results for each geome   R   N=           2
 -2.80457551E+02  0.00000000E+00
Opt point       1 Geometries               R   N=          12
 -8.66735389E-05 -6.28437928E-07 -8.11108721E-05 -1.18857455E+00 -2.06319508E+00
  4.83397060E-05 -1.19276865E+00  2.06077441E+00  4.83470149E-05  2.38141904E+00
  2.42121862E-03 -2.57147078E-05
Opt point       1 Gradient at each geome   R   N=          12
 -1.51031667E-04 -7.64452530E-07 -2.99462303E-05 -1.63393591E-06  6.57201268E-05
  9.98139520E-06 -1.87495481E-06 -6.50766509E-05  9.98142446E-06  1.54540558E-04
  1.20976840E-07  9.98341060E-06
Optimization Number of geometries          I   N=           1
           1
ONIOM Charges                              I   N=          16
          -1           0           0           0           0           0
           0           0           0           0           0           0
           0           0           0           0
ONIOM Multiplicities                       I   N=          16
           1           0           0           0           0           0
           0           0           0           0           0           0
           0           0           0           0
Atom Layers                                I   N=           4
           1           1           1           1
Atom Modifiers                             I   N=           4
           0           0           0           0
Force Field                                I                0
Atom Modified Types                        C   N=           4
                                                
Int Atom Modified Types                    I   N=           4
           0           0           0           0
Link Atoms                                 I   N=           4
           0           0           0           0
Atom Modified MM Charges                   R   N=           4
  0.00000000E+00  0.00000000E+00  0.00000000E+00  0.00000000E+00
Link Distances                             R   N=          16
  0.00000000E+00  0.00000000E+00  0.00000000E+00  0.00000000E+00  0.00000000E+00
  0.00000000E+00  0.00000000E+00  0.00000000E+00  0.00000000E+00  0.00000000E+00
  0.00000000E+00  0.00000000E+00  0.00000000E+00  0.00000000E+00  0.00000000E+00
  0.00000000E+00
Cartesian Gradient                         R   N=          12
 -1.51031667E-04 -7.64452530E-07 -2.99462303E-05 -1.63393591E-06  6.57201268E-05
  9.98139520E-06 -1.87495481E-06 -6.50766509E-05  9.98142446E-06  1.54540558E-04
  1.20976840E-07  9.98341060E-06
Cartesian Force Constants                  R   N=          78
  7.32527781E-01  8.70993281E-07  7.33409333E-01 -9.31552736E-06 -8.71445385E-09
  2.85858134E-01 -1.89692736E-01 -9.44577488E-02  3.57213516E-06  2.26133065E-01
 -9.44511383E-02 -2.99245895E-01  4.76127935E-06  1.62117035E-01  4.14323085E-01
  8.51704606E-06  1.33428539E-05 -9.52695294E-02 -8.35605047E-06 -1.08720375E-05
  3.17414217E-02 -1.90077355E-01  9.46781288E-02  3.58194859E-06  4.03984684E-02
 -8.00968972E-03  3.01215257E-07  2.26792891E-01  9.46716864E-02 -2.98858425E-01
 -4.75465803E-06  8.32811662E-03 -1.16206034E-01 -3.02808384E-06 -1.62496613E-01
  4.13660224E-01  8.54439214E-06 -1.33261974E-05 -9.52697468E-02  2.95072243E-07
  3.02814581E-06  3.17743453E-02 -8.37859573E-06  1.08563343E-05  3.17416699E-02
 -3.52757689E-01 -2.21250948E-04  2.16144520E-06 -7.68387972E-02 -5.96562068E-02
 -4.62211666E-07 -7.71140038E-02  5.94968104E-02 -4.60869360E-07  5.06710490E-01
 -2.21419113E-04 -1.35305012E-01  2.09287647E-09 -7.59874026E-02  1.12884436E-03
  5.57267569E-07  7.58281743E-02  1.40423602E-03 -5.58282751E-07  3.80647386E-04
  1.32771931E-01 -7.74590835E-06 -7.94203478E-09 -9.53188579E-02  4.48884261E-06
  3.08261207E-06  3.17537624E-02  4.49543138E-06 -3.07359219E-06  3.17537316E-02
 -1.23836570E-06 -1.07768455E-09  3.18113638E-02
Nonadiabatic coupling                      R   N=          12
  0.00000000E+00  0.00000000E+00 -0.00000000E+00  0.00000000E+00  0.00000000E+00
 -0.00000000E+00  0.00000000E+00  0.00000000E+00 -0.00000000E+00  0.00000000E+00
  0.00000000E+00 -0.00000000E+00
Dipole Moment                              R   N=           3
 -6.09775001E-04 -3.03637312E-06 -3.17064519E-05
Dipole Derivatives                         R   N=          36
  2.24697304E+00  2.35426499E-06 -4.49733415E-05 -9.61312994E-07  2.24715748E+00
 -4.16114412E-08 -4.50441046E-05 -4.21719053E-08  7.69575871E-02 -8.16254733E-01
 -4.59073566E-01  3.13759478E-06 -4.58852797E-01 -1.34859266E+00 -1.50426533E-06
  4.12773568E-05  6.47046264E-05 -3.58909961E-01 -8.18123905E-01  4.60150082E-01
  3.13619913E-06  4.59931780E-01 -1.34672016E+00  1.50684140E-06  4.14102377E-05
 -6.46238764E-05 -3.58911079E-01 -1.61259440E+00 -1.07887045E-03  3.86995717E-05
 -1.07802143E-03 -5.51844650E-01  3.90349092E-08 -3.76434953E-05 -3.85778932E-08
 -3.59136547E-01
Polarizability                             R   N=           6
  3.36480519E+01 -1.54200195E-06  3.36414787E+01 -3.60806505E-04 -3.34671522E-07
  1.62412023E+01
Quadrupole Moment                          R   N=           6
 -1.99305036E+00 -1.99096292E+00  3.98401329E+00  1.35053457E-06  1.23970806E-04
  1.15656269E-07
QEq coupling tensors                       R   N=          24
  4.14696656E-02 -2.79348972E-08  4.15930330E-02 -2.61040486E-06 -2.54225048E-09
 -8.30626986E-02  1.04490834E+00 -1.91914656E+00 -1.18039782E+00  1.01579047E-04
  2.48847171E-04  1.35489487E-01  1.03709293E+00  1.92365899E+00 -1.17258645E+00
  1.02092057E-04 -2.48645413E-04  1.35493522E-01 -2.28743615E+00 -4.51275807E-03
  2.15079734E+00 -1.91146895E-04 -1.90893872E-07  1.36638816E-01
Number of Normal Modes                     I                6
Vib-LE2Fix                                 I               14
Vib-NDFDPol                                I                0
Vib-NumROA                                 I                0
Vib-NDim                                   I                4
Vib-NDim0                                  I                4
Vib-LFlags                                 I                8
Vib-IFlags                                 I   N=          48
           0           0           1           0           0           0
           0           0           0           0           2           0
           0           0           0           0           0           0
           3           0           0           0           0           0
           0           0           4           0           0           0
           0           0           0           0           5           0
           0           0           0           0           0           0
           6           0           0           0           0           0
Vib-AtMass                                 R   N=           4
  1.40030740E+01  1.59949146E+01  1.59949146E+01  1.59949146E+01
Vib-E2                                     R   N=          84
  7.09046384E+02  7.09169011E+02  8.34775019E+02  1.06579894E+03  1.37745596E+03
  1.37838149E+03  1.58548828E+01  1.58551126E+01  1.44084010E+01  1.59949098E+01
  1.45237655E+01  1.45239543E+01  4.69637246E+00  4.69806513E+00  5.91568276E+00
  1.07048988E+01  1.62362181E+01  1.62582553E+01  5.71999970E-02  5.86867128E-02
  8.24914870E+00  1.38953515E-03  6.01337713E+02  6.01473518E+02  0.00000000E+00
  0.00000000E+00  0.00000000E+00  0.00000000E+00  0.00000000E+00  0.00000000E+00
  0.00000000E+00  0.00000000E+00  0.00000000E+00  0.00000000E+00  0.00000000E+00
  0.00000000E+00  0.00000000E+00  0.00000000E+00  0.00000000E+00  0.00000000E+00
  0.00000000E+00  0.00000000E+00  0.00000000E+00  0.00000000E+00  0.00000000E+00
  0.00000000E+00  0.00000000E+00  0.00000000E+00  0.00000000E+00  0.00000000E+00
  0.00000000E+00  0.00000000E+00  0.00000000E+00  0.00000000E+00  1.00000000E+02
  1.00000000E+02  1.00000000E+02  1.00000000E+02  1.00000000E+02  1.00000000E+02
  0.00000000E+00  0.00000000E+00  0.00000000E+00  0.00000000E+00  0.00000000E+00
  0.00000000E+00  0.00000000E+00  0.00000000E+00  0.00000000E+00  0.00000000E+00
  0.00000000E+00  0.00000000E+00  0.00000000E+00  0.00000000E+00  0.00000000E+00
  0.00000000E+00  0.00000000E+00  0.00000000E+00  0.00000000E+00  0.00000000E+00
  0.00000000E+00  0.00000000E+00  0.00000000E+00  0.00000000E+00
Vib-Modes                                  R   N=          72
  4.83286441E-04 -2.65146145E-01 -3.81321101E-09 -4.77551744E-01 -1.98339897E-01
  4.00978076E-06  4.77387273E-01 -1.98138420E-01 -3.99386201E-06 -2.58631659E-04
  6.28605914E-01 -1.25803957E-08 -2.64928502E-01 -4.83309150E-04  5.57499761E-06
  3.53228991E-01 -4.76998341E-01 -1.07442694E-05  3.53026661E-01  4.77397700E-01
 -1.07489884E-05 -4.74318595E-01  2.37641872E-05  1.66125125E-05  1.86031938E-05
  1.76079803E-08  8.92472035E-01 -1.23957425E-05 -1.20580762E-05 -2.60456653E-01
 -1.24213285E-05  1.20342366E-05 -2.60456389E-01  8.53052582E-06  8.42436398E-09
 -2.60419790E-01 -1.56426613E-03 -6.85252661E-06 -2.38788265E-05 -2.87691583E-01
 -5.00321759E-01  1.29321953E-05 -2.88708425E-01  4.99738705E-01  1.29341901E-05
  5.77769477E-01  5.89052525E-04 -4.96118011E-06  8.59411013E-01 -7.12809419E-04
 -1.79378117E-05 -1.73000911E-01 -1.35147641E-01  1.46229980E-05 -1.73775375E-01
  1.36009126E-01  1.47043913E-05 -4.05612600E-01 -2.37441156E-04 -1.36233664E-05
  7.12960798E-04  8.59355863E-01 -3.16843883E-08 -1.34927872E-01 -3.29076705E-01
  2.19375726E-05  1.34953438E-01 -3.28295926E-01 -2.18844793E-05 -6.49741185E-04
 -9.49679724E-02 -2.53546052E-08
ClPar MaxAn                                I              200
ClPar NIntPar                              I                4
ClPar NRealPar                             I               16
ClPar NBits                                I               30
ClPar LenBitVec                            I                1
ClPar Read BitMap                          I   N=         200
           0           0           0           0           0           0
           0           0           0           0           0           0
           0           0           0           0           0           0
           0           0           0           0           0           0
           0           0           0           0           0           0
           0           0           0           0           0           0
           0           0           0           0           0           0
           0           0           0           0           0           0
           0           0           0           0           0           0
           0           0           0           0           0           0
           0           0           0           0           0           0
           0           0           0           0           0           0
           0           0           0           0           0           0
           0           0           0           0           0           0
           0           0           0           0           0           0
           0           0           0           0           0           0
           0           0           0           0           0           0
           0           0           0           0           0           0
           0           0           0           0           0           0
           0           0           0           0           0           0
           0           0           0           0           0           0
           0           0           0           0           0           0
           0           0           0           0           0           0
           0           0           0           0           0           0
           0           0           0           0           0           0
           0           0           0           0           0           0
           0           0           0           0           0           0
           0           0           0           0           0           0
           0           0           0           0           0           0
           0           0           0           0           0           0
           0           0           0           0           0           0
           0           0           0           0           0           0
           0           0           0           0           0           0
           0           0
ClPar Default BitMap                       I   N=         200
        2016        2016        2016        2016        2016        2016
        2016        2016        2016        2016        2016        2016
        2016        2016        2016        2016        2016        2016
        2016        2016        2016        2016        2016        2016
        2016        2016        2016        2016        2016        2016
        2016        2016        2016        2016        2016        2016
        2016        2016        2016        2016        2016        2016
        2016        2016        2016        2016        2016        2016
        2016        2016        2016        2016        2016        2016
        2016        2016        2016        2016        2016        2016
        2016        2016        2016        2016        2016        2016
        2016        2016        2016        2016        2016        2016
        2016        2016        2016        2016        2016        2016
        2016        2016        2016        2016        2016        2016
        2016        2016         480         480         480         480
         480         480         480         480         480         480
         480         480         480         480         480         480
         480         480         480         480         480         480
         480         480         480         480         480         480
         480         480         480         480         480         480
         480         480         480         480         480         480
         480         480         480         480         480         480
         480         480         480         480         480         480
         480         480         480         480         480         480
         480         480         480         480         480         480
         480         480         480         480         480         480
         480         480         480         480         480         480
         480         480         480         480         480         480
         480         480         480         480         480         480
         480         480         480         480         480         480
         480         480         480         480         480         480
         480         480         480         480         480         480
         480         480         480         480         480         480
         480         480
ClPar Int Params                           I   N=         800
           0           0           0           0           0           0
           0           0           0           0           0           0
           0           0           0           0           0           0
           0           0           0           0           0           0
           0           0           0           0           0           0
           0           0           0           0           0           0
           0           0           0           0           0           0
           0           0           0           0           0           0
           0           0           0           0           0           0
           0           0           0           0           0           0
           0           0           0           0           0           0
           0           0           0           0           0           0
           0           0           0           0           0           0
           0           0           0           0           0           0
           0           0           0           0           0           0
           0           0           0           0           0           0
           0           0           0           0           0           0
           0           0           0           0           0           0
           0           0           0           0           0           0
           0           0           0           0           0           0
           0           0           0           0           0           0
           0           0           0           0           0           0
           0           0           0           0           0           0
           0           0           0           0           0           0
           0           0           0           0           0           0
           0           0           0           0           0           0
           0           0           0           0           0           0
           0           0           0           0           0           0
           0           0           0           0           0           0
           0           0           0           0           0           0
           0           0           0           0           0           0
           0           0           0           0           0           0
           0           0           0           0           0           0
           0           0           0           0           0           0
           0           0           0           0           0           0
           0           0           0           0           0           0
           0           0           0           0           0           0
           0           0           0           0           0           0
           0           0           0           0           0           0
           0           0           0           0           0           0
           0           0           0           0           0           0
           0           0           0           0           0           0
           0           0           0           0           0           0
           0           0           0           0           0           0
           0           0           0           0           0           0
           0           0           0           0           0           0
           0           0           0           0           0           0
           0           0           0           0           0           0
           0           0           0           0           0           0
           0           0           0           0           0           0
           0           0           0           0           0           0
           0           0           0           0           0           0
           0           0           0           0           0           0
           0           0           0           0           0           0
           0           0           0           0           0           0
           0           0           0           0           0           0
           0           0           0           0           0           0
           0           0           0           0           0           0
           0           0           0           0           0           0
           0           0           0           0           0           0
           0           0           0           0           0           0
           0           0           0           0           0           0
           0           0           0           0           0           0
           0           0           0           0           0           0
           0           0           0           0           0           0
           0           0           0           0           0           0
           0           0           0           0           0           0
           0           0           0           0           0           0
           0           0           0           0           0           0
           0           0           0           0           0           0
           0           0           0           0           0           0
           0           0           0           0           0           0
           0           0           0           0           0           0
           0           0           0           0           0           0
           0           0           0           0           0           0
           0           0           0           0           0           0
           0           0           0           0           0           0
           0           0           0           0           0           0
           0           0           0           0           0           0
           0           0           0           0           0           0
           0           0           0           0           0           0
           0           0           0           0           0           0
           0           0           0           0           0           0
           0           0           0           0           0           0
           0           0           0           0           0           0
           0           0           0           0           0           0
           0           0           0           0           0           0
           0           0           0           0           0           0
           0           0           0           0           0           0
           0           0           0           0           0           0
           0           0           0           0           0           0
           0           0           0           0           0           0
           0           0           0           0           0           0
           0           0           0           0           0           0
           0           0           0           0           0           0
           0           0           0           0           0           0
           0           0           0           0           0           0
           0           0           0           0           0           0
           0           0           0           0           0           0
           0           0           0           0           0           0
           0           0           0           0           0           0
           0           0           0           0           0           0
           0           0           0           0           0           0
           0           0           0           0           0           0
           0           0           0           0           0           0
           0           0           0           0           0           0
           0           0           0           0           0           0
           0           0           0           0           0           0
           0           0           0           0           0           0
           0           0           0           0           0           0
           0           0           0           0           0           0
           0           0           0           0           0           0
           0           0           0           0           0           0
           0           0           0           0           0           0
           0           0           0           0           0           0
           0           0           0           0           0           0
           0           0           0           0           0           0
           0           0           0           0           0           0
           0           0           0           0           0           0
           0           0           0           0           0           0
           0           0           0           0           0           0
           0           0           0           0           0           0
           0           0           0           0           0           0
           0           0           0           0           0           0
           0           0           0           0           0           0
           0           0           0           0           0           0
           0           0           0           0           0           0
           0           0           0           0           0           0
           0           0           0           0           0           0
           0           0           0           0           0           0
           0           0           0           0           0           0
           0           0           0           0           0           0
           0           0           0           0           0           0
           0           0
ClPar Real Params                          R   N=        3200
  0.00000000E+00  0.00000000E+00  0.00000000E+00  0.00000000E+00  0.00000000E+00
  0.00000000E+00  0.00000000E+00  0.00000000E+00  0.00000000E+00  0.00000000E+00
  0.00000000E+00  0.00000000E+00  0.00000000E+00  0.00000000E+00  0.00000000E+00
  0.00000000E+00  0.00000000E+00  0.00000000E+00  0.00000000E+00  0.00000000E+00
  0.00000000E+00  0.00000000E+00  0.00000000E+00  0.00000000E+00  0.00000000E+00
  0.00000000E+00  0.00000000E+00  0.00000000E+00  0.00000000E+00  0.00000000E+00
  0.00000000E+00  0.00000000E+00  0.00000000E+00  0.00000000E+00  0.00000000E+00
  0.00000000E+00  0.00000000E+00  0.00000000E+00  0.00000000E+00  0.00000000E+00
  0.00000000E+00  0.00000000E+00  0.00000000E+00  0.00000000E+00  0.00000000E+00
  0.00000000E+00  0.00000000E+00  0.00000000E+00  0.00000000E+00  0.00000000E+00
  0.00000000E+00  0.00000000E+00  0.00000000E+00  0.00000000E+00  0.00000000E+00
  0.00000000E+00  0.00000000E+00  0.00000000E+00  0.00000000E+00  0.00000000E+00
  0.00000000E+00  0.00000000E+00  0.00000000E+00  0.00000000E+00  0.00000000E+00
  0.00000000E+00  0.00000000E+00  0.00000000E+00  0.00000000E+00  0.00000000E+00
  0.00000000E+00  0.00000000E+00  0.00000000E+00  0.00000000E+00  0.00000000E+00
  0.00000000E+00  0.00000000E+00  0.00000000E+00  0.00000000E+00  0.00000000E+00
  0.00000000E+00  0.00000000E+00  0.00000000E+00  0.00000000E+00  0.00000000E+00
  0.00000000E+00  0.00000000E+00  0.00000000E+00  0.00000000E+00  0.00000000E+00
  0.00000000E+00  0.00000000E+00  0.00000000E+00  0.00000000E+00  0.00000000E+00
  0.00000000E+00  0.00000000E+00  0.00000000E+00  0.00000000E+00  0.00000000E+00
  0.00000000E+00  0.00000000E+00  0.00000000E+00  0.00000000E+00  0.00000000E+00
  0.00000000E+00  0.00000000E+00  0.00000000E+00  0.00000000E+00  0.00000000E+00
  0.00000000E+00  0.00000000E+00  0.00000000E+00  0.00000000E+00  0.00000000E+00
  0.00000000E+00  0.00000000E+00  0.00000000E+00  0.00000000E+00  0.00000000E+00
  0.00000000E+00  0.00000000E+00  0.00000000E+00  0.00000000E+00  0.00000000E+00
  0.00000000E+00  0.00000000E+00  0.00000000E+00  0.00000000E+00  0.00000000E+00
  0.00000000E+00  0.00000000E+00  0.00000000E+00  0.00000000E+00  0.00000000E+00
  0.00000000E+00  0.00000000E+00  0.00000000E+00  0.00000000E+00  0.00000000E+00
  0.00000000E+00  0.00000000E+00  0.00000000E+00  0.00000000E+00  0.00000000E+00
  0.00000000E+00  0.00000000E+00  0.00000000E+00  0.00000000E+00  0.00000000E+00
  0.00000000E+00  0.00000000E+00  0.00000000E+00  0.00000000E+00  0.00000000E+00
  0.00000000E+00  0.00000000E+00  0.00000000E+00  0.00000000E+00  0.00000000E+00
  0.00000000E+00  0.00000000E+00  0.00000000E+00  0.00000000E+00  0.00000000E+00
  0.00000000E+00  0.00000000E+00  0.00000000E+00  0.00000000E+00  0.00000000E+00
  0.00000000E+00  0.00000000E+00  0.00000000E+00  0.00000000E+00  0.00000000E+00
  0.00000000E+00  0.00000000E+00  0.00000000E+00  0.00000000E+00  0.00000000E+00
  0.00000000E+00  0.00000000E+00  0.00000000E+00  0.00000000E+00  0.00000000E+00
  0.00000000E+00  0.00000000E+00  0.00000000E+00  0.00000000E+00  0.00000000E+00
  0.00000000E+00  0.00000000E+00  0.00000000E+00  0.00000000E+00  0.00000000E+00
  0.00000000E+00  0.00000000E+00  0.00000000E+00  0.00000000E+00  0.00000000E+00
  2.26000000E-01  4.43000000E-01  1.01000000E-01  1.47000000E-01  1.92000000E-01
  2.40000000E-01  2.75000000E-01  3.03000000E-01  3.25000000E-01  4.13000000E-01
  9.60000000E-02  1.35000000E-01  1.73000000E-01  2.11000000E-01  2.48000000E-01
  2.86000000E-01  3.23000000E-01  3.60000000E-01  8.20000000E-02  1.04000000E-01
  1.17000000E-01  1.23000000E-01  1.29000000E-01  1.34000000E-01  1.40000000E-01
  1.44000000E-01  1.48000000E-01  1.52000000E-01  1.55000000E-01  1.76000000E-01
  1.98000000E-01  2.19000000E-01  2.39000000E-01  2.60000000E-01  2.80000000E-01
  3.00000000E-01  7.90000000E-02  9.90000000E-02  1.19000000E-01  1.26000000E-01
  1.33000000E-01  1.40000000E-01  1.47000000E-01  1.53000000E-01  1.58000000E-01
  1.63000000E-01  1.57000000E-01  1.70000000E-01  1.87000000E-01  2.03000000E-01
  2.19000000E-01  2.34000000E-01  2.50000000E-01  2.65000000E-01  7.40000000E-02
  9.20000000E-02  1.05000000E-01  1.06000000E-01  1.07000000E-01  1.08000000E-01
  1.09000000E-01  1.10000000E-01  1.11000000E-01  1.12000000E-01  1.13000000E-01
  1.14000000E-01  1.15000000E-01  1.16000000E-01  1.17000000E-01  1.17000000E-01
  1.26000000E-01  1.36000000E-01  1.46000000E-01  1.55000000E-01  1.65000000E-01
  1.73000000E-01  1.82000000E-01  1.90000000E-01  1.62000000E-01  1.78000000E-01
  1.10000000E-01  1.35000000E-01  1.59000000E-01  1.83000000E-01  2.07000000E-01
  2.31000000E-01  6.90000000E-02  9.40000000E-02  1.02000000E-01  1.03000000E-01
  1.05000000E-01  1.07000000E-01  1.09000000E-01  1.11000000E-01  1.13000000E-01
  1.15000000E-01  1.17000000E-01  1.19000000E-01  1.20000000E-01  1.22000000E-01
  1.24000000E-01  1.26000000E-01  1.28000000E-01  1.28000000E-01  1.28000000E-01
  1.28000000E-01  1.28000000E-01  1.28000000E-01  1.28000000E-01  1.28000000E-01
  1.28000000E-01  1.28000000E-01  1.28000000E-01  1.28000000E-01  1.28000000E-01
  1.28000000E-01  1.28000000E-01  1.28000000E-01  1.28000000E-01  1.28000000E-01
  1.28000000E-01  1.28000000E-01  1.28000000E-01  1.28000000E-01  1.28000000E-01
  1.28000000E-01  1.28000000E-01  1.28000000E-01  1.28000000E-01  1.28000000E-01
  1.28000000E-01  1.28000000E-01  1.28000000E-01  1.28000000E-01  1.28000000E-01
  1.28000000E-01  1.28000000E-01  1.28000000E-01  1.28000000E-01  1.28000000E-01
  1.28000000E-01  1.28000000E-01  1.28000000E-01  1.28000000E-01  1.28000000E-01
  1.28000000E-01  1.28000000E-01  1.28000000E-01  1.28000000E-01  1.28000000E-01
  1.28000000E-01  1.28000000E-01  1.28000000E-01  1.28000000E-01  1.28000000E-01
  1.28000000E-01  1.28000000E-01  1.28000000E-01  1.28000000E-01  1.28000000E-01
  1.28000000E-01  1.28000000E-01  1.28000000E-01  1.28000000E-01  1.28000000E-01
  1.28000000E-01  1.28000000E-01  1.28000000E-01  1.28000000E-01  1.28000000E-01
  1.28000000E-01  1.28000000E-01  1.28000000E-01  1.28000000E-01  1.28000000E-01
  1.28000000E-01  1.28000000E-01  1.28000000E-01  1.28000000E-01  1.28000000E-01
  1.28000000E-01  1.28000000E-01  1.28000000E-01  1.28000000E-01  1.28000000E-01
  1.28000000E-01  1.28000000E-01  1.28000000E-01  1.28000000E-01  1.28000000E-01
  1.28000000E-01  1.28000000E-01  1.28000000E-01  1.28000000E-01  1.28000000E-01
  1.28000000E-01  1.28000000E-01  1.28000000E-01  1.28000000E-01  1.28000000E-01
  5.47000000E-01  5.92000000E-01  5.99000000E-01  6.68000000E-01  6.98000000E-01
  7.18000000E-01  7.26000000E-01  7.36000000E-01  7.43000000E-01  7.45000000E-01
  6.07000000E-01  6.66000000E-01  6.93000000E-01  7.09000000E-01  7.20000000E-01
  7.29000000E-01  7.35000000E-01  7.40000000E-01  6.08000000E-01  7.34000000E-01
  7.46000000E-01  7.55000000E-01  7.61000000E-01  7.65000000E-01  7.67000000E-01
  7.60000000E-01  7.49000000E-01  7.33000000E-01  7.08000000E-01  6.48000000E-01
  6.88000000E-01  7.09000000E-01  7.22000000E-01  7.31000000E-01  7.38000000E-01
  7.44000000E-01  6.09000000E-01  7.30000000E-01  7.41000000E-01  7.52000000E-01
  7.58000000E-01  7.63000000E-01  7.66000000E-01  7.58000000E-01  7.48000000E-01
  7.33000000E-01  7.01000000E-01  6.45000000E-01  6.86000000E-01  7.08000000E-01
  7.22000000E-01  7.31000000E-01  7.38000000E-01  7.44000000E-01  6.08000000E-01
  7.28000000E-01  7.32000000E-01  7.32000000E-01  7.32000000E-01  7.32000000E-01
  7.32000000E-01  7.32000000E-01  7.32000000E-01  7.32000000E-01  7.32000000E-01
  7.31000000E-01  7.31000000E-01  7.31000000E-01  7.31000000E-01  7.46000000E-01
  7.37000000E-01  7.46000000E-01  7.51000000E-01  7.55000000E-01  7.58000000E-01
  7.47000000E-01  7.32000000E-01  7.11000000E-01  7.41000000E-01  7.07000000E-01
  7.47000000E-01  7.43000000E-01  7.42000000E-01  7.42000000E-01  7.43000000E-01
  7.44000000E-01  6.05000000E-01  7.24000000E-01  7.26000000E-01  7.26000000E-01
  7.27000000E-01  7.27000000E-01  7.27000000E-01  7.28000000E-01  7.28000000E-01
  7.28000000E-01  7.28000000E-01  7.28000000E-01  7.29000000E-01  7.29000000E-01
  7.29000000E-01  7.29000000E-01  7.29000000E-01  7.29000000E-01  7.29000000E-01
  7.29000000E-01  7.29000000E-01  7.29000000E-01  7.29000000E-01  7.29000000E-01
  7.29000000E-01  7.29000000E-01  7.29000000E-01  7.29000000E-01  7.29000000E-01
  7.29000000E-01  7.29000000E-01  7.29000000E-01  7.29000000E-01  7.29000000E-01
  7.29000000E-01  7.29000000E-01  7.29000000E-01  7.29000000E-01  7.29000000E-01
  7.29000000E-01  7.29000000E-01  7.29000000E-01  7.29000000E-01  7.29000000E-01
  7.29000000E-01  7.29000000E-01  7.29000000E-01  7.29000000E-01  7.29000000E-01
  7.29000000E-01  7.29000000E-01  7.29000000E-01  7.29000000E-01  7.29000000E-01
  7.29000000E-01  7.29000000E-01  7.29000000E-01  7.29000000E-01  7.29000000E-01
  7.29000000E-01  7.29000000E-01  7.29000000E-01  7.29000000E-01  7.29000000E-01
  7.29000000E-01  7.29000000E-01  7.29000000E-01  7.29000000E-01  7.29000000E-01
  7.29000000E-01  7.29000000E-01  7.29000000E-01  7.29000000E-01  7.29000000E-01
  7.29000000E-01  7.29000000E-01  7.29000000E-01  7.29000000E-01  7.29000000E-01
  7.29000000E-01  7.29000000E-01  7.29000000E-01  7.29000000E-01  7.29000000E-01
  7.29000000E-01  7.29000000E-01  7.29000000E-01  7.29000000E-01  7.29000000E-01
  7.29000000E-01  7.29000000E-01  7.29000000E-01  7.29000000E-01  7.29000000E-01
  7.29000000E-01  7.29000000E-01  7.29000000E-01  7.29000000E-01  7.29000000E-01
  7.29000000E-01  7.29000000E-01  7.29000000E-01  7.29000000E-01  7.29000000E-01
  7.29000000E-01  7.29000000E-01  7.29000000E-01  7.29000000E-01  7.29000000E-01
  7.29000000E-01  7.29000000E-01  7.29000000E-01  7.29000000E-01  7.29000000E-01
  1.00000000E+00  1.70400000E+00  3.23000000E-01  3.89000000E-01  4.67000000E-01
  5.67000000E-01  6.36000000E-01  6.64000000E-01  6.96000000E-01  8.79000000E-01
  3.07000000E-01  3.48000000E-01  4.00000000E-01  4.54000000E-01  5.09000000E-01
  5.65000000E-01  6.21000000E-01  6.77000000E-01  2.56000000E-01  3.50000000E-01
  3.64000000E-01  3.62000000E-01  3.62000000E-01  3.62000000E-01  3.62000000E-01
  3.65000000E-01  3.69000000E-01  3.75000000E-01  3.86000000E-01  4.46000000E-01
  4.55000000E-01  4.74000000E-01  4.96000000E-01  5.20000000E-01  5.45000000E-01
  5.70000000E-01  2.45000000E-01  3.22000000E-01  3.55000000E-01  3.59000000E-01
  3.64000000E-01  3.70000000E-01  3.76000000E-01  3.85000000E-01  3.95000000E-01
  4.08000000E-01  3.76000000E-01  4.23000000E-01  4.22000000E-01  4.32000000E-01
  4.45000000E-01  4.59000000E-01  4.75000000E-01  4.91000000E-01  2.28000000E-01
  2.92000000E-01  2.89000000E-01  2.92000000E-01  2.95000000E-01  2.98000000E-01
  3.00000000E-01  3.03000000E-01  3.06000000E-01  3.09000000E-01  3.12000000E-01
  3.15000000E-01  3.18000000E-01  3.21000000E-01  3.24000000E-01  3.61000000E-01
  3.69000000E-01  3.70000000E-01  3.72000000E-01  3.75000000E-01  3.78000000E-01
  3.85000000E-01  3.94000000E-01  4.07000000E-01  5.26000000E-01  6.21000000E-01
  3.36000000E-01  3.54000000E-01  3.71000000E-01  3.86000000E-01  4.02000000E-01
  4.17000000E-01  2.09000000E-01  2.94000000E-01  2.65000000E-01  2.72000000E-01
  2.78000000E-01  2.84000000E-01  2.91000000E-01  2.97000000E-01  3.03000000E-01
  3.10000000E-01  3.16000000E-01  3.22000000E-01  3.29000000E-01  3.35000000E-01
  3.41000000E-01  3.48000000E-01  3.54000000E-01  3.54000000E-01  3.54000000E-01
  3.54000000E-01  3.54000000E-01  3.54000000E-01  3.54000000E-01  3.54000000E-01
  3.54000000E-01  3.54000000E-01  3.54000000E-01  3.54000000E-01  3.54000000E-01
  3.54000000E-01  3.54000000E-01  3.54000000E-01  3.54000000E-01  3.54000000E-01
  3.54000000E-01  3.54000000E-01  3.54000000E-01  3.54000000E-01  3.54000000E-01
  3.54000000E-01  3.54000000E-01  3.54000000E-01  3.54000000E-01  3.54000000E-01
  3.54000000E-01  3.54000000E-01  3.54000000E-01  3.54000000E-01  3.54000000E-01
  3.54000000E-01  3.54000000E-01  3.54000000E-01  3.54000000E-01  3.54000000E-01
  3.54000000E-01  3.54000000E-01  3.54000000E-01  3.54000000E-01  3.54000000E-01
  3.54000000E-01  3.54000000E-01  3.54000000E-01  3.54000000E-01  3.54000000E-01
  3.54000000E-01  3.54000000E-01  3.54000000E-01  3.54000000E-01  3.54000000E-01
  3.54000000E-01  3.54000000E-01  3.54000000E-01  3.54000000E-01  3.54000000E-01
  3.54000000E-01  3.54000000E-01  3.54000000E-01  3.54000000E-01  3.54000000E-01
  3.54000000E-01  3.54000000E-01  3.54000000E-01  3.54000000E-01  3.54000000E-01
  3.54000000E-01  3.54000000E-01  3.54000000E-01  3.54000000E-01  3.54000000E-01
  3.54000000E-01  3.54000000E-01  3.54000000E-01  3.54000000E-01  3.54000000E-01
  3.54000000E-01  3.54000000E-01  3.54000000E-01  3.54000000E-01  3.54000000E-01
  3.54000000E-01  3.54000000E-01  3.54000000E-01  3.54000000E-01  3.54000000E-01
  3.54000000E-01  3.54000000E-01  3.54000000E-01  3.54000000E-01  3.54000000E-01
  3.54000000E-01  3.54000000E-01  3.54000000E-01  3.54000000E-01  3.54000000E-01
  2.74000000E-01  2.96000000E-01  5.80000000E-02  4.40000000E-02  3.90000000E-02
  3.90000000E-02  3.60000000E-02  3.20000000E-02  2.90000000E-02  3.30000000E-02
  5.50000000E-02  3.90000000E-02  3.30000000E-02  3.00000000E-02  2.80000000E-02
  2.60000000E-02  2.50000000E-02  2.50000000E-02  4.50000000E-02  4.40000000E-02
  3.30000000E-02  2.50000000E-02  2.10000000E-02  1.80000000E-02  1.50000000E-02
  1.80000000E-02  2.10000000E-02  2.50000000E-02  3.30000000E-02  5.00000000E-02
  3.80000000E-02  3.10000000E-02  2.70000000E-02  2.40000000E-02  2.20000000E-02
  2.10000000E-02  4.30000000E-02  4.00000000E-02  3.20000000E-02  2.50000000E-02
  2.10000000E-02  1.80000000E-02  1.60000000E-02  1.90000000E-02  2.20000000E-02
  2.80000000E-02  3.10000000E-02  4.70000000E-02  3.40000000E-02  2.80000000E-02
  2.40000000E-02  2.10000000E-02  1.90000000E-02  1.80000000E-02  3.90000000E-02
  3.60000000E-02  2.50000000E-02  2.50000000E-02  2.50000000E-02  2.60000000E-02
  2.60000000E-02  2.60000000E-02  2.70000000E-02  2.70000000E-02  2.70000000E-02
  2.70000000E-02  2.80000000E-02  2.80000000E-02  2.80000000E-02  3.30000000E-02
  3.30000000E-02  2.60000000E-02  2.10000000E-02  1.80000000E-02  1.60000000E-02
  1.80000000E-02  2.20000000E-02  2.60000000E-02  4.90000000E-02  8.20000000E-02
  3.00000000E-02  2.40000000E-02  2.10000000E-02  1.80000000E-02  1.60000000E-02
  1.50000000E-02  3.50000000E-02  3.60000000E-02  2.20000000E-02  2.30000000E-02
  2.40000000E-02  2.40000000E-02  2.50000000E-02  2.50000000E-02  2.60000000E-02
  2.70000000E-02  2.70000000E-02  2.80000000E-02  2.80000000E-02  2.90000000E-02
  3.00000000E-02  3.00000000E-02  3.10000000E-02  3.10000000E-02  3.10000000E-02
  3.10000000E-02  3.10000000E-02  3.10000000E-02  3.10000000E-02  3.10000000E-02
  3.10000000E-02  3.10000000E-02  3.10000000E-02  3.10000000E-02  3.10000000E-02
  3.10000000E-02  3.10000000E-02  3.10000000E-02  3.10000000E-02  3.10000000E-02
  3.10000000E-02  3.10000000E-02  3.10000000E-02  3.10000000E-02  3.10000000E-02
  3.10000000E-02  3.10000000E-02  3.10000000E-02  3.10000000E-02  3.10000000E-02
  3.10000000E-02  3.10000000E-02  3.10000000E-02  3.10000000E-02  3.10000000E-02
  3.10000000E-02  3.10000000E-02  3.10000000E-02  3.10000000E-02  3.10000000E-02
  3.10000000E-02  3.10000000E-02  3.10000000E-02  3.10000000E-02  3.10000000E-02
  3.10000000E-02  3.10000000E-02  3.10000000E-02  3.10000000E-02  3.10000000E-02
  3.10000000E-02  3.10000000E-02  3.10000000E-02  3.10000000E-02  3.10000000E-02
  3.10000000E-02  3.10000000E-02  3.10000000E-02  3.10000000E-02  3.10000000E-02
  3.10000000E-02  3.10000000E-02  3.10000000E-02  3.10000000E-02  3.10000000E-02
  3.10000000E-02  3.10000000E-02  3.10000000E-02  3.10000000E-02  3.10000000E-02
  3.10000000E-02  3.10000000E-02  3.10000000E-02  3.10000000E-02  3.10000000E-02
  3.10000000E-02  3.10000000E-02  3.10000000E-02  3.10000000E-02  3.10000000E-02
  3.10000000E-02  3.10000000E-02  3.10000000E-02  3.10000000E-02  3.10000000E-02
  3.10000000E-02  3.10000000E-02  3.10000000E-02  3.10000000E-02  3.10000000E-02
  3.10000000E-02  3.10000000E-02  3.10000000E-02  3.10000000E-02  3.10000000E-02
  3.10000000E-02  3.10000000E-02  3.10000000E-02  3.10000000E-02  3.10000000E-02
 -5.92770000E-01 -9.17860000E-01 -2.48668000E+00 -8.36430000E-01 -3.18470000E-01
 -4.55790000E-01 -5.70730000E-01 -6.77940000E-01 -7.69860000E-01 -8.51140000E-01
 -1.51908000E+00 -3.18830000E-01 -2.17900000E-01 -3.01260000E-01 -3.72750000E-01
 -4.15890000E-01 -4.45930000E-01 -5.91320000E-01 -9.56370000E-01 -2.88450000E-01
 -4.87320000E-01 -6.34280000E-01 -7.17490000E-01 -7.91980000E-01 -8.68490000E-01
 -9.17520000E-01 -9.54890000E-01 -9.88460000E-01 -1.50055000E+00 -2.92560000E-01
 -2.14960000E-01 -2.91180000E-01 -3.42080000E-01 -3.84480000E-01 -4.34940000E-01
 -5.24310000E-01 -8.10070000E-01 -2.58460000E-01 -4.35550000E-01 -5.32740000E-01
 -6.08450000E-01 -6.10260000E-01 -7.58920000E-01 -8.90130000E-01 -8.45780000E-01
 -8.69340000E-01 -1.38234000E+00 -2.64850000E-01 -1.97280000E-01 -2.65040000E-01
 -2.94470000E-01 -3.16570000E-01 -3.63590000E-01 -4.57840000E-01 -8.61830000E-01
 -1.33004000E+00 -6.82880000E-01 -6.25540000E-01 -6.35430000E-01 -8.79690000E-01
 -9.02690000E-01 -9.59650000E-01 -1.01869000E+00 -6.81170000E-01 -7.96500000E-01
 -9.04950000E-01 -8.34790000E-01 -9.01560000E-01 -9.74130000E-01 -1.03326000E+00
 -7.15490000E-01 -7.83960000E-01 -8.28380000E-01 -5.61040000E-01 -1.03841000E+00
 -8.62500000E-01 -9.59300000E-01 -1.01755000E+00 -7.64900000E-01 -1.29467000E+00
 -1.92740000E-01 -2.56010000E-01 -3.19820000E-01 -1.94660000E-01 -2.60090000E-01
 -4.27990000E-01  0.00000000E+00  0.00000000E+00  0.00000000E+00  0.00000000E+00
  0.00000000E+00  0.00000000E+00  0.00000000E+00  0.00000000E+00  0.00000000E+00
  0.00000000E+00  0.00000000E+00  0.00000000E+00  0.00000000E+00  0.00000000E+00
  0.00000000E+00  0.00000000E+00  0.00000000E+00  0.00000000E+00  0.00000000E+00
  0.00000000E+00  0.00000000E+00  0.00000000E+00  0.00000000E+00  0.00000000E+00
  0.00000000E+00  0.00000000E+00  0.00000000E+00  0.00000000E+00  0.00000000E+00
  0.00000000E+00  0.00000000E+00  0.00000000E+00  0.00000000E+00  0.00000000E+00
  0.00000000E+00  0.00000000E+00  0.00000000E+00  0.00000000E+00  0.00000000E+00
  0.00000000E+00  0.00000000E+00  0.00000000E+00  0.00000000E+00  0.00000000E+00
  0.00000000E+00  0.00000000E+00  0.00000000E+00  0.00000000E+00  0.00000000E+00
  0.00000000E+00  0.00000000E+00  0.00000000E+00  0.00000000E+00  0.00000000E+00
  0.00000000E+00  0.00000000E+00  0.00000000E+00  0.00000000E+00  0.00000000E+00
  0.00000000E+00  0.00000000E+00  0.00000000E+00  0.00000000E+00  0.00000000E+00
  0.00000000E+00  0.00000000E+00  0.00000000E+00  0.00000000E+00  0.00000000E+00
  0.00000000E+00  0.00000000E+00  0.00000000E+00  0.00000000E+00  0.00000000E+00
  0.00000000E+00  0.00000000E+00  0.00000000E+00  0.00000000E+00  0.00000000E+00
  0.00000000E+00  0.00000000E+00  0.00000000E+00  0.00000000E+00  0.00000000E+00
  0.00000000E+00  0.00000000E+00  0.00000000E+00  0.00000000E+00  0.00000000E+00
  0.00000000E+00  0.00000000E+00  0.00000000E+00  0.00000000E+00  0.00000000E+00
  0.00000000E+00  0.00000000E+00  0.00000000E+00  0.00000000E+00  0.00000000E+00
  0.00000000E+00  0.00000000E+00  0.00000000E+00  0.00000000E+00  0.00000000E+00
  0.00000000E+00  0.00000000E+00  0.00000000E+00  0.00000000E+00  0.00000000E+00
  0.00000000E+00  0.00000000E+00  0.00000000E+00  0.00000000E+00  0.00000000E+00
  1.90440000E+00  1.36430000E+00  4.84000000E-01  7.31600000E+00  9.24030000E+00
  8.78200000E+00  5.61290000E+00  4.83340000E+00  3.24870000E+00  2.71090000E+00
  2.01130000E+00  1.50282000E+01  1.46788000E+01  2.13546000E+01  2.38290000E+01
  1.98022000E+01  1.50468000E+01  1.09745000E+01  1.27219000E+01  1.51949000E+01
  1.57342000E+01  2.79222000E+01  1.61366000E+01  2.21252000E+01  2.45676000E+01
  1.96016000E+01  1.79818000E+01  1.72396000E+01  5.01500000E+00  1.92898000E+01
  2.34477000E+01  2.23993000E+01  2.96586000E+01  2.60081000E+01  2.15580000E+01
  1.69594000E+01  1.56479000E+01  1.86897000E+01  1.93530000E+01  3.43444000E+01
  1.98480000E+01  2.72140000E+01  3.02182000E+01  2.41099000E+01  2.21176000E+01
  2.12047000E+01  7.56690000E+00  2.37264000E+01  2.93879000E+01  3.01278000E+01
  4.19382000E+01  3.85203000E+01  3.39511000E+01  2.75774000E+01  1.56460000E+01
  1.04460000E+01  2.01830000E+01  4.99540000E+01  4.76430000E+01  1.18690000E+01
  1.08670000E+01  9.96100000E+00  9.18700000E+00  3.67980000E+01  1.34070000E+01
  9.38200000E+00  9.81700000E+00  8.90800000E+00  8.40700000E+00  8.05800000E+00
  1.29600000E+01  2.67920000E+01  2.49300000E+01  3.45630000E+01  1.11860000E+01
  1.09440000E+01  1.01270000E+01  9.40400000E+00  1.36660000E+01  7.81000000E+00
  6.93600000E+01  5.86630000E+01  4.79690000E+01  4.52740000E+01  3.92290000E+01
  3.30660000E+01  0.00000000E+00  0.00000000E+00  0.00000000E+00  0.00000000E+00
  0.00000000E+00  0.00000000E+00  0.00000000E+00  0.00000000E+00  0.00000000E+00
  0.00000000E+00  0.00000000E+00  0.00000000E+00  0.00000000E+00  0.00000000E+00
  0.00000000E+00  0.00000000E+00  0.00000000E+00  0.00000000E+00  0.00000000E+00
  0.00000000E+00  0.00000000E+00  0.00000000E+00  0.00000000E+00  0.00000000E+00
  0.00000000E+00  0.00000000E+00  0.00000000E+00  0.00000000E+00  0.00000000E+00
  0.00000000E+00  0.00000000E+00  0.00000000E+00  0.00000000E+00  0.00000000E+00
  0.00000000E+00  0.00000000E+00  0.00000000E+00  0.00000000E+00  0.00000000E+00
  0.00000000E+00  0.00000000E+00  0.00000000E+00  0.00000000E+00  0.00000000E+00
  0.00000000E+00  0.00000000E+00  0.00000000E+00  0.00000000E+00  0.00000000E+00
  0.00000000E+00  0.00000000E+00  0.00000000E+00  0.00000000E+00  0.00000000E+00
  0.00000000E+00  0.00000000E+00  0.00000000E+00  0.00000000E+00  0.00000000E+00
  0.00000000E+00  0.00000000E+00  0.00000000E+00  0.00000000E+00  0.00000000E+00
  0.00000000E+00  0.00000000E+00  0.00000000E+00  0.00000000E+00  0.00000000E+00
  0.00000000E+00  0.00000000E+00  0.00000000E+00  0.00000000E+00  0.00000000E+00
  0.00000000E+00  0.00000000E+00  0.00000000E+00  0.00000000E+00  0.00000000E+00
  0.00000000E+00  0.00000000E+00  0.00000000E+00  0.00000000E+00  0.00000000E+00
  0.00000000E+00  0.00000000E+00  0.00000000E+00  0.00000000E+00  0.00000000E+00
  0.00000000E+00  0.00000000E+00  0.00000000E+00  0.00000000E+00  0.00000000E+00
  0.00000000E+00  0.00000000E+00  0.00000000E+00  0.00000000E+00  0.00000000E+00
  0.00000000E+00  0.00000000E+00  0.00000000E+00  0.00000000E+00  0.00000000E+00
  0.00000000E+00  0.00000000E+00  0.00000000E+00  0.00000000E+00  0.00000000E+00
  0.00000000E+00  0.00000000E+00  0.00000000E+00  0.00000000E+00  0.00000000E+00
  0.00000000E+00  0.00000000E+00  0.00000000E+00  0.00000000E+00  0.00000000E+00
  0.00000000E+00  0.00000000E+00  0.00000000E+00  0.00000000E+00  0.00000000E+00
  0.00000000E+00  0.00000000E+00  0.00000000E+00  0.00000000E+00  0.00000000E+00
  0.00000000E+00  0.00000000E+00  0.00000000E+00  0.00000000E+00  0.00000000E+00
  0.00000000E+00  0.00000000E+00  0.00000000E+00  0.00000000E+00  0.00000000E+00
  0.00000000E+00  0.00000000E+00  0.00000000E+00  0.00000000E+00  0.00000000E+00
  0.00000000E+00  0.00000000E+00  0.00000000E+00  0.00000000E+00  0.00000000E+00
  0.00000000E+00  0.00000000E+00  0.00000000E+00  0.00000000E+00  0.00000000E+00
  0.00000000E+00  0.00000000E+00  0.00000000E+00  0.00000000E+00  0.00000000E+00
  0.00000000E+00  0.00000000E+00  0.00000000E+00  0.00000000E+00  0.00000000E+00
  0.00000000E+00  0.00000000E+00  0.00000000E+00  0.00000000E+00  0.00000000E+00
  0.00000000E+00  0.00000000E+00  0.00000000E+00  0.00000000E+00  0.00000000E+00
  0.00000000E+00  0.00000000E+00  0.00000000E+00  0.00000000E+00  0.00000000E+00
  0.00000000E+00  0.00000000E+00  0.00000000E+00  0.00000000E+00  0.00000000E+00
  0.00000000E+00  0.00000000E+00  0.00000000E+00  0.00000000E+00  0.00000000E+00
  0.00000000E+00  0.00000000E+00  0.00000000E+00  0.00000000E+00  0.00000000E+00
  0.00000000E+00  0.00000000E+00  0.00000000E+00  0.00000000E+00  0.00000000E+00
  0.00000000E+00  0.00000000E+00  0.00000000E+00  0.00000000E+00  0.00000000E+00
  0.00000000E+00  0.00000000E+00  0.00000000E+00  0.00000000E+00  0.00000000E+00
  0.00000000E+00  0.00000000E+00  0.00000000E+00  0.00000000E+00  0.00000000E+00
  0.00000000E+00  0.00000000E+00  0.00000000E+00  0.00000000E+00  0.00000000E+00
  0.00000000E+00  0.00000000E+00  0.00000000E+00  0.00000000E+00  0.00000000E+00
  0.00000000E+00  0.00000000E+00  0.00000000E+00  0.00000000E+00  0.00000000E+00
  0.00000000E+00  0.00000000E+00  0.00000000E+00  0.00000000E+00  0.00000000E+00
  0.00000000E+00  0.00000000E+00  0.00000000E+00  0.00000000E+00  0.00000000E+00
  0.00000000E+00  0.00000000E+00  0.00000000E+00  0.00000000E+00  0.00000000E+00
  0.00000000E+00  0.00000000E+00  0.00000000E+00  0.00000000E+00  0.00000000E+00
  0.00000000E+00  0.00000000E+00  0.00000000E+00  0.00000000E+00  0.00000000E+00
  0.00000000E+00  0.00000000E+00  0.00000000E+00  0.00000000E+00  0.00000000E+00
  0.00000000E+00  0.00000000E+00  0.00000000E+00  0.00000000E+00  0.00000000E+00
  0.00000000E+00  0.00000000E+00  0.00000000E+00  0.00000000E+00  0.00000000E+00
  0.00000000E+00  0.00000000E+00  0.00000000E+00  0.00000000E+00  0.00000000E+00
  0.00000000E+00  0.00000000E+00  0.00000000E+00  0.00000000E+00  0.00000000E+00
  0.00000000E+00  0.00000000E+00  0.00000000E+00  0.00000000E+00  0.00000000E+00
  0.00000000E+00  0.00000000E+00  0.00000000E+00  0.00000000E+00  0.00000000E+00
  0.00000000E+00  0.00000000E+00  0.00000000E+00  0.00000000E+00  0.00000000E+00
  0.00000000E+00  0.00000000E+00  0.00000000E+00  0.00000000E+00  0.00000000E+00
  0.00000000E+00  0.00000000E+00  0.00000000E+00  0.00000000E+00  0.00000000E+00
  0.00000000E+00  0.00000000E+00  0.00000000E+00  0.00000000E+00  0.00000000E+00
  0.00000000E+00  0.00000000E+00  0.00000000E+00  0.00000000E+00  0.00000000E+00
  0.00000000E+00  0.00000000E+00  0.00000000E+00  0.00000000E+00  0.00000000E+00
  0.00000000E+00  0.00000000E+00  0.00000000E+00  0.00000000E+00  0.00000000E+00
  0.00000000E+00  0.00000000E+00  0.00000000E+00  0.00000000E+00  0.00000000E+00
  0.00000000E+00  0.00000000E+00  0.00000000E+00  0.00000000E+00  0.00000000E+00
  0.00000000E+00  0.00000000E+00  0.00000000E+00  0.00000000E+00  0.00000000E+00
  0.00000000E+00  0.00000000E+00  0.00000000E+00  0.00000000E+00  0.00000000E+00
  0.00000000E+00  0.00000000E+00  0.00000000E+00  0.00000000E+00  0.00000000E+00
  0.00000000E+00  0.00000000E+00  0.00000000E+00  0.00000000E+00  0.00000000E+00
  0.00000000E+00  0.00000000E+00  0.00000000E+00  0.00000000E+00  0.00000000E+00
  0.00000000E+00  0.00000000E+00  0.00000000E+00  0.00000000E+00  0.00000000E+00
  0.00000000E+00  0.00000000E+00  0.00000000E+00  0.00000000E+00  0.00000000E+00
  0.00000000E+00  0.00000000E+00  0.00000000E+00  0.00000000E+00  0.00000000E+00
  0.00000000E+00  0.00000000E+00  0.00000000E+00  0.00000000E+00  0.00000000E+00
  0.00000000E+00  0.00000000E+00  0.00000000E+00  0.00000000E+00  0.00000000E+00
  0.00000000E+00  0.00000000E+00  0.00000000E+00  0.00000000E+00  0.00000000E+00
  0.00000000E+00  0.00000000E+00  0.00000000E+00  0.00000000E+00  0.00000000E+00
  0.00000000E+00  0.00000000E+00  0.00000000E+00  0.00000000E+00  0.00000000E+00
  0.00000000E+00  0.00000000E+00  0.00000000E+00  0.00000000E+00  0.00000000E+00
  0.00000000E+00  0.00000000E+00  0.00000000E+00  0.00000000E+00  0.00000000E+00
  0.00000000E+00  0.00000000E+00  0.00000000E+00  0.00000000E+00  0.00000000E+00
  0.00000000E+00  0.00000000E+00  0.00000000E+00  0.00000000E+00  0.00000000E+00
  0.00000000E+00  0.00000000E+00  0.00000000E+00  0.00000000E+00  0.00000000E+00
  0.00000000E+00  0.00000000E+00  0.00000000E+00  0.00000000E+00  0.00000000E+00
  0.00000000E+00  0.00000000E+00  0.00000000E+00  0.00000000E+00  0.00000000E+00
  0.00000000E+00  0.00000000E+00  0.00000000E+00  0.00000000E+00  0.00000000E+00
  0.00000000E+00  0.00000000E+00  0.00000000E+00  0.00000000E+00  0.00000000E+00
  0.00000000E+00  0.00000000E+00  0.00000000E+00  0.00000000E+00  0.00000000E+00
  0.00000000E+00  0.00000000E+00  0.00000000E+00  0.00000000E+00  0.00000000E+00
  0.00000000E+00  0.00000000E+00  0.00000000E+00  0.00000000E+00  0.00000000E+00
  0.00000000E+00  0.00000000E+00  0.00000000E+00  0.00000000E+00  0.00000000E+00
  0.00000000E+00  0.00000000E+00  0.00000000E+00  0.00000000E+00  0.00000000E+00
  0.00000000E+00  0.00000000E+00  0.00000000E+00  0.00000000E+00  0.00000000E+00
  0.00000000E+00  0.00000000E+00  0.00000000E+00  0.00000000E+00  0.00000000E+00
  0.00000000E+00  0.00000000E+00  0.00000000E+00  0.00000000E+00  0.00000000E+00
  0.00000000E+00  0.00000000E+00  0.00000000E+00  0.00000000E+00  0.00000000E+00
  0.00000000E+00  0.00000000E+00  0.00000000E+00  0.00000000E+00  0.00000000E+00
  0.00000000E+00  0.00000000E+00  0.00000000E+00  0.00000000E+00  0.00000000E+00
  0.00000000E+00  0.00000000E+00  0.00000000E+00  0.00000000E+00  0.00000000E+00
  0.00000000E+00  0.00000000E+00  0.00000000E+00  0.00000000E+00  0.00000000E+00
  0.00000000E+00  0.00000000E+00  0.00000000E+00  0.00000000E+00  0.00000000E+00
  0.00000000E+00  0.00000000E+00  0.00000000E+00  0.00000000E+00  0.00000000E+00
  0.00000000E+00  0.00000000E+00  0.00000000E+00  0.00000000E+00  0.00000000E+00
  0.00000000E+00  0.00000000E+00  0.00000000E+00  0.00000000E+00  0.00000000E+00
  0.00000000E+00  0.00000000E+00  0.00000000E+00  0.00000000E+00  0.00000000E+00
  0.00000000E+00  0.00000000E+00  0.00000000E+00  0.00000000E+00  0.00000000E+00
  0.00000000E+00  0.00000000E+00  0.00000000E+00  0.00000000E+00  0.00000000E+00
  0.00000000E+00  0.00000000E+00  0.00000000E+00  0.00000000E+00  0.00000000E+00
  0.00000000E+00  0.00000000E+00  0.00000000E+00  0.00000000E+00  0.00000000E+00
  0.00000000E+00  0.00000000E+00  0.00000000E+00  0.00000000E+00  0.00000000E+00
  0.00000000E+00  0.00000000E+00  0.00000000E+00  0.00000000E+00  0.00000000E+00
  0.00000000E+00  0.00000000E+00  0.00000000E+00  0.00000000E+00  0.00000000E+00
  0.00000000E+00  0.00000000E+00  0.00000000E+00  0.00000000E+00  0.00000000E+00
  0.00000000E+00  0.00000000E+00  0.00000000E+00  0.00000000E+00  0.00000000E+00
  0.00000000E+00  0.00000000E+00  0.00000000E+00  0.00000000E+00  0.00000000E+00
  0.00000000E+00  0.00000000E+00  0.00000000E+00  0.00000000E+00  0.00000000E+00
  0.00000000E+00  0.00000000E+00  0.00000000E+00  0.00000000E+00  0.00000000E+00
  0.00000000E+00  0.00000000E+00  0.00000000E+00  0.00000000E+00  0.00000000E+00
  0.00000000E+00  0.00000000E+00  0.00000000E+00  0.00000000E+00  0.00000000E+00
  0.00000000E+00  0.00000000E+00  0.00000000E+00  0.00000000E+00  0.00000000E+00
  0.00000000E+00  0.00000000E+00  0.00000000E+00  0.00000000E+00  0.00000000E+00
  0.00000000E+00  0.00000000E+00  0.00000000E+00  0.00000000E+00  0.00000000E+00
  0.00000000E+00  0.00000000E+00  0.00000000E+00  0.00000000E+00  0.00000000E+00
  0.00000000E+00  0.00000000E+00  0.00000000E+00  0.00000000E+00  0.00000000E+00
  0.00000000E+00  0.00000000E+00  0.00000000E+00  0.00000000E+00  0.00000000E+00
  0.00000000E+00  0.00000000E+00  0.00000000E+00  0.00000000E+00  0.00000000E+00
  0.00000000E+00  0.00000000E+00  0.00000000E+00  0.00000000E+00  0.00000000E+00
  0.00000000E+00  0.00000000E+00  0.00000000E+00  0.00000000E+00  0.00000000E+00
  0.00000000E+00  0.00000000E+00  0.00000000E+00  0.00000000E+00  0.00000000E+00
  0.00000000E+00  0.00000000E+00  0.00000000E+00  0.00000000E+00  0.00000000E+00
  0.00000000E+00  0.00000000E+00  0.00000000E+00  0.00000000E+00  0.00000000E+00
  0.00000000E+00  0.00000000E+00  0.00000000E+00  0.00000000E+00  0.00000000E+00
  0.00000000E+00  0.00000000E+00  0.00000000E+00  0.00000000E+00  0.00000000E+00
  0.00000000E+00  0.00000000E+00  0.00000000E+00  0.00000000E+00  0.00000000E+00
  0.00000000E+00  0.00000000E+00  0.00000000E+00  0.00000000E+00  0.00000000E+00
  0.00000000E+00  0.00000000E+00  0.00000000E+00  0.00000000E+00  0.00000000E+00
  0.00000000E+00  0.00000000E+00  0.00000000E+00  0.00000000E+00  0.00000000E+00
  0.00000000E+00  0.00000000E+00  0.00000000E+00  0.00000000E+00  0.00000000E+00
  0.00000000E+00  0.00000000E+00  0.00000000E+00  0.00000000E+00  0.00000000E+00
  0.00000000E+00  0.00000000E+00  0.00000000E+00  0.00000000E+00  0.00000000E+00
  0.00000000E+00  0.00000000E+00  0.00000000E+00  0.00000000E+00  0.00000000E+00
  0.00000000E+00  0.00000000E+00  0.00000000E+00  0.00000000E+00  0.00000000E+00
  0.00000000E+00  0.00000000E+00  0.00000000E+00  0.00000000E+00  0.00000000E+00
  0.00000000E+00  0.00000000E+00  0.00000000E+00  0.00000000E+00  0.00000000E+00
  0.00000000E+00  0.00000000E+00  0.00000000E+00  0.00000000E+00  0.00000000E+00
  0.00000000E+00  0.00000000E+00  0.00000000E+00  0.00000000E+00  0.00000000E+00
  0.00000000E+00  0.00000000E+00  0.00000000E+00  0.00000000E+00  0.00000000E+00
  0.00000000E+00  0.00000000E+00  0.00000000E+00  0.00000000E+00  0.00000000E+00
  0.00000000E+00  0.00000000E+00  0.00000000E+00  0.00000000E+00  0.00000000E+00
  0.00000000E+00  0.00000000E+00  0.00000000E+00  0.00000000E+00  0.00000000E+00
  0.00000000E+00  0.00000000E+00  0.00000000E+00  0.00000000E+00  0.00000000E+00
  0.00000000E+00  0.00000000E+00  0.00000000E+00  0.00000000E+00  0.00000000E+00
  0.00000000E+00  0.00000000E+00  0.00000000E+00  0.00000000E+00  0.00000000E+00
  0.00000000E+00  0.00000000E+00  0.00000000E+00  0.00000000E+00  0.00000000E+00
  0.00000000E+00  0.00000000E+00  0.00000000E+00  0.00000000E+00  0.00000000E+00
  0.00000000E+00  0.00000000E+00  0.00000000E+00  0.00000000E+00  0.00000000E+00
  0.00000000E+00  0.00000000E+00  0.00000000E+00  0.00000000E+00  0.00000000E+00
  0.00000000E+00  0.00000000E+00  0.00000000E+00  0.00000000E+00  0.00000000E+00
  0.00000000E+00  0.00000000E+00  0.00000000E+00  0.00000000E+00  0.00000000E+00
  0.00000000E+00  0.00000000E+00  0.00000000E+00  0.00000000E+00  0.00000000E+00
  0.00000000E+00  0.00000000E+00  0.00000000E+00  0.00000000E+00  0.00000000E+00
  0.00000000E+00  0.00000000E+00  0.00000000E+00  0.00000000E+00  0.00000000E+00
  0.00000000E+00  0.00000000E+00  0.00000000E+00  0.00000000E+00  0.00000000E+00
  0.00000000E+00  0.00000000E+00  0.00000000E+00  0.00000000E+00  0.00000000E+00
  0.00000000E+00  0.00000000E+00  0.00000000E+00  0.00000000E+00  0.00000000E+00
  0.00000000E+00  0.00000000E+00  0.00000000E+00  0.00000000E+00  0.00000000E+00
  0.00000000E+00  0.00000000E+00  0.00000000E+00  0.00000000E+00  0.00000000E+00
  0.00000000E+00  0.00000000E+00  0.00000000E+00  0.00000000E+00  0.00000000E+00
  0.00000000E+00  0.00000000E+00  0.00000000E+00  0.00000000E+00  0.00000000E+00
  0.00000000E+00  0.00000000E+00  0.00000000E+00  0.00000000E+00  0.00000000E+00
  0.00000000E+00  0.00000000E+00  0.00000000E+00  0.00000000E+00  0.00000000E+00
  0.00000000E+00  0.00000000E+00  0.00000000E+00  0.00000000E+00  0.00000000E+00
  0.00000000E+00  0.00000000E+00  0.00000000E+00  0.00000000E+00  0.00000000E+00
  0.00000000E+00  0.00000000E+00  0.00000000E+00  0.00000000E+00  0.00000000E+00
  0.00000000E+00  0.00000000E+00  0.00000000E+00  0.00000000E+00  0.00000000E+00
  0.00000000E+00  0.00000000E+00  0.00000000E+00  0.00000000E+00  0.00000000E+00
  0.00000000E+00  0.00000000E+00  0.00000000E+00  0.00000000E+00  0.00000000E+00
  0.00000000E+00  0.00000000E+00  0.00000000E+00  0.00000000E+00  0.00000000E+00
  0.00000000E+00  0.00000000E+00  0.00000000E+00  0.00000000E+00  0.00000000E+00
  0.00000000E+00  0.00000000E+00  0.00000000E+00  0.00000000E+00  0.00000000E+00
  0.00000000E+00  0.00000000E+00  0.00000000E+00  0.00000000E+00  0.00000000E+00
  0.00000000E+00  0.00000000E+00  0.00000000E+00  0.00000000E+00  0.00000000E+00
  0.00000000E+00  0.00000000E+00  0.00000000E+00  0.00000000E+00  0.00000000E+00
  0.00000000E+00  0.00000000E+00  0.00000000E+00  0.00000000E+00  0.00000000E+00
  0.00000000E+00  0.00000000E+00  0.00000000E+00  0.00000000E+00  0.00000000E+00
  0.00000000E+00  0.00000000E+00  0.00000000E+00  0.00000000E+00  0.00000000E+00
  0.00000000E+00  0.00000000E+00  0.00000000E+00  0.00000000E+00  0.00000000E+00
  0.00000000E+00  0.00000000E+00  0.00000000E+00  0.00000000E+00  0.00000000E+00
  0.00000000E+00  0.00000000E+00  0.00000000E+00  0.00000000E+00  0.00000000E+00
  0.00000000E+00  0.00000000E+00  0.00000000E+00  0.00000000E+00  0.00000000E+00
  0.00000000E+00  0.00000000E+00  0.00000000E+00  0.00000000E+00  0.00000000E+00
  0.00000000E+00  0.00000000E+00  0.00000000E+00  0.00000000E+00  0.00000000E+00
  0.00000000E+00  0.00000000E+00  0.00000000E+00  0.00000000E+00  0.00000000E+00
  0.00000000E+00  0.00000000E+00  0.00000000E+00  0.00000000E+00  0.00000000E+00
  0.00000000E+00  0.00000000E+00  0.00000000E+00  0.00000000E+00  0.00000000E+00
  0.00000000E+00  0.00000000E+00  0.00000000E+00  0.00000000E+00  0.00000000E+00
  0.00000000E+00  0.00000000E+00  0.00000000E+00  0.00000000E+00  0.00000000E+00
  0.00000000E+00  0.00000000E+00  0.00000000E+00  0.00000000E+00  0.00000000E+00
  0.00000000E+00  0.00000000E+00  0.00000000E+00  0.00000000E+00  0.00000000E+00
  0.00000000E+00  0.00000000E+00  0.00000000E+00  0.00000000E+00  0.00000000E+00
  0.00000000E+00  0.00000000E+00  0.00000000E+00  0.00000000E+00  0.00000000E+00
  0.00000000E+00  0.00000000E+00  0.00000000E+00  0.00000000E+00  0.00000000E+00
  0.00000000E+00  0.00000000E+00  0.00000000E+00  0.00000000E+00  0.00000000E+00
  0.00000000E+00  0.00000000E+00  0.00000000E+00  0.00000000E+00  0.00000000E+00
  0.00000000E+00  0.00000000E+00  0.00000000E+00  0.00000000E+00  0.00000000E+00
  0.00000000E+00  0.00000000E+00  0.00000000E+00  0.00000000E+00  0.00000000E+00
  0.00000000E+00  0.00000000E+00  0.00000000E+00  0.00000000E+00  0.00000000E+00
  0.00000000E+00  0.00000000E+00  0.00000000E+00  0.00000000E+00  0.00000000E+00
  0.00000000E+00  0.00000000E+00  0.00000000E+00  0.00000000E+00  0.00000000E+00
  0.00000000E+00  0.00000000E+00  0.00000000E+00  0.00000000E+00  0.00000000E+00
  0.00000000E+00  0.00000000E+00  0.00000000E+00  0.00000000E+00  0.00000000E+00
  0.00000000E+00  0.00000000E+00  0.00000000E+00  0.00000000E+00  0.00000000E+00
  0.00000000E+00  0.00000000E+00  0.00000000E+00  0.00000000E+00  0.00000000E+00
  0.00000000E+00  0.00000000E+00  0.00000000E+00  0.00000000E+00  0.00000000E+00
  0.00000000E+00  0.00000000E+00  0.00000000E+00  0.00000000E+00  0.00000000E+00
  0.00000000E+00  0.00000000E+00  0.00000000E+00  0.00000000E+00  0.00000000E+00
  0.00000000E+00  0.00000000E+00  0.00000000E+00  0.00000000E+00  0.00000000E+00
  0.00000000E+00  0.00000000E+00  0.00000000E+00  0.00000000E+00  0.00000000E+00
  0.00000000E+00  0.00000000E+00  0.00000000E+00  0.00000000E+00  0.00000000E+00
  0.00000000E+00  0.00000000E+00  0.00000000E+00  0.00000000E+00  0.00000000E+00
  0.00000000E+00  0.00000000E+00  0.00000000E+00  0.00000000E+00  0.00000000E+00
  0.00000000E+00  0.00000000E+00  0.00000000E+00  0.00000000E+00  0.00000000E+00
  0.00000000E+00  0.00000000E+00  0.00000000E+00  0.00000000E+00  0.00000000E+00
  0.00000000E+00  0.00000000E+00  0.00000000E+00  0.00000000E+00  0.00000000E+00
  0.00000000E+00  0.00000000E+00  0.00000000E+00  0.00000000E+00  0.00000000E+00
  0.00000000E+00  0.00000000E+00  0.00000000E+00  0.00000000E+00  0.00000000E+00
  0.00000000E+00  0.00000000E+00  0.00000000E+00  0.00000000E+00  0.00000000E+00
  0.00000000E+00  0.00000000E+00  0.00000000E+00  0.00000000E+00  0.00000000E+00
  0.00000000E+00  0.00000000E+00  0.00000000E+00  0.00000000E+00  0.00000000E+00
  0.00000000E+00  0.00000000E+00  0.00000000E+00  0.00000000E+00  0.00000000E+00
  0.00000000E+00  0.00000000E+00  0.00000000E+00  0.00000000E+00  0.00000000E+00
  0.00000000E+00  0.00000000E+00  0.00000000E+00  0.00000000E+00  0.00000000E+00
  0.00000000E+00  0.00000000E+00  0.00000000E+00  0.00000000E+00  0.00000000E+00
  0.00000000E+00  0.00000000E+00  0.00000000E+00  0.00000000E+00  0.00000000E+00
  0.00000000E+00  0.00000000E+00  0.00000000E+00  0.00000000E+00  0.00000000E+00
  0.00000000E+00  0.00000000E+00  0.00000000E+00  0.00000000E+00  0.00000000E+00
  0.00000000E+00  0.00000000E+00  0.00000000E+00  0.00000000E+00  0.00000000E+00
  0.00000000E+00  0.00000000E+00  0.00000000E+00  0.00000000E+00  0.00000000E+00
  0.00000000E+00  0.00000000E+00  0.00000000E+00  0.00000000E+00  0.00000000E+00
  0.00000000E+00  0.00000000E+00  0.00000000E+00  0.00000000E+00  0.00000000E+00
  0.00000000E+00  0.00000000E+00  0.00000000E+00  0.00000000E+00  0.00000000E+00
  0.00000000E+00  0.00000000E+00  0.00000000E+00  0.00000000E+00  0.00000000E+00
  0.00000000E+00  0.00000000E+00  0.00000000E+00  0.00000000E+00  0.00000000E+00
  0.00000000E+00  0.00000000E+00  0.00000000E+00  0.00000000E+00  0.00000000E+00
  0.00000000E+00  0.00000000E+00  0.00000000E+00  0.00000000E+00  0.00000000E+00
  0.00000000E+00  0.00000000E+00  0.00000000E+00  0.00000000E+00  0.00000000E+00
  0.00000000E+00  0.00000000E+00  0.00000000E+00  0.00000000E+00  0.00000000E+00
  0.00000000E+00  0.00000000E+00  0.00000000E+00  0.00000000E+00  0.00000000E+00
  0.00000000E+00  0.00000000E+00  0.00000000E+00  0.00000000E+00  0.00000000E+00
  0.00000000E+00  0.00000000E+00  0.00000000E+00  0.00000000E+00  0.00000000E+00
  0.00000000E+00  0.00000000E+00  0.00000000E+00  0.00000000E+00  0.00000000E+00
  0.00000000E+00  0.00000000E+00  0.00000000E+00  0.00000000E+00  0.00000000E+00
  0.00000000E+00  0.00000000E+00  0.00000000E+00  0.00000000E+00  0.00000000E+00
  0.00000000E+00  0.00000000E+00  0.00000000E+00  0.00000000E+00  0.00000000E+00
  0.00000000E+00  0.00000000E+00  0.00000000E+00  0.00000000E+00  0.00000000E+00
  0.00000000E+00  0.00000000E+00  0.00000000E+00  0.00000000E+00  0.00000000E+00
  0.00000000E+00  0.00000000E+00  0.00000000E+00  0.00000000E+00  0.00000000E+00
  0.00000000E+00  0.00000000E+00  0.00000000E+00  0.00000000E+00  0.00000000E+00
  0.00000000E+00  0.00000000E+00  0.00000000E+00  0.00000000E+00  0.00000000E+00
  0.00000000E+00  0.00000000E+00  0.00000000E+00  0.00000000E+00  0.00000000E+00
  0.00000000E+00  0.00000000E+00  0.00000000E+00  0.00000000E+00  0.00000000E+00
  0.00000000E+00  0.00000000E+00  0.00000000E+00  0.00000000E+00  0.00000000E+00
  0.00000000E+00  0.00000000E+00  0.00000000E+00  0.00000000E+00  0.00000000E+00
  0.00000000E+00  0.00000000E+00  0.00000000E+00  0.00000000E+00  0.00000000E+00
  0.00000000E+00  0.00000000E+00  0.00000000E+00  0.00000000E+00  0.00000000E+00
  0.00000000E+00  0.00000000E+00  0.00000000E+00  0.00000000E+00  0.00000000E+00
  0.00000000E+00  0.00000000E+00  0.00000000E+00  0.00000000E+00  0.00000000E+00
  0.00000000E+00  0.00000000E+00  0.00000000E+00  0.00000000E+00  0.00000000E+00
  0.00000000E+00  0.00000000E+00  0.00000000E+00  0.00000000E+00  0.00000000E+00
  0.00000000E+00  0.00000000E+00  0.00000000E+00  0.00000000E+00  0.00000000E+00
  0.00000000E+00  0.00000000E+00  0.00000000E+00  0.00000000E+00  0.00000000E+00
  0.00000000E+00  0.00000000E+00  0.00000000E+00  0.00000000E+00  0.00000000E+00
  0.00000000E+00  0.00000000E+00  0.00000000E+00  0.00000000E+00  0.00000000E+00
  0.00000000E+00  0.00000000E+00  0.00000000E+00  0.00000000E+00  0.00000000E+00
  0.00000000E+00  0.00000000E+00  0.00000000E+00  0.00000000E+00  0.00000000E+00
  0.00000000E+00  0.00000000E+00  0.00000000E+00  0.00000000E+00  0.00000000E+00
  0.00000000E+00  0.00000000E+00  0.00000000E+00  0.00000000E+00  0.00000000E+00
  0.00000000E+00  0.00000000E+00  0.00000000E+00  0.00000000E+00  0.00000000E+00
  0.00000000E+00  0.00000000E+00  0.00000000E+00  0.00000000E+00  0.00000000E+00
  0.00000000E+00  0.00000000E+00  0.00000000E+00  0.00000000E+00  0.00000000E+00
  0.00000000E+00  0.00000000E+00  0.00000000E+00  0.00000000E+00  0.00000000E+00
  0.00000000E+00  0.00000000E+00  0.00000000E+00  0.00000000E+00  0.00000000E+00
  0.00000000E+00  0.00000000E+00  0.00000000E+00  0.00000000E+00  0.00000000E+00
  0.00000000E+00  0.00000000E+00  0.00000000E+00  0.00000000E+00  0.00000000E+00
  0.00000000E+00  0.00000000E+00  0.00000000E+00  0.00000000E+00  0.00000000E+00
  0.00000000E+00  0.00000000E+00  0.00000000E+00  0.00000000E+00  0.00000000E+00
  0.00000000E+00  0.00000000E+00  0.00000000E+00  0.00000000E+00  0.00000000E+00
  0.00000000E+00  0.00000000E+00  0.00000000E+00  0.00000000E+00  0.00000000E+00
  0.00000000E+00  0.00000000E+00  0.00000000E+00  0.00000000E+00  0.00000000E+00
  0.00000000E+00  0.00000000E+00  0.00000000E+00  0.00000000E+00  0.00000000E+00
  0.00000000E+00  0.00000000E+00  0.00000000E+00  0.00000000E+00  0.00000000E+00
  0.00000000E+00  0.00000000E+00  0.00000000E+00  0.00000000E+00  0.00000000E+00
  0.00000000E+00  0.00000000E+00  0.00000000E+00  0.00000000E+00  0.00000000E+00
  0.00000000E+00  0.00000000E+00  0.00000000E+00  0.00000000E+00  0.00000000E+00
  0.00000000E+00  0.00000000E+00  0.00000000E+00  0.00000000E+00  0.00000000E+00
  0.00000000E+00  0.00000000E+00  0.00000000E+00  0.00000000E+00  0.00000000E+00
  0.00000000E+00  0.00000000E+00  0.00000000E+00  0.00000000E+00  0.00000000E+00
  0.00000000E+00  0.00000000E+00  0.00000000E+00  0.00000000E+00  0.00000000E+00
  0.00000000E+00  0.00000000E+00  0.00000000E+00  0.00000000E+00  0.00000000E+00
  0.00000000E+00  0.00000000E+00  0.00000000E+00  0.00000000E+00  0.00000000E+00
  0.00000000E+00  0.00000000E+00  0.00000000E+00  0.00000000E+00  0.00000000E+00
  0.00000000E+00  0.00000000E+00  0.00000000E+00  0.00000000E+00  0.00000000E+00
  0.00000000E+00  0.00000000E+00  0.00000000E+00  0.00000000E+00  0.00000000E+00
  0.00000000E+00  0.00000000E+00  0.00000000E+00  0.00000000E+00  0.00000000E+00
  0.00000000E+00  0.00000000E+00  0.00000000E+00  0.00000000E+00  0.00000000E+00
  0.00000000E+00  0.00000000E+00  0.00000000E+00  0.00000000E+00  0.00000000E+00
  0.00000000E+00  0.00000000E+00  0.00000000E+00  0.00000000E+00  0.00000000E+00
  0.00000000E+00  0.00000000E+00  0.00000000E+00  0.00000000E+00  0.00000000E+00
  0.00000000E+00  0.00000000E+00  0.00000000E+00  0.00000000E+00  0.00000000E+00
  0.00000000E+00  0.00000000E+00  0.00000000E+00  0.00000000E+00  0.00000000E+00
  0.00000000E+00  0.00000000E+00  0.00000000E+00  0.00000000E+00  0.00000000E+00
  0.00000000E+00  0.00000000E+00  0.00000000E+00  0.00000000E+00  0.00000000E+00
  0.00000000E+00  0.00000000E+00  0.00000000E+00  0.00000000E+00  0.00000000E+00
  0.00000000E+00  0.00000000E+00  0.00000000E+00  0.00000000E+00  0.00000000E+00
  0.00000000E+00  0.00000000E+00  0.00000000E+00  0.00000000E+00  0.00000000E+00
  0.00000000E+00  0.00000000E+00  0.00000000E+00  0.00000000E+00  0.00000000E+00
  0.00000000E+00  0.00000000E+00  0.00000000E+00  0.00000000E+00  0.00000000E+00
  0.00000000E+00  0.00000000E+00  0.00000000E+00  0.00000000E+00  0.00000000E+00
  0.00000000E+00  0.00000000E+00  0.00000000E+00  0.00000000E+00  0.00000000E+00
  0.00000000E+00  0.00000000E+00  0.00000000E+00  0.00000000E+00  0.00000000E+00
  0.00000000E+00  0.00000000E+00  0.00000000E+00  0.00000000E+00  0.00000000E+00
  0.00000000E+00  0.00000000E+00  0.00000000E+00  0.00000000E+00  0.00000000E+00
  0.00000000E+00  0.00000000E+00  0.00000000E+00  0.00000000E+00  0.00000000E+00
  0.00000000E+00  0.00000000E+00  0.00000000E+00  0.00000000E+00  0.00000000E+00
  0.00000000E+00  0.00000000E+00  0.00000000E+00  0.00000000E+00  0.00000000E+00
  0.00000000E+00  0.00000000E+00  0.00000000E+00  0.00000000E+00  0.00000000E+00
  0.00000000E+00  0.00000000E+00  0.00000000E+00  0.00000000E+00  0.00000000E+00
  0.00000000E+00  0.00000000E+00  0.00000000E+00  0.00000000E+00  0.00000000E+00
  0.00000000E+00  0.00000000E+00  0.00000000E+00  0.00000000E+00  0.00000000E+00
  0.00000000E+00  0.00000000E+00  0.00000000E+00  0.00000000E+00  0.00000000E+00
  0.00000000E+00  0.00000000E+00  0.00000000E+00  0.00000000E+00  0.00000000E+00
  0.00000000E+00  0.00000000E+00  0.00000000E+00  0.00000000E+00  0.00000000E+00
  0.00000000E+00  0.00000000E+00  0.00000000E+00  0.00000000E+00  0.00000000E+00
  0.00000000E+00  0.00000000E+00  0.00000000E+00  0.00000000E+00  0.00000000E+00
  0.00000000E+00  0.00000000E+00  0.00000000E+00  0.00000000E+00  0.00000000E+00
  0.00000000E+00  0.00000000E+00  0.00000000E+00  0.00000000E+00  0.00000000E+00
  0.00000000E+00  0.00000000E+00  0.00000000E+00  0.00000000E+00  0.00000000E+00
  0.00000000E+00  0.00000000E+00  0.00000000E+00  0.00000000E+00  0.00000000E+00
  0.00000000E+00  0.00000000E+00  0.00000000E+00  0.00000000E+00  0.00000000E+00
  0.00000000E+00  0.00000000E+00  0.00000000E+00  0.00000000E+00  0.00000000E+00
  0.00000000E+00  0.00000000E+00  0.00000000E+00  0.00000000E+00  0.00000000E+00
  0.00000000E+00  0.00000000E+00  0.00000000E+00  0.00000000E+00  0.00000000E+00
  0.00000000E+00  0.00000000E+00  0.00000000E+00  0.00000000E+00  0.00000000E+00
  0.00000000E+00  0.00000000E+00  0.00000000E+00  0.00000000E+00  0.00000000E+00
  0.00000000E+00  0.00000000E+00  0.00000000E+00  0.00000000E+00  0.00000000E+00
  0.00000000E+00  0.00000000E+00  0.00000000E+00  0.00000000E+00  0.00000000E+00
  0.00000000E+00  0.00000000E+00  0.00000000E+00  0.00000000E+00  0.00000000E+00
  0.00000000E+00  0.00000000E+00  0.00000000E+00  0.00000000E+00  0.00000000E+00
  0.00000000E+00  0.00000000E+00  0.00000000E+00  0.00000000E+00  0.00000000E+00
  0.00000000E+00  0.00000000E+00  0.00000000E+00  0.00000000E+00  0.00000000E+00
  0.00000000E+00  0.00000000E+00  0.00000000E+00  0.00000000E+00  0.00000000E+00
  0.00000000E+00  0.00000000E+00  0.00000000E+00  0.00000000E+00  0.00000000E+00
  0.00000000E+00  0.00000000E+00  0.00000000E+00  0.00000000E+00  0.00000000E+00
  0.00000000E+00  0.00000000E+00  0.00000000E+00  0.00000000E+00  0.00000000E+00
  0.00000000E+00  0.00000000E+00  0.00000000E+00  0.00000000E+00  0.00000000E+00
  0.00000000E+00  0.00000000E+00  0.00000000E+00  0.00000000E+00  0.00000000E+00
  0.00000000E+00  0.00000000E+00  0.00000000E+00  0.00000000E+00  0.00000000E+00
  0.00000000E+00  0.00000000E+00  0.00000000E+00  0.00000000E+00  0.00000000E+00
  0.00000000E+00  0.00000000E+00  0.00000000E+00  0.00000000E+00  0.00000000E+00
  0.00000000E+00  0.00000000E+00  0.00000000E+00  0.00000000E+00  0.00000000E+00
  0.00000000E+00  0.00000000E+00  0.00000000E+00  0.00000000E+00  0.00000000E+00
  0.00000000E+00  0.00000000E+00  0.00000000E+00  0.00000000E+00  0.00000000E+00
  0.00000000E+00  0.00000000E+00  0.00000000E+00  0.00000000E+00  0.00000000E+00
  0.00000000E+00  0.00000000E+00  0.00000000E+00  0.00000000E+00  0.00000000E+00
  0.00000000E+00  0.00000000E+00  0.00000000E+00  0.00000000E+00  0.00000000E+00
  0.00000000E+00  0.00000000E+00  0.00000000E+00  0.00000000E+00  0.00000000E+00
  0.00000000E+00  0.00000000E+00  0.00000000E+00  0.00000000E+00  0.00000000E+00
  0.00000000E+00  0.00000000E+00  0.00000000E+00  0.00000000E+00  0.00000000E+00
  0.00000000E+00  0.00000000E+00  0.00000000E+00  0.00000000E+00  0.00000000E+00
  0.00000000E+00  0.00000000E+00  0.00000000E+00  0.00000000E+00  0.00000000E+00
  0.00000000E+00  0.00000000E+00  0.00000000E+00  0.00000000E+00  0.00000000E+00
  0.00000000E+00  0.00000000E+00  0.00000000E+00  0.00000000E+00  0.00000000E+00
  0.00000000E+00  0.00000000E+00  0.00000000E+00  0.00000000E+00  0.00000000E+00
  0.00000000E+00  0.00000000E+00  0.00000000E+00  0.00000000E+00  0.00000000E+00
  0.00000000E+00  0.00000000E+00  0.00000000E+00  0.00000000E+00  0.00000000E+00
  0.00000000E+00  0.00000000E+00  0.00000000E+00  0.00000000E+00  0.00000000E+00
  0.00000000E+00  0.00000000E+00  0.00000000E+00  0.00000000E+00  0.00000000E+00
  0.00000000E+00  0.00000000E+00  0.00000000E+00  0.00000000E+00  0.00000000E+00
  0.00000000E+00  0.00000000E+00  0.00000000E+00  0.00000000E+00  0.00000000E+00
  0.00000000E+00  0.00000000E+00  0.00000000E+00  0.00000000E+00  0.00000000E+00
  0.00000000E+00  0.00000000E+00  0.00000000E+00  0.00000000E+00  0.00000000E+00
Gaussian Version                           C   N=           2
ES64L-G16RevA.03        
