NO3_opt                                                                 
SP        RB3LYP                                                      def2TZVP            
Number of atoms                            I                4
Info1-9                                    I   N=           9
          13          13           0           0           0         110
           1          18        -502
Full Title                                 C   N=           1
NO3_opt     
Route                                      C   N=           2
# b3lyp/def2TZVP SP     
Charge                                     I               -1
Multiplicity                               I                1
Number of electrons                        I               32
Number of alpha electrons                  I               16
Number of beta electrons                   I               16
Number of basis functions                  I              124
Number of independent functions            I              124
Number of point charges in /Mol/           I                0
Number of translation vectors              I                0
Atomic numbers                             I   N=           4
           7           8           8           8
Nuclear charges                            R   N=           4
  7.00000000E+00  8.00000000E+00  8.00000000E+00  8.00000000E+00
Current cartesian coordinates              R   N=          12
 -8.66786885E-05  6.19473134E-07  8.11046069E-05 -1.18857145E+00  2.06319687E+00
 -4.83416326E-05 -1.19277176E+00 -2.06077261E+00 -4.83416326E-05  2.38141905E+00
 -2.42480497E-03  2.57167342E-05
Number of symbols in /Mol/                 I                0
Force Field                                I                0
Atom Types                                 C   N=           4
                                                
Int Atom Types                             I   N=           4
           0           0           0           0
MM charges                                 R   N=           4
  0.00000000E+00  0.00000000E+00  0.00000000E+00  0.00000000E+00
Integer atomic weights                     I   N=           4
          14          16          16          16
Real atomic weights                        R   N=           4
  1.40030740E+01  1.59949146E+01  1.59949146E+01  1.59949146E+01
Atom fragment info                         I   N=           4
           0           0           0           0
Atom residue num                           I   N=           4
           0           0           0           0
Nuclear spins                              I   N=           4
           2           0           0           0
Nuclear ZEff                               R   N=           4
 -4.55000000E+00 -5.60000000E+00 -5.60000000E+00 -5.60000000E+00
Nuclear ZNuc                               R   N=           4
  7.00000000E+00  8.00000000E+00  8.00000000E+00  8.00000000E+00
Nuclear QMom                               R   N=           4
  2.04400000E+00  0.00000000E+00  0.00000000E+00  0.00000000E+00
Nuclear GFac                               R   N=           4
  4.03761000E-01  0.00000000E+00  0.00000000E+00  0.00000000E+00
MicOpt                                     I   N=           4
          -1          -1          -1          -1
Number of residues                         I                0
Number of secondary structures             I                0
SymInf integers                            I   N=          26
           1           1           1           1           1           0
           0           0           0           0           0           0
           0           0           0           0           0           0
           0           0           0           0           0           0
           0           0
RotTr to input orientation                 R   N=          12
  1.00000000E+00 -1.50713024E-06  0.00000000E+00 -1.50713024E-06 -1.00000000E+00
  0.00000000E+00  0.00000000E+00  0.00000000E+00 -1.00000000E+00 -3.04794572E-09
 -4.26712348E-09 -2.43835629E-09
Number of contracted shells                I               44
Number of primitive shells                 I               80
Pure/Cartesian d shells                    I                0
Pure/Cartesian f shells                    I                0
Highest angular momentum                   I                3
Largest degree of contraction              I                6
Shell types                                I   N=          44
           0           0           0           0           0           1
           1           1          -2          -2          -3           0
           0           0           0           0           1           1
           1          -2          -2          -3           0           0
           0           0           0           1           1           1
          -2          -2          -3           0           0           0
           0           0           1           1           1          -2
          -2          -3
Number of primitives per shell             I   N=          44
           6           2           1           1           1           4
           1           1           1           1           1           6
           2           1           1           1           4           1
           1           1           1           1           6           2
           1           1           1           4           1           1
           1           1           1           6           2           1
           1           1           4           1           1           1
           1           1
Shell to atom map                          I   N=          44
           1           1           1           1           1           1
           1           1           1           1           1           2
           2           2           2           2           2           2
           2           2           2           2           3           3
           3           3           3           3           3           3
           3           3           3           4           4           4
           4           4           4           4           4           4
           4           4
Primitive exponents                        R   N=          80
  1.97308006E+04  2.95789587E+03  6.73221336E+02  1.90682495E+02  6.22954419E+01
  2.26541612E+01  8.97914774E+00  3.68630024E+00  8.46600768E-01  3.36471338E-01
  1.36476537E-01  4.92003805E+01  1.13467905E+01  3.42739724E+00  1.17855251E+00
  4.16422050E-01  1.42608260E-01  1.65400000E+00  4.69000000E-01  1.09300000E+00
  2.70323826E+04  4.05238714E+03  9.22327227E+02  2.61240710E+02  8.53546414E+01
  3.10350352E+01  1.22608607E+01  4.99870760E+00  1.17031082E+00  4.64747410E-01
  1.85045364E-01  6.32749548E+01  1.46270494E+01  4.45012235E+00  1.52757996E+00
  5.29351179E-01  1.74784213E-01  2.31400000E+00  6.45000000E-01  1.42800000E+00
  2.70323826E+04  4.05238714E+03  9.22327227E+02  2.61240710E+02  8.53546414E+01
  3.10350352E+01  1.22608607E+01  4.99870760E+00  1.17031082E+00  4.64747410E-01
  1.85045364E-01  6.32749548E+01  1.46270494E+01  4.45012235E+00  1.52757996E+00
  5.29351179E-01  1.74784213E-01  2.31400000E+00  6.45000000E-01  1.42800000E+00
  2.70323826E+04  4.05238714E+03  9.22327227E+02  2.61240710E+02  8.53546414E+01
  3.10350352E+01  1.22608607E+01  4.99870760E+00  1.17031082E+00  4.64747410E-01
  1.85045364E-01  6.32749548E+01  1.46270494E+01  4.45012235E+00  1.52757996E+00
  5.29351179E-01  1.74784213E-01  2.31400000E+00  6.45000000E-01  1.42800000E+00
Contraction coefficients                   R   N=          80
  5.86264026E-04  4.54288206E-03  2.35584135E-02  9.47091933E-02  2.97197849E-01
  6.69162469E-01  6.45966836E-01  3.87005744E-01  1.00000000E+00  1.00000000E+00
  1.00000000E+00  1.14488251E-02  7.84223380E-02  3.08180947E-01  7.20271964E-01
  1.00000000E+00  1.00000000E+00  1.00000000E+00  1.00000000E+00  1.00000000E+00
  5.72273352E-04  4.43532335E-03  2.30201077E-02  9.28224907E-02  2.93785000E-01
  6.74016045E-01  6.38399370E-01  3.95345871E-01  1.00000000E+00  1.00000000E+00
  1.00000000E+00  1.20183322E-02  8.30054218E-02  3.19917439E-01  7.07155429E-01
  1.00000000E+00  1.00000000E+00  1.00000000E+00  1.00000000E+00  1.00000000E+00
  5.72273352E-04  4.43532335E-03  2.30201077E-02  9.28224907E-02  2.93785000E-01
  6.74016045E-01  6.38399370E-01  3.95345871E-01  1.00000000E+00  1.00000000E+00
  1.00000000E+00  1.20183322E-02  8.30054218E-02  3.19917439E-01  7.07155429E-01
  1.00000000E+00  1.00000000E+00  1.00000000E+00  1.00000000E+00  1.00000000E+00
  5.72273352E-04  4.43532335E-03  2.30201077E-02  9.28224907E-02  2.93785000E-01
  6.74016045E-01  6.38399370E-01  3.95345871E-01  1.00000000E+00  1.00000000E+00
  1.00000000E+00  1.20183322E-02  8.30054218E-02  3.19917439E-01  7.07155429E-01
  1.00000000E+00  1.00000000E+00  1.00000000E+00  1.00000000E+00  1.00000000E+00
Coordinates of each shell                  R   N=         132
 -8.66786885E-05  6.19473134E-07  8.11046069E-05 -8.66786885E-05  6.19473134E-07
  8.11046069E-05 -8.66786885E-05  6.19473134E-07  8.11046069E-05 -8.66786885E-05
  6.19473134E-07  8.11046069E-05 -8.66786885E-05  6.19473134E-07  8.11046069E-05
 -8.66786885E-05  6.19473134E-07  8.11046069E-05 -8.66786885E-05  6.19473134E-07
  8.11046069E-05 -8.66786885E-05  6.19473134E-07  8.11046069E-05 -8.66786885E-05
  6.19473134E-07  8.11046069E-05 -8.66786885E-05  6.19473134E-07  8.11046069E-05
 -8.66786885E-05  6.19473134E-07  8.11046069E-05 -1.18857145E+00  2.06319687E+00
 -4.83416326E-05 -1.18857145E+00  2.06319687E+00 -4.83416326E-05 -1.18857145E+00
  2.06319687E+00 -4.83416326E-05 -1.18857145E+00  2.06319687E+00 -4.83416326E-05
 -1.18857145E+00  2.06319687E+00 -4.83416326E-05 -1.18857145E+00  2.06319687E+00
 -4.83416326E-05 -1.18857145E+00  2.06319687E+00 -4.83416326E-05 -1.18857145E+00
  2.06319687E+00 -4.83416326E-05 -1.18857145E+00  2.06319687E+00 -4.83416326E-05
 -1.18857145E+00  2.06319687E+00 -4.83416326E-05 -1.18857145E+00  2.06319687E+00
 -4.83416326E-05 -1.19277176E+00 -2.06077261E+00 -4.83416326E-05 -1.19277176E+00
 -2.06077261E+00 -4.83416326E-05 -1.19277176E+00 -2.06077261E+00 -4.83416326E-05
 -1.19277176E+00 -2.06077261E+00 -4.83416326E-05 -1.19277176E+00 -2.06077261E+00
 -4.83416326E-05 -1.19277176E+00 -2.06077261E+00 -4.83416326E-05 -1.19277176E+00
 -2.06077261E+00 -4.83416326E-05 -1.19277176E+00 -2.06077261E+00 -4.83416326E-05
 -1.19277176E+00 -2.06077261E+00 -4.83416326E-05 -1.19277176E+00 -2.06077261E+00
 -4.83416326E-05 -1.19277176E+00 -2.06077261E+00 -4.83416326E-05  2.38141905E+00
 -2.42480497E-03  2.57167342E-05  2.38141905E+00 -2.42480497E-03  2.57167342E-05
  2.38141905E+00 -2.42480497E-03  2.57167342E-05  2.38141905E+00 -2.42480497E-03
  2.57167342E-05  2.38141905E+00 -2.42480497E-03  2.57167342E-05  2.38141905E+00
 -2.42480497E-03  2.57167342E-05  2.38141905E+00 -2.42480497E-03  2.57167342E-05
  2.38141905E+00 -2.42480497E-03  2.57167342E-05  2.38141905E+00 -2.42480497E-03
  2.57167342E-05  2.38141905E+00 -2.42480497E-03  2.57167342E-05  2.38141905E+00
 -2.42480497E-03  2.57167342E-05
Num ILSW                                   I              100
ILSW                                       I   N=         100
           0           0           0           0           2           0
           0           0           0           0         402          -1
           5           0           0           0           0           0
           0           0           1           0           0           0
           1           0           0           0           0           0
           0           0      100000           0          -1           0
           0           0           0           0           0           0
           0           0           0           1           0           0
           0 -2000000000           1           0           0           0
           0           0           4          52           0           0
           0           0           5           0           0           0
           0           0           0           0           0           1
           0           0           0           0           0           0
           0           0           0           0           0           0
           0           0           0           0           0           0
           0           0           0           0           0           0
           0           0           0           0
Num RLSW                                   I               52
RLSW                                       R   N=          52
  8.00000000E-01  7.20000000E-01  1.00000000E+00  8.10000000E-01  2.00000000E-01
  0.00000000E+00  0.00000000E+00  1.00000000E+00  0.00000000E+00  0.00000000E+00
  0.00000000E+00  0.00000000E+00  1.00000000E+00  0.00000000E+00  0.00000000E+00
  0.00000000E+00  0.00000000E+00  1.00000000E+00  0.00000000E+00  0.00000000E+00
  0.00000000E+00  0.00000000E+00  1.00000000E+00  0.00000000E+00  0.00000000E+00
  0.00000000E+00  0.00000000E+00  1.00000000E+00  0.00000000E+00  0.00000000E+00
  0.00000000E+00  0.00000000E+00  1.00000000E+00  0.00000000E+00  0.00000000E+00
  0.00000000E+00  0.00000000E+00  0.00000000E+00  1.00000000E+00  1.00000000E+00
  0.00000000E+00  1.00000000E+00  0.00000000E+00  0.00000000E+00  0.00000000E+00
  0.00000000E+00  0.00000000E+00  0.00000000E+00  0.00000000E+00  0.00000000E+00
  0.00000000E+00  0.00000000E+00
ECP-MxAtEC                                 I           250000
ECP-MaxLECP                                I               10
ECP-MaxAtL                                 I          2250000
ECP-MxTECP                                 I         11250000
ECP-LenNCZ                                 I                0
ECP-KFirst                                 I   N=          40
           0           0           0           0           0           0
           0           0           0           0           0           0
           0           0           0           0           0           0
           0           0           0           0           0           0
           0           0           0           0           0           0
           0           0           0           0           0           0
           0           0           0           0
ECP-KLast                                  I   N=          40
           0           0           0           0           0           0
           0           0           0           0           0           0
           0           0           0           0           0           0
           0           0           0           0           0           0
           0           0           0           0           0           0
           0           0           0           0           0           0
           0           0           0           0
ECP-LMax                                   I   N=           4
           0           0           0           0
ECP-LPSkip                                 I   N=           4
           1           1           1           1
ECP-RNFroz                                 R   N=           4
  0.00000000E+00  0.00000000E+00  0.00000000E+00  0.00000000E+00
ECP-NLP                                    I                0
ECP-CLP1                                   R      0.000000000000000E+00
ECP-CLP2                                   R      0.000000000000000E+00
ECP-ZLP                                    R      0.000000000000000E+00
MxBond                                     I                3
NBond                                      I   N=           4
           3           1           1           1
IBond                                      I   N=          12
           2           3           4           1           0           0
           1           0           0           1           0           0
RBond                                      R   N=          12
  2.00000000E+00  2.00000000E+00  2.00000000E+00  2.00000000E+00  0.00000000E+00
  0.00000000E+00  2.00000000E+00  0.00000000E+00  0.00000000E+00  2.00000000E+00
  0.00000000E+00  0.00000000E+00
Virial Ratio                               R      2.003713780098773E+00
SCF Energy                                 R     -2.804847592893344E+02
Total Energy                               R     -2.804847592893344E+02
RMS Density                                R      3.950004298117943E-09
Job Status                                 I                1
Nuclear derivative order                   I                0
External E-field                           R   N=          35
  0.00000000E+00  0.00000000E+00  0.00000000E+00  0.00000000E+00  0.00000000E+00
  0.00000000E+00  0.00000000E+00  0.00000000E+00  0.00000000E+00  0.00000000E+00
  0.00000000E+00  0.00000000E+00  0.00000000E+00  0.00000000E+00  0.00000000E+00
  0.00000000E+00  0.00000000E+00  0.00000000E+00  0.00000000E+00  0.00000000E+00
  0.00000000E+00  0.00000000E+00  0.00000000E+00  0.00000000E+00  0.00000000E+00
  0.00000000E+00  0.00000000E+00  0.00000000E+00  0.00000000E+00  0.00000000E+00
  0.00000000E+00  0.00000000E+00  0.00000000E+00  0.00000000E+00  0.00000000E+00
IOpCl                                      I                0
IROHF                                      I                0
Alpha Orbital Energies                     R   N=         124
 -1.89093667E+01 -1.89093578E+01 -1.89093163E+01 -1.43489710E+01 -1.00952310E+00
 -7.94919396E-01 -7.94823856E-01 -3.83309524E-01 -3.16108366E-01 -2.93156960E-01
 -2.93155080E-01 -1.01522140E-01 -1.01492650E-01 -8.19372633E-02 -8.18995022E-02
 -3.10176093E-02  1.84041006E-01  3.40926312E-01  4.63578637E-01  4.63596686E-01
  4.80375446E-01  5.40691789E-01  5.84647341E-01  5.84746060E-01  6.41406213E-01
  6.81967722E-01  6.81986442E-01  7.01415912E-01  7.01442392E-01  7.46742973E-01
  7.46774285E-01  7.68766674E-01  7.71483291E-01  8.35273159E-01  1.14079726E+00
  1.14080054E+00  1.22597519E+00  1.22605632E+00  1.46682174E+00  1.52786865E+00
  1.52787240E+00  1.74316262E+00  1.74323309E+00  1.75927696E+00  1.86525053E+00
  1.86527629E+00  1.91073661E+00  1.97420751E+00  2.07252714E+00  2.19033576E+00
  2.24899457E+00  2.24904947E+00  2.34317059E+00  2.34463592E+00  2.34464881E+00
  2.39109893E+00  2.47494957E+00  2.47498131E+00  2.82076403E+00  2.82088058E+00
  2.83840936E+00  2.91810256E+00  2.91811360E+00  2.95273767E+00  3.01140784E+00
  3.21166197E+00  3.21170601E+00  3.35072887E+00  3.35094654E+00  3.83938183E+00
  3.83943657E+00  4.09654756E+00  4.09659425E+00  4.19014359E+00  4.37053348E+00
  4.39071911E+00  4.78399330E+00  4.80241969E+00  4.80260947E+00  4.81149841E+00
  4.81157121E+00  5.23595534E+00  5.23618848E+00  5.31517718E+00  5.34753789E+00
  5.35977461E+00  5.35994298E+00  5.35997930E+00  5.36209515E+00  5.39646673E+00
  5.39647916E+00  5.66782272E+00  5.66798949E+00  5.67365785E+00  5.67382643E+00
  5.84201032E+00  6.14179326E+00  6.14211278E+00  6.40215068E+00  6.45350304E+00
  6.45367389E+00  6.47557623E+00  6.58485617E+00  6.58576151E+00  6.58593124E+00
  6.60007831E+00  6.60019709E+00  6.79837788E+00  7.03750300E+00  7.04388728E+00
  7.04402517E+00  7.06902381E+00  7.06934510E+00  7.32587757E+00  7.32603885E+00
  7.35494611E+00  7.49726357E+00  7.65679030E+00  7.68812573E+00  7.68846255E+00
  3.21348127E+01  4.40241036E+01  4.40448404E+01  4.40449022E+01
Alpha MO coefficients                      R   N=       15376
  1.62898974E-07 -5.35505732E-07 -4.71174209E-05  1.99863249E-04 -9.64547650E-05
  3.79910100E-06 -4.40516246E-04  3.13137598E-10 -1.06551044E-04  1.23584601E-02
 -9.94509715E-09  9.72299828E-05 -1.12754163E-02  6.69440470E-09 -4.16051068E-06
  5.25099920E-10 -5.89436602E-08 -3.86954333E-06 -3.31342992E-04 -3.63446490E-05
  3.42742873E-09 -5.09411643E-07 -6.63271980E-05 -5.68193786E-03  1.26920300E-09
  5.60127368E-06 -6.49510110E-04  9.31280629E-10  1.00391956E-07  6.68287141E-06
 -8.08015894E-08  3.11880844E-01  4.58423757E-01  2.68583538E-02 -2.45860684E-02
  1.52338005E-02  9.03045891E-04 -1.52890991E-03  1.31771346E-07 -3.60880374E-03
  6.41003742E-03 -4.71811167E-07  2.76989991E-03 -2.95272037E-03  3.77642093E-07
 -5.15056184E-05 -7.88514864E-09 -2.74282834E-08 -1.51236094E-04 -2.33404677E-04
  1.00796806E-03 -4.94316878E-08  2.46475749E-07  1.33406594E-03  2.05138035E-03
  3.48313369E-08  1.14287649E-04 -1.77244693E-04  4.56828252E-08  4.24705060E-08
  4.58444251E-04  2.42117494E-05 -3.03366156E-01 -4.45908138E-01 -2.61313361E-02
  2.39743635E-02 -1.49479881E-02 -8.80648172E-04 -1.48168237E-03 -1.28442525E-07
  3.52400613E-03  6.23852518E-03  4.60971865E-07 -2.77021855E-03 -2.87444109E-03
 -3.75197449E-07  4.65563699E-05  8.81087979E-09 -2.69663897E-08  1.47199435E-04
 -2.27715260E-04 -9.68663324E-04  4.42373861E-08  2.41443880E-07 -1.29996121E-03
  2.00349410E-03 -3.37210560E-08 -1.10510768E-04 -1.69145781E-04 -4.53704551E-08
  4.13185927E-08 -4.49848744E-04  2.78539649E-05 -8.79085735E-04 -1.29206411E-03
 -7.88841088E-05  9.95429174E-05 -1.09069043E-04  3.22426129E-06  3.92027994E-05
 -3.97057099E-10 -2.55260060E-05  1.47886676E-04  1.61149645E-09  3.43220789E-05
  1.88353864E-03 -3.49055750E-09 -1.65568264E-06 -9.98264858E-11 -3.39884067E-08
 -1.02088183E-06  2.79409230E-05  3.14679667E-06 -1.34937988E-10  1.29707108E-07
  1.02700022E-05 -2.54414994E-04 -7.73797729E-11 -9.74456365E-07  2.14544398E-05
  2.18373249E-10 -3.17499120E-08 -3.52260204E-06 -5.17857122E-05  1.12864369E-05
 -3.70878780E-05 -3.26695871E-03  1.38557986E-02 -6.68660745E-03  3.13677972E-04
  5.84072299E-06  2.21154492E-08 -8.79338083E-03 -1.63784495E-04 -7.00509499E-07
  8.02493697E-03  1.49444245E-04  4.74219070E-07 -2.88434921E-04  4.25208878E-08
  7.80597584E-10 -2.35777433E-04  5.11146217E-06 -2.51969279E-03  2.85404850E-07
  6.82957887E-09 -4.04151308E-03  8.76565049E-05  8.94311726E-08  4.62329025E-04
  8.60908284E-06  5.28909061E-08 -1.51118410E-09  4.63430214E-04 -1.41475233E-06
  2.98553345E-01  4.38839258E-01  2.54938956E-02 -2.14710148E-02  1.00733075E-02
  8.89164061E-04 -1.59260655E-03  1.16784803E-07 -3.42549411E-03  5.76258490E-03
 -3.80963466E-07  1.40921368E-04 -2.59726367E-03  8.71841082E-08 -1.72105308E-04
  3.54236354E-08 -1.60855110E-08 -1.08257039E-04 -2.21298193E-04  1.37333916E-03
 -2.03686602E-07  1.70756588E-07  9.03226793E-04  1.87265398E-03  3.88181794E-08
  1.43182439E-04 -2.75413974E-04  4.25663877E-09  4.75042033E-08  2.97359195E-04
 -3.32907348E-05  3.07154089E-01  4.51481218E-01  2.62346463E-02 -2.21498149E-02
  1.04952146E-02  9.17382694E-04  1.63285074E-03  1.20422182E-07 -3.53710436E-03
 -5.93229171E-03 -3.94001509E-07  2.23741400E-04  2.67835016E-03  9.77079972E-08
 -1.73476089E-04  3.52237136E-08  1.67739097E-08 -1.11513283E-04  2.28191809E-04
  1.40096807E-03 -2.05350026E-07 -1.77160117E-07  9.32294021E-04 -1.93307246E-03
  3.97764919E-08  1.46890676E-04  2.79960818E-04  5.33345697E-09 -4.86950380E-08
  3.10251931E-04  3.07063080E-05 -7.63134493E-02 -1.12165440E-01 -6.79239276E-03
  8.11355936E-03 -8.31560179E-03  3.08132487E-04 -8.61787728E-07 -3.12898671E-08
 -2.14240558E-03  1.14521670E-07  1.23796015E-07  2.44180220E-03 -2.88171218E-05
 -2.53886773E-07 -1.12339095E-04 -4.09859144E-09  4.79287194E-10 -8.84209020E-05
 -2.10465728E-07  1.68847612E-04 -2.39342147E-08 -1.78872786E-09  8.68425797E-04
  1.78758066E-06 -6.26965400E-09 -5.87728225E-05 -2.40078259E-07  2.11883560E-08
  4.00628596E-10 -2.55918453E-04  1.50585029E-06  1.13766986E-05 -3.72797886E-05
 -3.31078822E-03  1.40267619E-02 -6.76791081E-03 -3.10427207E-04  5.09600010E-07
  9.42876912E-09  8.67514584E-03 -1.42487134E-05 -3.44615962E-07 -7.92292733E-03
  1.30090984E-05  1.47498053E-07 -2.91973235E-04 -2.12651258E-08  4.74559445E-11
  2.32430901E-04 -3.28398551E-07 -2.55133231E-03 -1.00499407E-07  3.25494639E-10
  3.99075026E-03 -5.63848357E-06  4.36577725E-08 -4.56538264E-04  7.49595047E-07
 -2.87184275E-08  1.44621558E-11  4.70011040E-04 -1.43603780E-06  5.38303610E-02
  7.91288696E-02  4.41353937E-03 -2.12876226E-03 -1.99278150E-03  2.37054321E-04
 -3.63863018E-04  1.43199975E-08 -3.82663295E-04  8.45480784E-04 -4.71846794E-09
  5.90060133E-04  1.27178689E-03 -1.60339135E-07 -1.34669123E-04 -7.40988313E-09
 -2.22113973E-08 -2.84107417E-05 -1.50509513E-05  5.92377687E-04  3.10728255E-08
  8.22610213E-08  2.08946880E-04  5.13017938E-05  1.31677138E-08  8.49412341E-05
 -1.21268389E-04  8.70861286E-09 -8.55920293E-09 -6.54882678E-05  3.16671826E-05
  5.40999996E-02  7.95252029E-02  4.43676023E-03 -2.15003878E-03 -1.97955265E-03
  2.38577510E-04  3.64697635E-04  1.44339909E-08 -3.87514249E-04 -8.50236530E-04
 -5.12708547E-09  5.89897819E-04 -1.27043401E-03 -1.60009118E-07 -1.34712058E-04
 -7.37190707E-09  2.22502695E-08 -2.84796319E-05  1.53689663E-05  5.93242891E-04
  3.08639155E-08 -8.25377857E-08  2.09886879E-04 -5.39312904E-05  1.31977361E-08
  8.52865964E-05  1.21246771E-04  8.78323804E-09  8.48686566E-09 -6.52825430E-05
 -3.12902569E-05  4.28342162E-01  6.29611957E-01  3.66665066E-02 -3.16756404E-02
  1.63776597E-02 -2.56284151E-03  2.59299938E-06  9.20915923E-08  9.75499090E-03
 -9.99994867E-06 -2.71885174E-07 -3.95079646E-03  3.19831383E-06  1.33903397E-07
 -1.94343183E-04 -1.80392953E-08  3.32631621E-11  3.61086438E-04 -7.47777601E-07
  1.79477724E-03  1.54140653E-07 -2.13815384E-10 -3.08674289E-03  6.39907255E-06
  2.33880596E-08 -3.98534445E-04  3.96502106E-07 -3.00287275E-08  7.50707653E-11
  4.87292607E-04 -1.46620645E-06  4.48451252E-01  6.27057014E-01  3.11520922E-02
 -8.73556611E-03  5.93969143E-03 -6.37038146E-07  3.12236312E-09 -7.95713803E-08
 -1.35001451E-05  5.68262976E-08 -3.01498990E-07  1.91800823E-06 -8.98739926E-09
 -2.26558351E-08 -8.68456191E-04  3.12700583E-08 -3.22161238E-11 -6.95812817E-07
 -1.51913786E-09 -1.33489838E-03  4.82967247E-08 -5.12835790E-11 -6.74779027E-06
 -7.76962985E-09  1.04454880E-07  1.13185256E-06 -4.74628637E-09  3.10415752E-08
 -6.24422167E-11  1.21660942E-03 -3.71674300E-06 -2.12448972E-05 -9.70669836E-05
  1.22545113E-03 -2.19148101E-03 -1.36931772E-03  2.30173899E-04 -3.99487657E-04
  2.25757045E-08 -1.22143330E-03  2.11940749E-03 -1.27287014E-07  1.38160952E-05
 -2.49619860E-05  5.67265285E-09 -2.43200549E-05  1.74491332E-09 -3.66235448E-09
 -3.03963076E-05 -5.25278535E-05  8.74049794E-04 -7.78565570E-08  1.35190055E-07
  7.61964926E-04  1.31475459E-03  6.48892268E-08  2.52231716E-04 -4.37838179E-04
  4.46662212E-08  7.51762541E-08  6.95210053E-04 -1.97897299E-06 -2.12447713E-05
 -9.70659970E-05  1.22543226E-03 -2.19141169E-03 -1.36932231E-03  2.30985725E-04
  3.99015708E-04  2.25755002E-08 -1.22572296E-03 -2.11687101E-03 -1.27284087E-07
  1.38646971E-05  2.49338122E-05  5.67225044E-09 -2.43206594E-05  1.75246681E-09
  3.65881583E-09 -3.01821502E-05  5.26516266E-05  8.74040674E-04 -7.81310386E-08
 -1.35029329E-07  7.56592814E-04 -1.31783145E-03  6.48889501E-08  2.53122005E-04
  4.37322082E-04  4.43593552E-08 -7.53572072E-08  6.95205738E-04 -2.26859757E-06
 -2.12139368E-05 -9.68133132E-05  1.22048483E-03 -2.17305048E-03 -1.37012986E-03
 -4.60347853E-04  4.68756820E-07  8.20229799E-09  2.43266886E-03 -2.47605370E-06
 -5.08285505E-08 -2.83919575E-05  3.08304496E-08  4.71801655E-09 -2.44833622E-05
 -8.48957263E-10  8.07785156E-13  6.07714990E-05 -1.23620623E-07  8.71660632E-04
  6.14055792E-08 -6.22817062E-11 -1.51453400E-03  3.08354749E-06  2.63582817E-08
 -5.04856490E-04  5.14162208E-07 -3.60493305E-08  7.33782001E-11  6.94315121E-04
 -2.12129851E-06 -8.05384321E-02 -1.81482875E-01  2.98510524E-01  2.50481855E-01
  4.00007467E-02 -1.38750635E-04  6.00160997E-07 -8.48192941E-06 -4.50661804E-05
  1.90850732E-07 -3.92751243E-06 -2.44117961E-06 -2.72925816E-08  5.95930138E-08
 -1.01570384E-02  3.65785407E-07 -3.77522589E-10 -9.89708593E-06 -1.77255358E-08
 -5.10754673E-03  1.83265343E-07 -1.85790489E-10  1.74808439E-07 -5.06286486E-09
  6.42447880E-07  2.04406261E-06 -8.22520980E-09  2.11021000E-07 -4.28195590E-10
  8.30314425E-03 -2.53643921E-05 -4.00105619E-02 -9.33961869E-02  1.31000425E-01
  1.74699142E-01  4.04759082E-02  3.75296891E-02 -6.51686844E-02  3.48483133E-06
  3.06361160E-02 -5.32001670E-02  2.85763189E-06  1.68979512E-03 -2.93509806E-03
  4.52883522E-08 -2.61914806E-03  2.27005154E-07 -4.01743892E-07 -2.38246769E-03
 -4.10608647E-03 -6.93951800E-03  5.95044261E-07 -1.06335113E-06 -6.45345310E-03
 -1.11209218E-02 -2.45240288E-07 -1.02398685E-03  1.77811078E-03 -1.39034216E-07
 -2.52903021E-07 -2.34602458E-03  8.00122450E-06 -4.00103303E-02 -9.33956448E-02
  1.30999663E-01  1.74698122E-01  4.04755469E-02  3.76620867E-02  6.50917564E-02
  3.48480330E-06  3.07441769E-02  5.31373567E-02  2.85760866E-06  1.69572660E-03
  2.93160265E-03  4.52814705E-08 -2.61913279E-03  2.27821194E-07  4.01277721E-07
 -2.36571017E-03  4.11572985E-03 -6.93947222E-03  5.97202093E-07  1.06212814E-06
 -6.40807822E-03  1.11470334E-02 -2.45238349E-07 -1.02759878E-03 -1.77601150E-03
 -1.38001785E-07  2.53464891E-07 -2.34601332E-03  6.32791498E-06 -3.99527065E-02
 -9.32607835E-02  1.30810166E-01  1.74442667E-01  4.04033254E-02 -7.50923355E-02
  7.65088585E-05  1.14295027E-06 -6.12970375E-02  6.24561950E-05  9.45854697E-07
 -3.37575455E-03  3.44507497E-06 -6.03809761E-08 -2.61507552E-03 -1.72289578E-07
  1.75694440E-10  4.73980776E-03 -9.65819072E-06 -6.92893519E-03 -4.43676730E-07
  4.51382573E-10  1.28364631E-02 -2.61556194E-05 -8.87229945E-08  2.04886750E-03
 -2.08700021E-06  9.80249761E-08 -1.99503232E-10 -2.34186791E-03  7.15823928E-06
  1.83312002E-07  4.16656487E-07 -6.72281403E-07 -9.06402324E-07 -2.68253898E-07
 -2.74488950E-04  2.27615144E-01 -1.04906749E-08 -1.49000265E-04  1.23554632E-01
 -5.68682555E-09 -9.76090344E-06  8.10251979E-03 -3.71355880E-10  1.03768705E-08
  7.65195271E-10 -1.64830486E-06 -5.64590747E-05 -1.32524214E-02  2.25134407E-08
 -1.72112118E-10 -6.53288935E-07 -4.43441810E-05 -1.04081550E-02  3.93910366E-10
  4.22099350E-06 -3.50035318E-03  1.38702173E-09  4.45487774E-07 -1.56245944E-08
  7.32428905E-08 -6.64017293E-02 -1.56170299E-01  2.26440336E-01  2.99735739E-01
  1.20539897E-01  5.09312867E-02 -6.42849820E-02  5.56491656E-06  4.47885617E-02
 -5.69531201E-02  4.67105388E-06  7.45811019E-03 -8.26290856E-03  9.82458047E-07
 -2.70942866E-03  3.71198324E-07 -5.68485239E-07 -1.77507983E-03 -5.05331860E-03
 -7.38280288E-03  9.96330601E-07 -1.58169567E-06 -5.02575553E-03 -1.57571910E-02
 -3.59879463E-07 -1.40999755E-03  1.94769768E-03 -2.16791815E-07 -4.56744204E-07
 -3.74539070E-03 -1.03854564E-03  6.62316575E-02  1.55770304E-01 -2.25860345E-01
 -2.98968036E-01 -1.20230998E-01 -5.10386098E-02 -6.39546471E-02 -5.55287479E-06
 -4.48819250E-02 -5.66626221E-02 -4.66099918E-06 -7.47658094E-03 -8.21447975E-03
 -9.80365275E-07  2.70248709E-03 -3.71921841E-07 -5.66184407E-07  1.74106489E-03
 -5.05266552E-03  7.36389250E-03 -9.98513046E-07 -1.57549145E-06  4.91707282E-03
 -1.57553582E-02  3.59070591E-07  1.41256447E-03  1.93855590E-03  2.13960697E-07
 -4.56880761E-07  3.72936262E-03 -1.06949408E-03  1.70457796E-04  4.00897555E-04
 -5.81274242E-04 -7.69442236E-04 -3.09385312E-04  2.32850704E-04  2.41590942E-02
 -7.24532626E-09  2.05289891E-04  2.08274601E-02 -5.78250879E-09  3.27016146E-05
  4.69223718E-03 -1.54361834E-09  6.95287581E-06  9.33124461E-10  3.41153069E-08
 -1.75860999E-05 -2.00446962E-03  1.89578882E-05  2.36818878E-09  4.73621433E-08
 -5.60019986E-05 -7.13907173E-03  4.27854900E-10 -6.65128957E-06 -5.00865350E-04
 -5.99667685E-10 -7.55361186E-09  1.60396987E-05  2.10578201E-03 -3.27822956E-05
 -7.44590629E-05  1.19121473E-04  1.64936167E-04  4.24792575E-05  2.27570227E-01
  2.74463088E-04  4.71700752E-06  1.23578000E-01  1.49057894E-04  2.55998116E-06
  8.11586511E-03  9.77261232E-06  1.68257656E-07 -1.81133759E-06 -1.09843710E-06
 -2.54620927E-09  1.32415832E-02 -5.64287595E-05 -4.82306459E-06 -2.22234096E-07
 -1.23168332E-09  1.04152288E-02 -4.44154052E-05 -1.77518540E-07 -3.50034668E-03
 -4.22249564E-06 -2.15850517E-07  1.43117920E-09  3.16638830E-06 -1.26300738E-08
  3.81178874E-02  8.96498033E-02 -1.29990769E-01 -1.72063574E-01 -6.92082015E-02
 -5.06556777E-03  5.08096031E-02 -2.69354549E-06 -4.87438042E-03  4.46811489E-02
 -2.24939618E-06  4.10775529E-04  7.44534199E-03 -4.66914053E-07  1.55494668E-03
 -9.58426567E-08  3.45877716E-07  3.02025881E-03  1.73926755E-03  4.23650100E-03
 -2.28538013E-07  9.34797087E-07  1.00094697E-02  4.91021591E-03  1.81147358E-07
  3.08559780E-04 -1.40629247E-03  2.18062829E-07  1.65047881E-07  2.14260827E-03
 -1.83362031E-03  3.84129135E-02  9.03436759E-02 -1.30996873E-01 -1.73395263E-01
 -6.97437909E-02 -5.39615407E-03 -5.10840686E-02 -2.71826593E-06 -5.16507413E-03
 -4.49234933E-02 -2.27014565E-06  3.62363368E-04 -7.48275067E-03 -4.71276270E-07
  1.56697936E-03 -9.82018502E-08 -3.48202730E-07  3.02091505E-03 -1.77404630E-03
  4.26928705E-03 -2.34885769E-07 -9.41343434E-07  1.00113223E-02 -5.02106040E-03
  1.82746342E-07  3.17710881E-04  1.41429779E-03  2.18341943E-07 -1.67968560E-07
  2.17037732E-03  1.81575038E-03 -7.65991790E-02 -1.80153376E-01  2.61216827E-01
  3.45762610E-01  1.39046622E-01 -9.35516523E-02  1.49029726E-04  3.25612499E-06
 -8.26881215E-02  1.30567416E-04  2.59811095E-06 -1.25432712E-02  2.32185734E-05
  6.93503457E-07 -3.12381067E-03 -4.03752247E-07  4.87171505E-10  6.06638614E-03
 -1.68148055E-05 -8.51369882E-03 -1.04198541E-06  1.16711431E-09  1.86245014E-02
 -5.38271846E-05 -1.92204724E-07  2.75882981E-03 -3.92408942E-06  2.62508455E-07
 -5.51755577E-10 -4.31571361E-03  1.78723500E-05 -6.05482325E-02 -1.38992212E-01
  2.34537379E-01  3.30405403E-01  2.59208230E-02  3.62709753E-06  4.77053242E-08
  1.88889703E-05 -2.12044604E-06  6.09683546E-08  1.53517222E-05  2.30775185E-05
 -1.31425151E-07  9.70181256E-06 -1.41742975E-03  5.06430966E-08 -5.13356043E-11
 -2.80917145E-06 -4.73017586E-09  4.29932042E-03 -1.55051495E-07  1.59227587E-10
 -7.21924469E-06 -8.64895963E-09 -3.33605664E-08  1.21786440E-06 -6.09475216E-09
  1.25793384E-07 -2.55436179E-10  4.94919908E-03 -1.51195850E-05  4.53885463E-02
  1.07826984E-01 -1.65031622E-01 -2.24125449E-01 -1.72760799E-01  7.30692199E-02
 -1.26826785E-01  1.50764951E-05  5.01429294E-02 -8.70317020E-02  1.13848143E-05
  2.97212717E-02 -5.15882248E-02  4.94383858E-06 -2.66267752E-03  4.12431748E-07
 -7.05591444E-07 -2.16945818E-03 -3.74124862E-03 -4.40765579E-03  8.48367068E-07
 -1.46163547E-06 -3.67104402E-03 -6.33041475E-03 -3.02593403E-07 -4.91554294E-04
  8.53196090E-04 -2.21108328E-07 -3.63718784E-07 -1.67026100E-03  4.74793078E-06
  4.53884826E-02  1.07826833E-01 -1.65031421E-01 -2.24124962E-01 -1.72760662E-01
  7.33271246E-02  1.26677283E-01  1.50764359E-05  5.03199355E-02  8.69291545E-02
  1.13847736E-05  2.98261479E-02  5.15273857E-02  4.94381440E-06 -2.66266895E-03
  4.13866208E-07  7.04746919E-07 -2.15419401E-03  3.75004108E-03 -4.40764288E-03
  8.51338453E-07  1.45990116E-06 -3.64522780E-03  6.34530477E-03 -3.02592753E-07
 -4.93289729E-04 -8.52191895E-04 -2.19624713E-07  3.64615572E-07 -1.67025714E-03
  5.45636890E-06  4.53772543E-02  1.07800189E-01 -1.64998584E-01 -2.24030559E-01
 -1.72730086E-01 -1.46274173E-01  1.48957490E-04  1.05143674E-05 -1.00391965E-01
  1.02233413E-04  8.25412401E-06 -5.94932323E-02  6.05921817E-05  3.08837635E-06
 -2.66094077E-03 -5.38761562E-07  5.48584995E-10  4.32168881E-03 -8.80275344E-06
 -4.40564922E-03 -1.22411257E-06  1.24726173E-09  7.31654316E-03 -1.49050127E-05
 -2.27487699E-07  9.84566268E-04 -1.00278744E-06  3.13370754E-07 -6.38354141E-10
 -1.67005668E-03  5.10260676E-06  2.93323079E-07  7.22626098E-07 -1.36358785E-06
 -3.98175827E-06  1.79953130E-05 -7.36686566E-06  7.48398801E-09  3.55424984E-01
 -6.02626966E-06  6.10889985E-09  2.90712220E-01 -2.61101560E-06  2.66191694E-09
  1.25548751E-01 -7.42285878E-07 -9.94866626E-06  4.44209680E-08  2.74334257E-10
 -6.42091489E-13 -2.37332575E-06 -1.69597958E-05  7.04163448E-08  5.50274179E-10
  4.62189407E-12 -6.85292498E-03  3.48320538E-07 -3.55522056E-10 -2.75687021E-06
 -6.71491290E-09 -6.25005978E-08  1.91402939E-10 -2.41981582E-06 -5.75082266E-06
  8.82765548E-06  1.20349587E-05  1.01594365E-05 -1.39464979E-05  1.82831940E-05
  1.64843228E-01 -1.05458217E-05  1.34971703E-05  1.33768363E-01 -5.98678238E-06
  8.08404958E-06  6.42697496E-02  8.57342767E-07  3.15824874E-03 -5.48280914E-03
  2.80952386E-07  7.10819028E-07  2.20381526E-06  9.39641248E-03 -1.63141081E-02
  5.30396621E-07  1.58752532E-06 -2.70128926E-03  4.20843180E-07 -7.22218738E-07
 -2.02549969E-03 -3.49195828E-03  4.36481995E-07  8.74005264E-08 -2.41980780E-06
 -5.75080366E-06  8.82763005E-06  1.20349056E-05  1.01593660E-05 -1.39836251E-05
 -1.82546551E-05  1.64842547E-01 -1.05732370E-05 -1.34756110E-05  1.33767821E-01
 -6.00321295E-06 -8.07180917E-06  6.42694728E-02  8.57337727E-07  3.16939390E-03
  5.47634129E-03  2.78053353E-07 -7.11952621E-07  2.20380941E-06  9.42958406E-03
  1.62948901E-02  5.23927440E-07 -1.58967188E-06 -2.70128231E-03  4.22311279E-07
  7.21358249E-07 -2.01125447E-03  3.50016793E-03  4.35938831E-07 -9.00648655E-08
 -2.41853527E-06 -5.74782281E-06  8.82408618E-06  1.20237582E-05  1.01623689E-05
  1.76579899E-05 -1.79928311E-08  1.64679764E-01  1.27864879E-05 -1.30289419E-08
  1.33639952E-01  7.98347077E-06 -8.14080925E-09  6.42021360E-02  5.15851705E-07
 -6.32029864E-03  6.43664610E-06 -5.58370762E-07  1.13742810E-09  1.18837724E-06
 -1.88127444E-02  1.91663178E-05 -1.05298736E-06  2.14800294E-09 -2.69963937E-03
 -4.31217661E-07  4.39102270E-10  4.03381955E-03 -8.21776732E-06  2.82192191E-07
 -8.62773169E-10  1.64013233E-07  3.70269089E-07 -5.62041509E-07 -1.26589645E-06
 -1.16637553E-06 -1.91214612E-03  2.77036606E-01 -4.54496970E-08 -1.38444297E-03
  2.00562802E-01 -3.28824000E-08  4.60354443E-05 -6.69521383E-03  1.11990255E-09
 -4.00624080E-08  5.52041161E-09 -8.87446274E-07 -1.83251945E-05 -1.85138958E-03
 -1.06287070E-08 -3.12039298E-09  1.00171618E-06  1.14946684E-04  1.15313533E-02
  1.34513618E-09  2.31061729E-05 -3.34867910E-03 -9.92475642E-10  7.52228509E-08
 -3.42639344E-09 -2.16256699E-06  3.64984134E-02  8.66936977E-02 -1.33840606E-01
 -1.85776606E-01 -1.34293018E-01  1.64216428E-01 -1.65233901E-01  1.58764064E-05
  1.25931167E-01 -1.21449961E-01  1.18969335E-05  8.23782789E-02 -8.38785005E-02
  8.24776369E-06 -3.85915118E-03  5.51104193E-07 -7.00657238E-07 -1.23031082E-03
 -6.40347251E-03 -9.28399386E-03  1.34810699E-06 -1.36849558E-06 -3.36059996E-04
 -1.46843250E-02 -3.34345552E-07 -1.35254335E-03  1.66613392E-03 -1.50573478E-07
 -5.23838625E-07 -3.44433465E-03 -1.93806417E-03 -3.61662912E-02 -8.59048174E-02
  1.32622720E-01  1.84086046E-01  1.33071333E-01 -1.64966655E-01 -1.62291729E-01
 -1.57714640E-05 -1.26579771E-01 -1.19193038E-01 -1.18207269E-05 -8.27407518E-02
 -8.24026702E-02 -8.19220558E-06  3.82402024E-03 -5.51993495E-07 -6.92206779E-07
  1.12447439E-03 -6.38961323E-03  9.19947497E-03 -1.35459675E-06 -1.34946285E-06
  4.71657861E-05 -1.46820811E-02  3.31854298E-07  1.35447061E-03  1.64194059E-03
  1.42958030E-07 -5.23458045E-07  3.40096258E-03 -2.01317462E-03 -3.32365681E-04
 -7.89462770E-04  1.21887979E-03  1.69145722E-03  1.22320597E-03  2.17262528E-03
  1.21198807E-01 -7.09138913E-08  1.63011710E-03  9.82657698E-02 -5.27129756E-08
  1.09664115E-03  5.98034411E-02 -3.80001694E-08  3.51173547E-05  4.14568119E-09
  1.04297501E-07 -6.48850570E-05 -4.35145766E-03  8.45091199E-05  7.98686592E-09
  4.20042963E-07 -1.46380097E-04 -1.43424779E-02  1.43753466E-09 -1.99989427E-05
 -6.90070015E-04 -2.60395357E-09 -1.15637232E-07  4.33688802E-05  3.94792433E-03
 -1.36565077E-05 -3.08210467E-05  4.72347619E-05  1.04677119E-04  1.05504965E-04
  2.77042695E-01  1.91213226E-03  5.74092343E-06  2.00593308E-01  1.38430762E-03
  4.15487967E-06 -6.66411531E-03 -4.61610146E-05 -1.40274401E-07  3.52498653E-06
 -8.11124293E-07 -6.20224858E-09  1.83365346E-03 -1.83683115E-05  1.70040529E-06
  5.22555799E-07  7.40315531E-09 -1.15482232E-02  1.14897209E-04 -1.69939362E-07
 -3.34779288E-03 -2.31106423E-05  1.44657911E-07  2.99899725E-10 -3.45457972E-07
 -2.57059056E-08 -2.06823651E-02 -4.91262454E-02  7.58428468E-02  1.05273057E-01
  7.60885400E-02  2.78030943E-02  1.63253521E-01 -6.49502651E-06  2.66261138E-02
  1.25268078E-01 -4.71328421E-06  1.29434793E-02  8.18811871E-02 -3.43982420E-06
  2.18706463E-03 -2.84220965E-08  4.56905683E-07  5.02990610E-03  1.11578808E-03
  5.26140050E-03  2.47241697E-07  1.01636243E-06  1.44629944E-02  4.31224511E-05
  1.54599005E-07  7.88068207E-05 -1.34042130E-03  3.45080858E-07  5.68181716E-08
  1.93843019E-03 -3.44386541E-03 -2.12578991E-02 -5.04932970E-02  7.79533708E-02
  1.08202443E-01  7.82061988E-02  2.48603473E-02 -1.65900783E-01 -6.74566611E-06
  2.43687417E-02 -1.27225653E-01 -4.90112043E-06  1.14673915E-02 -8.32228291E-02
 -3.57002695E-06  2.24791102E-03 -3.81010436E-08 -4.67867643E-07  5.04374196E-03
 -1.23763121E-03  5.40779849E-03  2.23740817E-07 -1.03836646E-06  1.44652190E-02
 -3.34646672E-04  1.59875330E-07  1.03005523E-04  1.36643802E-03  3.47153572E-07
 -6.65232852E-08  2.01355615E-03  3.40048527E-03  4.19586776E-02  9.96637257E-02
 -1.53874035E-01 -2.13535417E-01 -1.54417666E-01 -2.58695964E-01  1.22353672E-03
  8.95404267E-06 -1.93155951E-01  9.75120817E-04  6.65607376E-06 -1.30754657E-01
  6.06869317E-04  4.79760555E-06 -4.43348198E-03 -5.10040820E-07  1.34568058E-09
  7.07222103E-03 -4.88762395E-05 -1.06685168E-02 -9.54319757E-07  4.29826515E-09
  1.47905024E-02 -1.43735624E-04 -1.81488345E-07  2.43606522E-03 -7.94768834E-06
  2.99032040E-07 -1.52510766E-09 -3.95198410E-03  4.33485297E-05  2.74111659E-06
  5.99813758E-06 -1.07258581E-06 -5.87335171E-05 -7.95744949E-05 -6.59379019E-02
 -1.27137375E-05 -1.37870264E-06 -3.69853767E-02 -7.19976887E-06 -7.76325771E-07
  9.83834518E-02  1.87915211E-05  2.03074538E-06 -1.66180582E-06 -2.25894719E-06
  7.76891355E-10 -2.40127621E-02  7.79711209E-05  4.18929969E-06 -7.98091525E-06
  1.12572688E-09 -5.25685729E-02  1.70719496E-04  3.38218850E-08  6.65649468E-04
  1.30362363E-07 -2.43093070E-09 -4.83905124E-11  6.72640027E-07 -3.23853819E-08
 -9.09717923E-04 -2.31554528E-03  4.56905920E-03  1.64316711E-04  3.78365078E-02
  3.07589846E-01  7.77214809E-02  3.58859256E-05  2.41659769E-01  6.38723368E-02
  2.84288224E-05  2.04139230E-01  3.54247026E-02  2.53333136E-05 -8.05254003E-04
  4.95176167E-07 -4.50846906E-07  2.56327509E-03 -3.82134510E-03 -1.83354072E-03
  1.11936273E-06 -1.44561274E-06  5.99063526E-03 -9.96491206E-03 -2.52039624E-07
 -5.66019494E-04  4.78504125E-04 -3.26335674E-08 -5.69110486E-07 -1.65653020E-03
 -3.36729402E-03 -9.13516900E-04 -2.32521846E-03  4.58817020E-03  1.64892308E-04
  3.79950317E-02  3.07242477E-01 -7.78199893E-02  3.60058096E-05  2.41374254E-01
 -6.39576324E-02  2.85238522E-05  2.03980738E-01 -3.54449126E-02  2.54200346E-05
 -8.08640354E-04  4.96923931E-07  4.51969993E-07  2.56957253E-03  3.81534823E-03
 -1.84123396E-03  1.12508203E-06  1.44932212E-06  6.00706354E-03  9.95376939E-03
 -2.53036642E-07 -5.68157954E-04 -4.80061704E-04 -3.15842673E-08  5.70539927E-07
 -1.64286059E-03  3.37265648E-03  1.81145544E-03  4.61224364E-03 -9.10985983E-03
 -2.71210394E-04 -7.57082861E-02  1.72800646E-01  2.49828413E-04 -5.55808766E-05
  1.30876334E-01  2.03182104E-04 -4.42392877E-05  1.42730951E-01  1.25996898E-04
 -3.93421437E-05  1.61376863E-03  9.16868146E-07 -8.12612731E-10 -4.04679685E-03
  2.47649887E-06  3.67618685E-03  2.71742755E-06 -2.80469635E-09 -1.12475701E-02
  8.72408438E-06  3.76762175E-07 -1.39792395E-03  1.07198540E-06 -6.91091300E-07
  1.22251576E-09  3.30043719E-03 -5.38111402E-06 -1.69650182E-08 -3.90138865E-08
  5.90936669E-08  2.08257731E-07  3.91158618E-07  1.25936884E-05 -6.58648562E-02
  1.70937310E-09  7.09120774E-06 -3.69036031E-02  9.75494383E-10 -1.89678392E-05
  9.84171624E-02 -2.42424062E-09  6.16436727E-09  1.45206133E-09 -1.27150204E-06
  7.79459192E-05  2.40075690E-02  1.83982618E-08  3.76564732E-09 -5.82139289E-06
  1.70729760E-04  5.25642360E-02 -4.19118211E-11 -1.30424969E-07  6.64770141E-04
 -6.89382198E-11 -3.76564796E-08 -2.28813633E-08 -5.71184236E-06  1.58131178E-03
  4.02479822E-03 -7.94182702E-03 -2.80946560E-04 -6.57237064E-02  7.77182259E-02
  2.17454774E-01 -4.98096126E-05  6.38756809E-02  1.67579556E-01 -3.94860475E-05
  3.54213315E-02  1.63079681E-01 -3.60296763E-05  1.39747260E-03 -3.44034056E-07
  8.84511034E-07  3.81905917E-03  1.83851670E-03  3.18320092E-03 -1.15135552E-06
  2.48767222E-06  9.96293874E-03  5.48641653E-03  4.12823976E-07  4.78671240E-04
 -1.12088907E-03  5.27167028E-07  5.38176926E-07  2.85290148E-03 -1.95065008E-03
 -1.57906232E-03 -4.01907547E-03  7.93052644E-03  2.80509731E-04  6.56314806E-02
 -7.80190988E-02  2.17801990E-01  4.97223551E-05 -6.41186022E-02  1.67864970E-01
  3.94169241E-05 -3.55829888E-02  1.63237970E-01  3.59680722E-05 -1.39551911E-03
  3.44631019E-07  8.82713282E-07 -3.81777433E-03  1.84482610E-03 -3.17878723E-03
  1.15370348E-06  2.48181680E-06 -9.95507763E-03  5.50290105E-03 -4.12212822E-07
 -4.79583108E-04 -1.11875926E-03 -5.24894344E-07  5.38939795E-07 -2.86080496E-03
 -1.94135152E-03 -2.19525235E-06 -5.58892805E-06  1.10389529E-05  3.22182705E-07
  9.16540733E-05  1.49821660E-04  3.52287702E-01  6.75769843E-08  1.25284453E-04
  2.78391110E-01  5.37924261E-08  5.60407059E-05  2.24514009E-01  4.78166141E-08
 -1.95203371E-06 -1.01251600E-09  9.97733512E-08 -4.81970532E-06 -4.76912511E-03
 -4.43726846E-06 -3.33119689E-09 -2.95388632E-08 -1.03414888E-05 -1.17488232E-02
 -4.57221068E-10  1.39425391E-06 -2.90713623E-04  5.27831626E-10 -1.53063749E-07
  7.89916037E-06  3.89108965E-03  1.08886279E-12  2.54541344E-12 -1.00172081E-11
  2.83742409E-11  1.29532279E-10  1.19404908E-08 -8.57260871E-06 -3.44289582E-07
  4.99477360E-09 -3.57378118E-06 -3.42172230E-07 -5.65215766E-08  4.06123924E-05
 -4.32614494E-07 -1.42928264E-09 -2.29776628E-05  1.64922630E-02  1.34695184E-08
  2.65818899E-06 -4.02957601E-09 -6.47529991E-05  4.64686813E-02  2.14996909E-08
  3.78913124E-06  5.90734907E-09  5.61986820E-10 -1.20724064E-06 -3.14907678E-05
 -7.07991444E-03  9.81169582E-10  1.79115354E-07  6.68348933E-07  1.67454456E-06
 -3.23720391E-06 -3.13144430E-07 -3.06953462E-05 -7.79328598E-06  4.63253447E-05
  3.44225855E-01 -6.04106566E-06  3.67387310E-05  2.77187555E-01 -1.32462923E-05
  3.86179576E-05  2.43262880E-01  6.85577363E-07  2.29193846E-03 -3.52377101E-03
  5.67899575E-07  5.60827249E-07  2.23776256E-06  8.28546578E-03 -1.18124788E-02
  1.46412771E-06  2.10686455E-06 -1.34343870E-03  3.55505121E-07 -6.90636783E-07
 -1.36939128E-03 -2.86929645E-03  6.90295391E-07 -1.36050883E-07 -6.66484369E-07
 -1.66987343E-06  3.22817776E-06  3.12241080E-07  3.06099147E-05  7.64790838E-06
  4.63067764E-05 -3.43269306E-01  5.92426884E-06  3.67253846E-05 -2.76417280E-01
  1.31703951E-05  3.85516677E-05 -2.42586789E-01 -6.83750202E-07 -2.29491514E-03
 -3.50804818E-03 -5.66776357E-07  5.59944334E-07 -2.23199448E-06 -8.29882787E-03
 -1.17556411E-02 -1.45588301E-06  2.10411936E-06  1.33970951E-03 -3.55903273E-07
 -6.88098223E-07  1.35145504E-03 -2.86828170E-03 -6.89138537E-07 -1.33738172E-07
 -1.85375293E-09 -4.64476899E-09  8.98030879E-09  8.61680143E-10  8.52089723E-08
 -4.65852696E-08  4.52657439E-05 -9.57659385E-04 -3.59803649E-08  3.62910092E-05
 -7.71135726E-04 -6.55041129E-08  2.44191441E-05 -6.76734508E-04 -1.25826957E-09
  1.21402300E-05  4.55413247E-04  5.93612603E-10 -5.86804184E-07 -3.95693271E-09
  4.26158085E-05  2.57703926E-03  3.85243823E-09 -1.01853799E-06  3.74046693E-06
  1.38239605E-09 -3.69061740E-08 -9.85917692E-06 -5.11160669E-04 -2.90684270E-10
  4.28592884E-07 -2.02719783E-10 -5.32727334E-10  3.27656821E-09 -1.02587666E-08
 -1.76018549E-08 -8.55004567E-06 -1.19297863E-08  5.41409871E-05 -3.57041006E-06
 -4.98685257E-09  5.46873726E-05  4.05763403E-05  5.64382292E-08  6.72908647E-05
  5.92195847E-07  1.64848827E-02  2.29738591E-05 -3.33215211E-06  1.31817303E-08
  1.66988215E-06  4.64666529E-02  6.47511698E-05 -5.69550350E-06  2.07101015E-08
 -8.67991409E-07 -7.42887207E-07 -2.15370451E-09  7.07701742E-03 -3.14866462E-05
 -1.79873277E-07  9.77687233E-10 -3.83290723E-07 -9.60347270E-07  1.85684650E-06
  1.77701139E-07  1.76176780E-05  4.95719621E-05 -5.70795429E-07 -1.97565092E-01
  3.96276342E-05 -2.27321186E-07 -1.59087534E-01  3.19146152E-05 -8.13404855E-06
 -1.39635694E-01 -3.76789885E-07 -8.59648036E-04  2.28406147E-03  2.39493694E-07
 -6.59761913E-07 -1.19084639E-06 -2.17780155E-03  8.26125541E-03  6.58600244E-08
 -1.79433314E-06  7.70707440E-04 -2.07074078E-07  3.74904862E-07  1.29601677E-03
  1.35037982E-03 -4.09935502E-07 -3.92047497E-07 -3.86504652E-07 -9.68399863E-07
  1.87241509E-06  1.79210844E-07  1.77652044E-05  4.96105006E-05  6.92987805E-07
 -1.99223165E-01  3.96570481E-05  3.23582836E-07 -1.60422678E-01  3.19949557E-05
  8.25487735E-06 -1.40807519E-01 -3.80090305E-07 -8.75375779E-04 -2.29924805E-03
  2.39452911E-07  6.61485981E-07 -1.20161497E-06 -2.23467061E-03 -8.31359261E-03
  6.61552341E-08  1.80420384E-06  7.77177516E-04 -2.09555123E-07 -3.77803701E-07
  1.29703680E-03 -1.36949700E-03 -4.10857070E-07  3.93906174E-07  7.68054149E-07
  1.92450301E-06 -3.72222112E-06 -3.48912302E-07 -3.53460175E-05  3.83689591E-05
  6.97506915E-08  3.96981315E-01  3.01979362E-05  5.65021765E-08  3.19660820E-01
  3.74362031E-05  2.05531412E-08  2.80558796E-01  5.20940724E-07 -4.83866243E-03
  6.02520326E-06 -7.40253337E-07  9.70193225E-11  1.63956487E-06 -1.65729721E-02
  2.31038200E-05 -2.45420801E-06  2.55401574E-09 -1.54977528E-03 -5.88138182E-07
  5.09732288E-10  3.65441306E-03 -8.67651047E-06  6.62374070E-07 -9.93546754E-10
 -1.33542887E-09 -4.62618150E-09  5.44981834E-08 -1.18312358E-07  4.24445248E-08
 -4.59005467E-08 -1.22713849E-06  3.89817089E-13 -2.22112378E-08 -2.27474535E-06
  8.50123024E-12  7.97759491E-08  1.28100218E-05 -1.36639844E-11 -2.57871961E-09
  1.76022124E-12  3.08238398E-11 -1.32932206E-08 -2.08364296E-06  4.86629603E-08
 -1.28886441E-12  2.25866456E-11 -1.51812001E-08  1.00051246E-05 -4.82917030E-13
  5.14218935E-10  1.98221425E-07  7.11377179E-10  3.49160213E-07  4.19958179E-05
  1.37500999E-02  1.18893868E-07  2.86741911E-07 -1.05261068E-06  2.85558758E-06
  3.20816556E-06 -2.62396147E-01 -1.51163733E-01 -5.43806884E-06 -2.14927855E-01
 -1.23822160E-01 -4.45399132E-06 -1.86567156E-01 -1.07480482E-01 -3.86657364E-06
  7.15728511E-08 -2.04974974E-07 -6.25661924E-08 -2.31663780E-03  1.34339372E-03
 -9.90371238E-07 -8.28658847E-07 -3.07077988E-07 -7.12124991E-03  4.12912047E-03
 -1.71951377E-08 -3.38491452E-04 -1.94980666E-04 -1.57826201E-07  1.58756639E-07
  5.97755518E-06  2.14105527E-03 -1.29883689E-07 -3.10880271E-07  1.04874032E-06
 -2.60693705E-06 -3.29588635E-06  2.62088657E-01 -1.51698249E-01  5.43807323E-06
  2.14675994E-01 -1.24259904E-01  4.45399916E-06  1.86348521E-01 -1.07860578E-01
  3.86658242E-06 -7.30701610E-08  2.04846802E-07 -6.29833339E-08  2.32209512E-03
  1.33395197E-03  9.82766715E-07  8.28036398E-07 -3.08762213E-07  7.13802539E-03
  4.10013029E-03  1.71941035E-08  3.38089138E-04 -1.95671510E-04  1.58472627E-07
  1.58114173E-07  7.09936475E-06  2.14106628E-03  9.38787129E-09  2.31310988E-08
 -4.97128343E-08 -2.14361700E-08 -1.68829338E-08  3.08626282E-04  3.02965868E-01
  2.22901246E-11  2.52732436E-04  2.48149489E-01  2.56715158E-11  2.19458921E-04
  2.15424373E-01  9.74677156E-12  1.22725774E-09  1.27760490E-10  1.25551144E-07
 -5.45790680E-06 -2.67851174E-03 -1.36898300E-08  6.23889278E-10  6.15015957E-07
 -1.67790949E-05 -8.23666788E-03 -2.98757491E-13  3.99035999E-07  3.89925557E-04
 -3.12883721E-10 -1.53945091E-07  6.54863671E-06  2.14290950E-03 -6.95368696E-06
 -1.62814413E-05  2.86220337E-05  3.62851500E-05  3.32360321E-04 -8.61178154E-06
  8.74394894E-09  4.15873760E-01 -8.18084157E-06  8.34373109E-09  3.94617222E-01
 -8.52834908E-06  8.60566266E-09  4.10695309E-01  4.81221116E-06  4.26180276E-06
 -1.58711087E-08 -3.20543660E-10  1.74084162E-12  4.03819226E-06  7.04823087E-06
 -1.89604771E-08 -1.87538522E-09 -1.95781158E-12  3.41692373E-03 -1.73740783E-07
  1.77624236E-10  2.92912526E-07  1.04573823E-09 -9.24043576E-07  2.82294367E-09
  2.86861250E-06  6.94751899E-06 -1.16555925E-05 -1.35268491E-05 -9.01000989E-05
 -2.85238718E-06  1.33107645E-05 -2.32488280E-01 -3.34203891E-06  1.22256052E-05
 -1.78652552E-01 -1.75171918E-05  4.16170037E-05 -3.11636613E-01  5.23500903E-07
  2.17203985E-03 -3.77028307E-03  7.80153304E-08  2.90156215E-07  3.01481423E-06
  5.47421857E-03 -9.49856482E-03  9.25785530E-07  1.98790201E-06 -1.46630709E-03
  3.56709611E-07 -5.72174977E-07 -7.24254855E-04 -1.24925211E-03  3.22007939E-07
  3.07353376E-08  2.86861415E-06  6.94752258E-06 -1.16555977E-05 -1.35268453E-05
 -9.01001103E-05 -2.87953908E-06 -1.33050104E-05 -2.32488048E-01 -3.36696695E-06
 -1.22188354E-05 -1.78652335E-01 -1.76020016E-05 -4.15813433E-05 -3.11636129E-01
  5.23498333E-07  2.17970731E-03  3.76583969E-03  7.68325652E-08 -2.90469644E-07
  3.01480993E-06  5.49355310E-03  9.48738416E-03  9.17677960E-07 -1.99165462E-06
 -1.46630446E-03  3.57873936E-07  5.71445808E-07 -7.19158907E-04  1.25219000E-03
  3.21814469E-07 -3.27019893E-08  2.86926349E-06  6.94896261E-06 -1.16569914E-05
 -1.35335140E-05 -9.00608105E-05  2.02139628E-05 -2.05861568E-08 -2.32428254E-01
  1.78370319E-05 -1.81640179E-08 -1.78596195E-01  5.45195324E-05 -5.55074314E-08
 -3.11515012E-01  2.88631691E-07 -4.34803764E-03  4.42815327E-06 -1.54395052E-07
  3.14906011E-10  2.42344163E-06 -1.09612582E-02  1.11540786E-05 -1.84302343E-06
  3.75274595E-09 -1.46563087E-03 -4.90931735E-07  5.00065413E-10  1.44348258E-03
 -2.93942768E-06  2.67141801E-07 -8.16360669E-10 -3.90787378E-02 -9.49660521E-02
  1.89267607E-01  5.88106177E-02  5.20601020E+00  2.09102567E-04 -8.31099082E-07
 -6.70605727E-05  8.45984889E-05 -2.30671097E-07 -8.85538387E-05 -2.91041807E-04
  6.47451231E-07 -1.92751431E-04  3.44478842E-02 -1.23765716E-06  1.26227876E-09
 -7.26152986E-06  4.77420506E-09 -3.62216929E-02  1.30490620E-06 -1.35888875E-09
 -4.24546794E-05 -8.57279838E-08 -3.20131225E-07  1.95306381E-06 -8.87303100E-09
  3.21169578E-08 -6.32012597E-11  1.25888919E-03 -3.84616278E-06  3.05706344E-02
  7.39756994E-02 -1.22274933E-01 -1.38611324E-01 -1.59758555E+00 -6.71965563E-02
  1.16560755E-01  1.59099020E-05 -6.03466985E-02  1.04709325E-01  7.35422364E-06
 -4.73557591E-01  8.21948973E-01  1.75020981E-05 -1.23811661E-03 -4.66943202E-07
  7.30817403E-07 -2.18650208E-03 -3.77455602E-03  2.49499694E-02 -3.64763352E-06
  5.59393367E-06  1.13755845E-02  1.95923605E-02  8.96852009E-07  1.67018115E-03
 -2.90020844E-03  3.89249448E-07  8.15663792E-07  1.01943569E-03 -4.61324619E-06
  3.05706766E-02  7.39757948E-02 -1.22275057E-01 -1.38611659E-01 -1.59758271E+00
 -6.74342654E-02 -1.16424228E-01  1.59098359E-05 -6.05600597E-02 -1.04586472E-01
  7.35420202E-06 -4.75230815E-01 -8.20982830E-01  1.75019260E-05 -1.23812656E-03
 -4.68426690E-07 -7.29859203E-07 -2.17111013E-03  3.78344693E-03  2.49498775E-02
 -3.65901030E-06 -5.58647888E-06  1.12956619E-02 -1.96384351E-02  8.96850219E-07
  1.67607731E-03  2.89679121E-03  3.85923385E-07 -8.17241015E-07  1.01944089E-03
 -1.61113143E-06  3.05852535E-02  7.40090665E-02 -1.22315702E-01 -1.38758643E-01
 -1.59672272E+00  1.34757744E-01 -1.37118504E-04  2.00814288E-05  1.20973038E-01
 -1.23111929E-04  1.11037152E-05  9.48679359E-01 -9.65969453E-04  4.69781882E-05
 -1.24162478E-03  1.06761580E-06 -1.08708025E-09  4.36667968E-03 -8.88698371E-06
  2.49301372E-02  4.61639451E-06 -4.70297747E-09 -2.26357317E-02  4.61319895E-05
  6.41607272E-07 -3.34411107E-03  3.40624424E-06 -6.97259322E-07  1.42012346E-09
  1.01940108E-03 -3.11847930E-06 -3.03707911E-04 -6.68761330E-04  5.21199397E-04
  6.86735098E-03 -1.55125726E-02  2.65352229E-01  1.48123969E-04  5.47466202E-06
  5.02859838E-01  2.80437118E-04  1.05080328E-05  3.80628064E+00  2.12002106E-03
  7.88627482E-05 -1.52134090E-05  2.86042897E-06  2.49082928E-09 -1.37258590E-02
  4.95958025E-05  3.61561765E-04 -1.16743175E-05 -1.09681131E-08  6.87574000E-02
 -2.48315896E-04 -2.46362431E-07 -4.84087783E-03 -2.69220590E-06 -9.57816198E-07
  3.96080187E-09  1.37188580E-05 -3.74234920E-08 -1.97182463E-02 -4.80419489E-02
  8.49001106E-02  2.68268771E-02  1.72887978E+00 -6.52648041E-02 -6.57698706E-02
  7.22892790E-06 -4.86832063E-02 -3.21971931E-02  5.87604030E-06 -9.36075021E-02
 -1.20030740E+00  5.73240841E-05  4.87083718E-03  3.24256462E-07  1.08985168E-06
  1.12528544E-02  1.75881747E-03 -2.09524400E-02  2.85947135E-06 -9.47885688E-07
 -2.05903813E-02 -2.47965520E-02 -5.29488059E-08 -1.63761197E-03  9.73162212E-04
  4.80775088E-07 -4.39555275E-07 -2.23216426E-03 -2.99744650E-03 -1.98262616E-02
 -4.83051131E-02  8.53649534E-02  2.69755714E-02  1.73831793E+00 -6.49207512E-02
  6.59406813E-02  7.28024728E-06 -4.85137622E-02  3.22639745E-02  5.91584609E-06
 -8.73708489E-02  1.20457668E+00  5.77263805E-05  4.89757757E-03  3.17863269E-07
 -1.09439226E-06  1.12512406E-02 -1.84678046E-03 -2.10667744E-02  2.86523036E-06
  9.54809105E-07 -2.05672490E-02  2.50354657E-02 -5.29401703E-08 -1.64267823E-03
 -9.78551434E-04  4.81307119E-07  4.37423528E-07 -2.22604855E-03  3.00560092E-03
  3.95831557E-02  9.64390451E-02 -1.70325737E-01 -5.46244557E-02 -3.45508497E+00
  5.12792033E-02 -2.14719772E-04 -1.61344133E-05  9.52543027E-03 -1.15622276E-04
 -1.35719032E-05  1.98942244E+00 -3.26210961E-03 -7.73716873E-05 -9.80996953E-03
 -9.15664228E-07  1.97296699E-09  1.44414469E-02 -4.55049300E-05  4.18408799E-02
  4.48695846E-07  3.34071266E-09 -6.35095130E-02  1.39123772E-04 -2.29633266E-07
 -3.33667390E-03  1.70171069E-06  1.32656467E-07 -1.13824239E-09  4.48876568E-03
 -8.25425246E-06  1.41613754E-06  3.11950568E-06 -2.45347912E-06 -3.16169192E-05
  7.08986645E-05 -1.47640521E-04  2.65112587E-01 -8.52423112E-09 -2.80234442E-04
  5.02950793E-01 -1.67960657E-08 -2.12467043E-03  3.80688420E+00 -1.24234505E-07
  5.50442857E-08 -1.01788567E-09  3.42737870E-06  4.95445412E-05  1.37175918E-02
 -1.61844001E-06  3.67514944E-09 -1.45320747E-05 -2.49066849E-04 -6.89443318E-02
  3.91091171E-10  2.70701218E-06 -4.85369798E-03  4.11729657E-09  1.27909787E-06
 -6.74753522E-08  1.95368942E-06  3.42985727E-02  8.35640997E-02 -1.47591670E-01
 -4.71825760E-02 -2.99961574E+00 -6.63463403E-02  1.21262635E-02 -1.62795773E-05
 -3.28475119E-02 -1.01746482E-02 -1.26303569E-05 -1.20044527E+00  1.30002416E+00
 -1.27805419E-04 -8.49453816E-03  1.32101310E-06 -1.23678752E-06 -1.86782927E-03
 -1.33659632E-02  3.63678908E-02 -1.22185113E-06  4.05702438E-06  2.50169433E-02
  4.92915150E-02 -2.09717869E-09  9.79470896E-04 -2.77615506E-03  3.96990164E-07
 -5.38908813E-08  3.88255437E-03 -1.73937561E-03 -3.42363382E-02 -8.34124650E-02
  1.47323504E-01  4.70994751E-02  2.99412398E+00  6.65783900E-02  1.17878892E-02
  1.62567447E-05  3.29823641E-02 -1.03389475E-02  1.26117236E-05  1.20336807E+00
  1.29378095E+00  1.27623663E-04  8.47922344E-03 -1.32454287E-06 -1.23066162E-06
  1.77800041E-03 -1.33678204E-02 -3.63012387E-02  1.22106635E-06  4.05148738E-06
 -2.47508713E-02  4.93138586E-02  2.26195926E-09 -9.79956563E-04 -2.77109152E-03
 -3.98728467E-07 -5.36470767E-08 -3.88616359E-03 -1.72509606E-03 -6.24135495E-05
 -1.52060406E-04  2.68432354E-04  8.68635314E-05  5.43689734E-03 -1.87811020E-04
 -1.03110325E-01  2.53687108E-08 -8.57545342E-05 -6.72301587E-02  2.13214915E-08
 -3.93264854E-03 -7.84449265E-01  1.21844773E-07  1.55035000E-05  2.11564356E-09
  6.60006190E-07 -4.36195031E-05 -1.02062260E-02 -6.58480674E-05  1.75051983E-09
  2.41070173E-06  1.12652248E-04  6.21247631E-03  3.61560851E-10  4.17730102E-06
 -1.07623748E-03 -1.32962333E-09 -5.50969822E-07  3.47171583E-06  3.46414336E-03
  8.02848363E-02  1.76465253E-01 -9.79995672E-02 -2.05931912E+00  3.13065487E+00
  7.30395795E-04 -2.94045865E-06  3.95830314E-06  1.94464809E-03 -7.93464833E-06
 -2.47586780E-05  1.57369508E-02 -6.53492578E-05  6.84553802E-05  3.25424897E-03
 -1.05426208E-07  6.68420677E-11 -4.75394896E-05 -4.92120558E-08 -6.49567536E-02
  2.27382914E-06 -2.07927658E-09  5.20038209E-04  5.43191419E-07 -4.10631113E-07
 -4.03753857E-05  1.69572640E-07 -2.68306280E-07  5.17768087E-10 -1.02921869E-02
  3.14460906E-05 -5.31353096E-03 -1.26390909E-02  7.82267895E-03  9.00595635E-02
 -6.76493999E-01  9.43984204E-02 -1.64532863E-01 -1.90468628E-06  1.08440263E-01
 -1.88720418E-01 -4.25998539E-06 -3.73614022E-02  5.96350546E-02 -1.03522330E-05
  4.22006005E-03 -3.08272704E-07  5.50741737E-07  3.82917576E-03  6.54123344E-03
  7.34635836E-03 -5.49302497E-07  7.71330145E-07  3.55871156E-03  6.18580998E-03
 -2.35441529E-07 -9.08169924E-04  1.56902205E-03 -2.47789703E-07 -3.70547858E-07
 -3.76554878E-03 -1.62403924E-06 -5.31270360E-03 -1.26370941E-02  7.81956739E-03
  9.00567516E-02 -6.76570034E-01  9.47323567E-02  1.64340973E-01 -1.90500521E-06
  1.08823673E-01  1.88499693E-01 -4.26026610E-06 -3.75133305E-02 -5.95927951E-02
 -1.03555100E-05  4.21984956E-03 -3.09360705E-07 -5.50080272E-07  3.80244416E-03
 -6.55644854E-03  7.34753006E-03 -5.50933492E-07 -7.70364378E-07  3.53430691E-03
 -6.20192184E-03 -2.35438100E-07 -9.11329253E-04 -1.56708530E-03 -2.46265037E-07
  3.71550971E-07 -3.76533567E-03  2.46709588E-05 -5.08115092E-03 -1.20781118E-02
  6.94560584E-03  8.92717891E-02 -6.97622060E-01 -1.89719363E-01  1.94420051E-04
 -7.88861455E-06 -2.17704179E-01  2.22626725E-04 -1.11143392E-05  8.28458860E-02
 -7.50321702E-05 -8.56442361E-06  4.16072806E-03  1.63168836E-07 -1.72890034E-10
 -7.49094623E-03  1.53677335E-05  7.67277453E-03  3.33531892E-07 -3.77866371E-10
 -7.65683670E-03  1.54991969E-05 -9.82448250E-08  1.78773629E-03 -1.80818811E-06
  2.12267252E-07 -4.24594352E-10 -3.72836719E-03  1.13479980E-05 -5.35403228E-06
 -1.25278378E-05  2.93412170E-05  5.17750056E-05 -5.87692566E-04  2.95805913E-06
 -3.18381725E-09 -1.40716338E-01  1.10016918E-05 -1.14053682E-08 -5.29951668E-01
 -2.45778713E-05  2.74223024E-08  1.15381372E+00  1.83929194E-07  6.25213813E-06
 -2.34418088E-08  1.23473012E-09  4.97268492E-12  3.47645484E-05  2.71155488E-05
 -1.23188422E-07 -5.22251901E-08 -5.81017121E-11  7.14640306E-03 -3.60617191E-07
  3.62481139E-10  2.85378835E-06  7.22548331E-09 -3.06321416E-06  9.35926908E-09
 -1.24486033E-06 -2.60257210E-06 -1.69016213E-06  2.77244589E-05  1.74118916E-04
 -7.72725703E-06  1.85913286E-05 -1.43220075E-01 -3.56494144E-06  1.52072817E-05
 -2.49669983E-01  5.02158838E-05 -9.10004137E-05  1.09945593E-01 -2.02902601E-07
 -1.13568624E-03  1.97113409E-03 -2.82310514E-08 -1.30017874E-07 -6.34351416E-06
 -3.58513088E-03  6.22629975E-03 -3.94750401E-06 -7.06843448E-06 -7.30514793E-05
 -2.40155072E-07  4.12036436E-07 -1.02774444E-04 -1.77701216E-04 -7.19162176E-08
  5.36673826E-09 -1.24488411E-06 -2.60262528E-06 -1.69013884E-06  2.77247784E-05
  1.74121633E-04 -7.76517302E-06 -1.85758352E-05 -1.43219995E-01 -3.59592506E-06
 -1.52003282E-05 -2.49669772E-01  5.04020479E-05  9.08992991E-05  1.09944843E-01
 -2.02896783E-07 -1.13968146E-03 -1.96879018E-03 -2.76976853E-08  1.30128202E-07
 -6.34358093E-06 -3.59783446E-03 -6.21902068E-03 -3.91872427E-06  7.08454855E-06
 -7.30442976E-05 -2.40995194E-07 -4.11551331E-07 -1.02045595E-04  1.78110087E-04
 -7.19537682E-08 -4.93021667E-09 -1.25074800E-06 -2.61609936E-06 -1.67973892E-06
  2.77742715E-05  1.74865044E-04  2.44847618E-05 -2.49968282E-08 -1.43202589E-01
  2.27832888E-05 -2.33049795E-08 -2.49615404E-01 -1.07806385E-04  1.09544178E-07
  1.09763756E-01 -7.84099828E-08  2.26719619E-03 -2.31062348E-06  5.34304597E-08
 -1.08998109E-10 -5.97648809E-06  7.19327869E-03 -7.31031489E-06  7.90419479E-06
 -1.60850412E-08 -7.16931964E-05  4.94131040E-07 -5.03129853E-10  2.03234368E-04
 -4.13929618E-07 -8.20670805E-08  2.53150713E-10 -5.44288878E-05 -1.16026171E-04
 -7.82116287E-05  2.04240476E-03 -3.21023075E-05 -3.58942116E-01 -3.35201968E-04
 -7.47090433E-06 -3.54086222E-01 -3.30405217E-04 -7.44692256E-06  1.54269989E+00
  1.44037748E-03  3.20849311E-05  8.16522690E-09  2.08105155E-07 -2.44269842E-10
  5.40956611E-03 -2.15779494E-05 -7.47895441E-05 -1.30999716E-05 -3.54585708E-08
  2.86643712E-01 -1.14361071E-03 -5.80292555E-07 -1.15003215E-02 -1.07506448E-05
 -2.59478488E-06  1.18290472E-08  3.40442965E-05 -5.73283159E-08  1.28145004E-03
  4.11294738E-03 -2.54494007E-02  5.59701442E-02  5.42015509E-01 -1.35036063E-01
  6.26826535E-02 -4.04462259E-06 -2.25638658E-01 -2.38182626E-02  1.52486871E-06
  3.59506541E-01 -7.94188142E-02  1.67241135E-06 -5.99593723E-04 -3.09107788E-07
 -5.03015930E-07 -6.95420016E-03  1.96561920E-03 -2.59279210E-02  2.89027004E-06
 -3.61993473E-06 -3.48952091E-02 -2.88996308E-02 -1.60298369E-07 -1.11969080E-03
  1.20923238E-03  1.90197877E-07 -4.23860325E-07 -2.08163334E-03 -1.21813572E-03
  1.29003882E-03  4.14062012E-03 -2.56221392E-02  5.63518422E-02  5.45694407E-01
 -1.35410005E-01 -6.32189226E-02 -4.05795974E-06 -2.25497852E-01  2.35037762E-02
  1.56928723E-06  3.59983292E-01  8.04574092E-02  1.63943778E-06 -6.03600221E-04
 -3.05650456E-07  5.05749977E-07 -6.95442202E-03 -1.91897699E-03 -2.61040701E-02
  2.91346917E-06  3.64377838E-06 -3.48905648E-02  2.93095201E-02 -1.61246979E-07
 -1.12691838E-03 -1.21684244E-03  1.90337202E-07  4.24131781E-07 -2.08832792E-03
  1.22810739E-03 -2.52633551E-03 -8.15393825E-03  5.10854710E-02 -1.13076954E-01
 -1.08804402E+00 -2.44167460E-01  5.56342330E-05 -2.64958362E-06 -1.84502259E-01
 -2.79064103E-04 -1.64351535E-05  5.00669831E-01  1.01749489E-04  2.20636178E-05
  1.17930393E-03  6.40697385E-07 -1.29923107E-09 -3.54275161E-03  2.29621771E-05
  5.20992489E-02  4.31010094E-06 -1.82290045E-09 -8.54309160E-02  2.09347052E-04
  4.51186197E-08 -3.24346534E-03  2.47691825E-06 -1.95419064E-07 -3.05416880E-10
  4.19442797E-03 -1.00606757E-05  2.83076260E-07  6.05159617E-07  3.28569184E-07
 -1.00826792E-05  2.66020885E-07  3.35302019E-04 -3.58948307E-01  1.47134451E-08
  3.31252347E-04 -3.54186709E-01  1.49636724E-08 -1.43890081E-03  1.53983232E+00
 -6.30678606E-08 -1.05202610E-08 -4.21692727E-10 -1.95260518E-08 -2.15782804E-05
 -5.41001885E-03  3.58288687E-07  1.28951214E-10 -2.49841683E-05 -1.14340943E-03
 -2.86699018E-01  1.11953697E-09  1.07233131E-05 -1.14977864E-02  1.18857212E-08
  3.35009999E-06 -1.43774368E-07  1.02602377E-05 -2.22238307E-03 -7.14367459E-03
  4.43633568E-02 -9.78918414E-02 -9.41211155E-01  6.29043622E-02 -2.08008715E-01
  3.42070002E-06 -2.36430308E-02 -1.98043149E-01 -1.13959308E-05 -7.97411119E-02
  4.52655011E-01  8.56971620E-06  1.03624522E-03 -6.21769799E-07  5.43335624E-07
 -1.93313872E-03  4.70052494E-03  4.51316321E-02 -4.04678327E-06  7.62846745E-06
  2.93420802E-02  6.85348365E-02  2.43152678E-07  1.21627813E-03 -2.53441480E-03
  4.06266894E-07  2.68065973E-07  3.62439801E-03 -7.15203044E-04  2.21723244E-03
  7.12726615E-03 -4.42635285E-02  9.76738035E-02  9.39093158E-01 -6.27993264E-02
 -2.07634962E-01 -3.40470233E-06  2.41209792E-02 -1.98184437E-01  1.13901939E-05
  7.92596751E-02  4.52189166E-01 -8.57591369E-06 -1.03382541E-03  6.24067628E-07
  5.40086850E-07  1.97950204E-03  4.70003617E-03 -4.50302868E-02  4.05099859E-06
  7.60608440E-06 -2.89268316E-02  6.85401725E-02 -2.42532715E-07 -1.21707372E-03
 -2.52724662E-03 -4.05921685E-07  2.68072886E-07 -3.62063485E-03 -6.97843531E-04
  4.93153800E-06  1.59263631E-05 -9.99109029E-05  2.21557038E-04  2.12002145E-03
  3.75571024E-04 -9.89717620E-02  5.30991635E-09  1.15895247E-04 -2.39444862E-01
  3.23781321E-08 -6.56221847E-04  3.14356874E-01 -4.35364200E-08 -2.30164591E-06
 -1.59374405E-09 -3.32041556E-07  2.33575669E-05  8.07557676E-03 -1.01688347E-04
 -7.08307546E-09  1.31540119E-06  2.03590487E-04  1.80826457E-02 -8.90946792E-11
  5.90974020E-06 -4.23107978E-04 -3.51096311E-10 -3.60205357E-07 -3.88323312E-06
  1.41202547E-03  1.32598285E-02  4.11416000E-02 -3.91740174E-01  1.55043833E+00
  8.45344796E-01  7.08981325E-05 -3.90480740E-07  1.95079563E-05 -2.07398275E-04
  8.90126942E-07 -3.13122863E-05  2.06612741E-03 -6.89968857E-06 -4.47113192E-05
 -2.37377008E-02  8.56769243E-07 -8.88532836E-10 -9.12404483E-06 -4.10544261E-08
 -2.89229026E-01  1.03850023E-05 -1.06180801E-08 -3.26990934E-04 -4.11641614E-07
  5.31013027E-06  2.27219267E-05 -9.89806392E-08  1.32498755E-06 -2.68377308E-09
  5.20621337E-02 -1.59052080E-04  2.46878161E-03  1.43162968E-04  9.74007977E-02
 -3.40904890E-01 -2.15160047E-01  1.04615020E-01 -1.81258420E-01 -1.33785788E-05
  9.95266930E-02 -1.72025011E-01 -3.52974367E-05 -4.59653953E-01  7.95595518E-01
  1.51800356E-05 -5.75421871E-03  5.36424295E-07 -9.81331121E-07 -5.71528199E-03
 -9.88040786E-03  3.55240266E-02 -2.64339325E-06  5.78672830E-06  4.75074332E-02
  8.19824962E-02  9.20711747E-07  3.38166573E-03 -5.86839717E-03  5.59412369E-07
  9.58363294E-07  8.89295669E-03 -2.31365654E-05  2.46884729E-03  1.43332270E-04
  9.74001125E-02 -3.40902948E-01 -2.15164685E-01  1.04984199E-01  1.81044613E-01
 -1.33787131E-05  9.98784931E-02  1.71822921E-01 -3.52975602E-05 -4.61277159E-01
 -7.94658010E-01  1.51802203E-05 -5.75422601E-03  5.38422734E-07  9.80233438E-07
 -5.67496808E-03  9.90363766E-03  3.55238025E-02 -2.65512915E-06 -5.78127383E-06
  4.71728025E-02 -8.21748870E-02  9.20707192E-07  3.39360254E-03  5.86148321E-03
  5.55500707E-07 -9.60628445E-07  8.89289578E-03 -3.12015619E-05  2.48121678E-03
  1.77417604E-04  9.72120058E-02 -3.40174899E-01 -2.17338497E-01 -2.09270554E-01
  2.12695702E-04 -1.99183319E-05 -1.99217103E-01  2.01866434E-04 -4.15142934E-05
  9.19759918E-01 -9.33333807E-04  4.37974082E-05 -5.75736628E-03 -4.52457312E-07
  4.58533737E-10  1.14201941E-02 -2.32223908E-05  3.54775845E-02  1.46137856E-06
 -1.49445073E-09 -9.46133801E-02  1.92646673E-04  4.03837991E-07 -6.76897956E-03
  6.89202828E-06 -4.36728895E-07  8.89674789E-10  8.88285739E-03 -2.71343568E-05
  2.42468069E-11  7.12488131E-11 -4.02764541E-10  1.15545243E-09  2.80569459E-10
  6.51572089E-08 -3.36716649E-05  4.10447623E-07  2.26678306E-07 -1.17439904E-04
  7.04317901E-07 -1.64886512E-06  8.53804928E-04 -3.33278261E-06 -7.40790386E-10
 -1.31497398E-05  6.81058106E-03  6.26807210E-09  1.09414897E-06  1.13203924E-08
  2.11209530E-04 -1.09452134E-01  2.03732599E-07  4.35541718E-05  5.56557281E-09
 -4.12138416E-09  2.91554212E-06  3.86608180E-05  7.75651789E-03 -1.15722825E-09
 -1.98588336E-07 -1.39152347E-06 -2.45681450E-06 -1.18520453E-05  9.03027273E-05
 -4.98857052E-04  2.29598260E-05  2.37986446E-06 -2.04367374E-01  5.29132018E-05
  1.03022759E-05 -4.88268525E-01 -2.03005994E-04 -5.34018150E-05  1.03395607E+00
  6.68432751E-07 -4.59480148E-03  6.99395519E-03  2.64619141E-06  7.37235462E-07
  1.32975775E-06  1.38602169E-02  8.95239346E-03 -1.03784727E-05 -4.76987775E-06
 -1.23401395E-03  1.66992935E-07  3.24380698E-07  5.68269099E-04 -1.78105612E-03
 -1.15105735E-06  4.99579636E-07  1.38679392E-06  2.44844717E-06  1.18120377E-05
 -8.99966845E-05  4.97161071E-04 -2.30827450E-05  2.53826975E-06  2.03672885E-01
 -5.32116192E-05  1.06646433E-05  4.86609348E-01  2.04382708E-04 -5.48934873E-05
 -1.03044071E+00 -6.65959546E-07  4.59916611E-03  6.95747281E-03 -2.65521355E-06
  7.33540466E-07 -1.33219008E-06 -1.39896803E-02  9.06298198E-03  1.04040893E-05
 -4.75446497E-06  1.22981145E-03 -1.69437008E-07  3.25132511E-07 -5.89977096E-04
 -1.78210203E-03  1.15061739E-06  4.97270784E-07  4.73588532E-09  8.35891931E-09
  4.03676384E-08 -3.07382151E-07  1.69639509E-06  4.58681968E-08  3.50032585E-05
  6.94533714E-04  9.40279918E-08  8.48768690E-05  1.65933993E-03 -4.54289392E-07
 -3.69743437E-04 -3.51252772E-03 -3.85602674E-09 -2.93762546E-05 -9.86941716E-04
  3.57187531E-10 -3.52497869E-06 -2.95064260E-09  3.07878928E-05  3.31171393E-02
 -5.74634267E-09  1.22323936E-05  4.18812891E-06 -8.87872845E-10  4.41741512E-07
 -9.93266315E-06 -2.78391773E-03  1.42822307E-09 -8.35761811E-07 -4.81002029E-09
 -1.39399639E-08  8.17506050E-08 -2.19549452E-07 -2.25188087E-07 -3.37933893E-05
 -6.51342552E-08 -6.46161162E-05 -1.17462855E-04 -2.26576325E-07 -1.08533888E-04
  8.54794374E-04  1.64720196E-06  5.07599612E-04  2.47906573E-07  6.81610542E-03
  1.31439674E-05 -1.36478474E-06  5.97400201E-09 -3.87549604E-06 -1.09426160E-01
 -2.11136293E-04 -3.90106644E-05  2.07781702E-07 -9.96781580E-07  2.40213159E-06
  6.13665897E-09 -7.75384614E-03  3.86522627E-05  1.89754833E-07 -1.16792899E-09
  8.00168683E-07  1.41538991E-06  6.76799436E-06 -5.17682572E-05  2.86508108E-04
  2.18292310E-05  1.88998507E-05  1.17198026E-01  5.45201122E-05  4.30900689E-05
  2.79996382E-01 -2.53168230E-04 -1.82668871E-04 -5.92991413E-01 -4.18011655E-07
  1.64876560E-03 -4.57819735E-03  2.04169471E-06 -2.46090571E-06  4.10494350E-07
  2.51412643E-02  1.39362170E-02 -7.65459620E-06  9.80252197E-06  7.07772623E-04
  5.27612966E-07  6.97335330E-08  2.45155440E-03 -5.89136634E-04  5.90701672E-07
  8.01583432E-07  8.08370647E-07  1.42988310E-06  6.83763955E-06 -5.22997631E-05
  2.89445259E-04  2.16545823E-05 -1.89299120E-05  1.18400970E-01  5.41189203E-05
 -4.31392090E-05  2.82870441E-01 -2.51593588E-04  1.82864594E-04 -5.99077028E-01
 -4.21940465E-07  1.68522451E-03  4.61591944E-03  2.03608649E-06  2.45692747E-06
  4.02565810E-07  2.50307763E-02 -1.39341394E-02 -7.63325329E-06 -9.79933745E-06
  7.15030772E-04  5.26475754E-07 -6.88955717E-08  2.45049159E-03  5.68652077E-04
  5.92582539E-07 -8.02254450E-07 -1.60816013E-06 -2.84078104E-06 -1.36680033E-05
  1.04249694E-04 -5.75770999E-04 -3.55113526E-06  1.06992439E-07 -2.35601391E-01
 -2.67777121E-06  2.53217484E-07 -5.62886300E-01  2.66713208E-05 -1.11753636E-06
  1.19164341E+00  1.30716212E-06  9.62370830E-03 -1.27147056E-05 -2.55499196E-06
 -5.18585173E-09  1.00949245E-06  9.90812268E-04  9.66576453E-05  1.03792590E-05
  1.49670251E-08 -1.42067559E-03  4.52899160E-07  8.42864751E-10  1.44572313E-03
 -1.11525003E-05 -1.34916101E-06  1.65344225E-09 -3.69512101E-05 -8.94718116E-05
  2.71221485E-04 -3.25614235E-04  1.03970899E-03 -3.18216841E-01 -7.46341937E-04
 -6.61934588E-06 -1.23181219E-01 -2.87731384E-04 -2.55889060E-06  1.76438627E+00
  4.12820827E-03  3.65266177E-05  2.92356784E-05 -4.35469400E-07 -5.01706041E-09
  2.86426799E-02 -1.54781522E-04  2.04381702E-04 -1.91230213E-05 -4.74835555E-08
  1.77012254E-02 -9.62858462E-05 -3.79024195E-07 -7.39917593E-03 -1.73829965E-05
  9.38144970E-07 -3.41954203E-09 -2.06693371E-05  1.53993766E-08  5.23041081E-03
  1.30262714E-02 -2.09164868E-02 -1.18670863E-01  7.48998016E-01  1.34415025E-01
  2.26551540E-01 -1.60233875E-05  2.59530250E-01  3.51339794E-01 -3.62546300E-05
 -5.26402257E-01 -8.49094884E-01  8.16992665E-05  8.69750974E-04  3.11085587E-07
  5.95907437E-07  4.01205561E-03 -4.34807590E-04 -2.34173019E-02 -5.43453088E-06
 -4.76261107E-06 -5.83661142E-02  8.33047501E-03 -3.00950983E-08  2.24477233E-04
  1.98281379E-03 -5.50574423E-07  3.79744599E-07 -8.31364513E-04  4.67263874E-03
  5.29172359E-03  1.31789131E-02 -2.11607331E-02 -1.20066173E-01  7.57776790E-01
  1.32425280E-01 -2.27688412E-01 -1.62750780E-05  2.56445633E-01 -3.52863215E-01
 -3.67906047E-05 -5.18944712E-01  8.53256538E-01  8.29003780E-05  8.80001995E-04
  3.05376703E-07 -5.99996175E-07  4.01100895E-03  3.94677433E-04 -2.36919996E-02
 -5.38057473E-06  4.78494203E-06 -5.83443814E-02 -7.76306112E-03 -3.12587525E-08
  2.07027708E-04 -1.99726712E-03 -5.49740604E-07 -3.75600374E-07 -8.69711116E-04
 -4.64931754E-03 -1.05177961E-02 -2.61749432E-02  4.17278466E-02  2.40087204E-01
 -1.50904278E+00 -2.59370204E-01  1.15384026E-03  3.24748996E-05 -3.51197348E-01
  1.90858134E-03  7.65158728E-05  9.51245256E-01 -4.37541078E-03 -1.66578264E-04
 -1.75069048E-03 -6.61492957E-07  2.41545905E-09  3.28900332E-03 -2.09561794E-05
  4.71146485E-02  9.00628733E-07 -2.30439626E-08 -4.42141007E-02  3.01908766E-04
 -8.12049820E-08 -3.22599126E-03  7.87095888E-06  1.90100217E-07  1.38318522E-09
  1.68498776E-03 -2.32387045E-05  2.28595947E-07  5.47802867E-07 -1.49235084E-06
  1.23494902E-06 -6.60107926E-06  7.46590566E-04 -3.18341516E-01  2.23214521E-08
  2.89198109E-04 -1.22954505E-01  8.62214137E-09 -4.13915340E-03  1.76120481E+00
 -1.22572801E-07 -1.74957082E-07 -1.87917422E-10 -1.62374264E-06 -1.54814246E-04
 -2.86843502E-02 -1.09934797E-06  4.41539594E-08 -1.99299541E-05 -9.68907848E-05
 -1.80391540E-02  1.28419731E-09  1.73652195E-05 -7.41175021E-03 -4.04795740E-09
 -4.45308088E-07  8.89263076E-08 -5.38909272E-06 -9.13811090E-03 -2.27503293E-02
  3.64207538E-02  2.07790224E-01 -1.30743011E+00  2.26435150E-01 -1.29672476E-01
  3.74398115E-05  3.50847763E-01 -1.49952218E-01  7.97169436E-05 -8.48317594E-01
  4.64218466E-01 -1.78643849E-04 -1.52552335E-03  6.64848405E-07 -5.15892246E-07
  3.83716398E-04 -3.53237234E-03  4.09323413E-02 -6.55400252E-06  1.71085922E-06
 -7.78267724E-03  4.90232108E-02  1.73114994E-07  1.98871915E-03 -2.09358186E-03
 -3.49732350E-07  2.82260979E-07  1.47981548E-03  2.67147946E-03  9.10267721E-03
  2.26620455E-02 -3.62784048E-02 -2.06989512E-01  1.30236676E+00 -2.27594023E-01
 -1.27681240E-01 -3.73313778E-05 -3.52884627E-01 -1.46866171E-01 -7.94718035E-05
  8.52769397E-01  4.56761762E-01  1.78091255E-04  1.51963880E-03 -6.67964900E-07
 -5.10520192E-07 -4.25051644E-04 -3.53349958E-03 -4.07737771E-02  6.59375413E-06
  1.66535201E-06  8.37515087E-03  4.90440425E-02 -1.72907102E-07 -1.99440575E-03
 -2.07612700E-03  3.54581662E-07  2.83363173E-07 -1.45762125E-03  2.71179721E-03
  3.54022635E-05  8.80901371E-05 -1.40289659E-04 -8.08551123E-04  5.07745274E-03
  1.14166640E-03  2.64513794E-01 -1.09068417E-07  1.65040587E-03  4.61085030E-01
 -2.56908437E-07 -4.23110106E-03 -1.01266983E+00  5.59170222E-07  5.89339948E-06
  2.74200176E-09  5.17431842E-07 -1.96940708E-05 -4.23516676E-03 -1.58615535E-04
 -9.74522404E-09 -6.57404198E-06  2.77069735E-04  6.29936464E-02  2.73200001E-10
  1.22490582E-05  1.36339859E-03  4.32060102E-10  5.25976158E-07 -2.21052001E-05
 -5.37852420E-03  7.15734949E-10  4.13851192E-08 -4.78708673E-07  1.46383928E-06
  2.77695142E-06  1.01808317E-04 -5.85941223E-02  3.45553760E-09  1.06077857E-03
 -6.06241972E-01  3.49784706E-08 -7.25193575E-03  4.14469790E+00 -2.39208959E-07
  3.20862795E-08 -3.12079672E-09  3.57466484E-06  1.31323497E-04  2.73220630E-02
 -1.95366670E-07 -5.79662286E-08  4.05019857E-05  5.43757292E-04  1.13133986E-01
 -1.48630899E-09 -1.85298854E-05  1.05777249E-02 -9.10255641E-09 -2.29389155E-06
 -1.51043160E-08  6.15596392E-07  6.41359624E-03  1.70622515E-02 -5.27714221E-02
 -2.13144915E-02 -1.79000810E+00 -3.92862605E-02  6.61569050E-02  2.78076946E-05
 -3.22852802E-03  1.76561034E-01  9.00319925E-05 -4.75182389E-01 -6.78723822E-01
 -2.81299411E-04  1.00541180E-02  6.86243815E-07 -4.40149789E-07  1.39107317E-02
  9.69893295E-03 -8.42563146E-03  4.14114006E-06 -7.70571553E-06 -2.35539774E-02
 -4.23753409E-02 -3.89743961E-07 -1.75017099E-03  4.07777715E-03 -3.05090620E-07
 -5.00353061E-07 -5.61550842E-03 -7.92808004E-04 -6.39310271E-03 -1.70077369E-02
  5.26028617E-02  2.12464254E-02  1.78429391E+00  3.93070743E-02  6.58588101E-02
 -2.77188782E-05  2.63096030E-03  1.76538536E-01 -8.97647491E-05  4.80615435E-01
 -6.82340575E-01  2.80575827E-04 -1.00220207E-02 -6.90347404E-07 -4.36140669E-07
 -1.39065460E-02  9.67858810E-03  8.39858297E-03 -4.14754041E-06 -7.67059736E-06
  2.32964396E-02 -4.23409679E-02  3.88204811E-07  1.74709604E-03  4.06452289E-03
  3.02452334E-07 -5.00258628E-07  5.59261259E-03 -8.34856033E-04 -2.04960312E-05
 -5.45239102E-05  1.68547617E-04  6.86311420E-05  5.71029596E-03 -2.48454193E-04
 -2.04452490E-03 -9.65516433E-08 -3.20474738E-04  1.71466304E-01 -2.98104568E-07
 -4.13284145E-04 -1.50764655E+00  8.90456328E-07 -3.20921650E-05  5.54527979E-09
  3.79435451E-07  1.97323649E-05 -1.43996446E-02  2.69514369E-05  2.22709939E-08
  6.48749306E-07 -1.58404375E-04 -1.78913083E-03  2.44381018E-10 -1.30108315E-05
  1.04254847E-03 -3.09641184E-10  4.01799816E-08  2.28886265E-05  1.62427547E-03
 -1.59163219E-06 -1.20252889E-05  1.57229515E-04 -4.91369211E-04 -2.06681965E-03
 -5.83442388E-02 -1.02746625E-04 -1.21641958E-06 -6.05993837E-01 -1.06101416E-03
 -1.25601502E-05  4.14418887E+00  7.25401787E-03  8.60494143E-05 -7.11912776E-06
  2.44140965E-06  7.40915914E-09 -2.73275624E-02  1.31292348E-04  9.88833074E-05
  3.58230782E-05  7.56212725E-08 -1.13055921E-01  5.43221059E-04  5.35462000E-07
  1.05716764E-02  1.84963835E-05  1.59691124E-06 -9.59331577E-09 -1.24897167E-05
  5.94220254E-08 -3.67800837E-03 -9.78576059E-03  3.02696891E-02  1.21642653E-02
  1.02763499E+00  2.03683956E-02 -3.92556580E-02 -1.59786884E-05  1.72967095E-01
 -2.92936541E-03 -4.80528249E-05 -1.23326715E+00 -4.78312855E-01  1.30074582E-04
 -5.76643646E-03  5.81432212E-07  4.70120285E-07  6.38075684E-03 -1.38882361E-02
  4.81091337E-03 -1.64533463E-06  4.79433615E-06  1.53235311E-02  2.32391032E-02
  2.76001548E-07  2.04366753E-03 -1.73759748E-03  1.08092303E-07  2.37954184E-07
  3.21342583E-03 -1.42442746E-03 -3.71347500E-03 -9.88010113E-03  3.05612251E-02
  1.22834423E-02  1.03752827E+00  2.06662417E-02  3.95795388E-02 -1.61324113E-05
  1.72989871E-01  3.55576969E-03 -4.85505663E-05 -1.22964576E+00  4.77050903E-01
  1.31630058E-04 -5.82201643E-03  5.76661277E-07 -4.73724076E-07  6.36036320E-03
  1.39159221E-02  4.85739626E-03 -1.67810024E-06 -4.83351463E-06  1.53577741E-02
 -2.35360178E-02  2.78155234E-07  2.05690638E-03  1.75595670E-03  1.08796611E-07
 -2.41167323E-07  3.25307081E-03  1.40014845E-03  7.40673364E-03  1.96997302E-02
 -6.08377905E-02 -2.50934800E-02 -2.06208333E+00  8.89547363E-02 -9.65481988E-05
  3.48339529E-05  1.78829190E-01  2.91896393E-04  1.07563678E-04 -4.05335480E-01
 -3.75936757E-03 -3.21312467E-04  1.15911002E-02 -1.86137319E-06  2.94703246E-09
 -1.77198787E-02 -3.75568573E-06 -9.72789698E-03 -7.80506480E-06  9.74004203E-09
  5.58692250E-02 -1.18781217E-04 -8.85778474E-08  5.08320699E-03 -2.29173186E-06
  1.41384114E-07 -1.76709107E-10 -6.47166699E-03  2.42717996E-05  1.21797115E-06
  4.84910044E-06 -8.01556272E-05  3.52437203E-04  5.39278283E-04  4.11567981E-06
 -4.29280132E-09 -1.97113411E-01  8.47561756E-06 -8.76143252E-09 -4.11315719E-01
 -5.53521295E-05  5.87989977E-08  2.65944816E+00 -1.03723130E-06  2.82725202E-06
 -9.94835695E-09 -4.50094900E-09  8.14583295E-12 -6.35809221E-05 -1.12286591E-06
  1.38301003E-08 -3.24623128E-08 -2.32988282E-11 -2.53723296E-03  1.33707822E-07
 -1.45351505E-10  2.01894078E-06  4.91553800E-09  1.32664138E-05 -4.05335439E-08
 -4.03226999E-06 -9.11961326E-06  8.46501213E-06  1.21105275E-04 -3.43724917E-04
  2.98711653E-06 -9.29071982E-06  1.13371572E-01 -2.42151503E-05  2.97771403E-05
  3.39382662E-01 -3.80200616E-05  1.14958957E-04 -1.35704631E+00 -9.33862609E-07
  4.21280666E-03 -7.31251305E-03 -1.25970578E-06 -1.86957095E-06  1.71128181E-05
 -3.79480119E-03  6.60194813E-03  7.53512621E-06  1.27138174E-05  1.60665210E-03
  1.05665403E-06 -1.96740511E-06  7.67151487E-05  1.31859570E-04  1.87247015E-06
 -9.10619011E-09 -4.03227633E-06 -9.11962493E-06  8.46492917E-06  1.21105963E-04
 -3.43722816E-04  3.00655221E-06  9.28433310E-06  1.13371663E-01 -2.42739717E-05
 -2.97282370E-05  3.39382938E-01 -3.82578291E-05 -1.14879538E-04 -1.35704610E+00
 -9.33875951E-07  4.22769494E-03  7.30392655E-03 -1.25206551E-06  1.87471917E-06
  1.71127600E-05 -3.80820738E-03 -6.59417585E-03  7.48336819E-06 -1.27443189E-05
  1.60665001E-03  1.06065798E-06  1.96525074E-06  7.61785017E-05 -1.32171307E-04
  1.87249151E-06 -2.32930206E-09 -4.03080724E-06 -9.11537802E-06  8.43609571E-06
  1.21202580E-04 -3.43456832E-04 -1.30494798E-05  1.36403045E-08  1.13392289E-01
  2.72568694E-05 -2.66205041E-08  3.39462632E-01  1.60750041E-04 -1.67170750E-07
 -1.35705526E+00 -1.38953282E-06 -8.44206175E-03  8.59792401E-06  2.51290931E-06
 -5.14379547E-09  1.75058248E-05  7.59905124E-03 -7.75343661E-06 -1.49930772E-05
  3.04775623E-08  1.60621482E-03 -2.36113491E-06  2.40521506E-09 -1.52797391E-04
  3.11624996E-07  1.87693470E-06 -5.73187882E-09  2.42811727E-09  5.37834709E-09
  4.75495317E-09 -1.04450949E-07  2.66163009E-07 -9.08878558E-08 -7.59784184E-05
 -4.49986886E-10  4.39122161E-07 -6.08215293E-05 -9.25363976E-10 -4.75548650E-06
  1.92755511E-04  5.89023420E-09 -4.25346398E-10 -4.08825613E-12 -4.98645915E-10
  7.71291924E-09 -1.86904399E-07  3.24126533E-08 -5.07074222E-11 -6.75468504E-09
  1.59433339E-07 -5.88356450E-05 -5.98824599E-12 -1.49589365E-08 -1.61898031E-06
  5.30208139E-11  2.84895713E-08  3.34834832E-06  1.09748259E-03 -1.08458203E-06
 -3.81071491E-06  2.71369188E-05 -1.09375641E-04  1.26309480E-04  1.23075715E-01
  7.08438048E-02  2.55471636E-06  3.73846444E-01  2.15292241E-01  7.75312833E-06
 -9.72069427E-01 -5.59941354E-01 -2.01564629E-05  1.63812530E-06  2.61731990E-07
 -2.22801753E-08  7.22823520E-03 -4.19188840E-03  3.57345899E-06  8.10274302E-07
 -6.01947280E-08  2.21126404E-02 -1.28117715E-02 -2.09861391E-09 -4.24177603E-05
 -2.43651762E-05  2.21394896E-07 -1.50513094E-07 -1.19694352E-06 -9.36880667E-04
  1.08777615E-06  3.82474010E-06 -2.72822000E-05  1.09983998E-04 -1.30025960E-04
 -1.22931462E-01  7.10943424E-02 -2.55418676E-06 -3.73407963E-01  2.16053495E-01
 -7.75151564E-06  9.70930018E-01 -5.61921933E-01  2.01500695E-05 -1.63159795E-06
 -2.61758804E-07 -2.17129137E-08 -7.24526536E-03 -4.16243653E-03 -3.56944321E-06
 -8.10405824E-07 -5.85569940E-08 -2.21646820E-02 -1.27214953E-02  2.10536523E-09
  4.23615396E-05 -2.44539184E-05 -2.22005360E-07 -1.49609052E-07 -4.53961219E-06
 -9.36861563E-04 -5.42610978E-09 -1.69740631E-08  1.09776854E-07 -4.04876147E-07
  3.34875401E-06 -1.44725742E-04 -1.42005348E-01  2.11367696E-10 -4.39472928E-04
 -4.31415671E-01  6.31086032E-10  1.14210532E-03  1.12169766E+00 -2.66080191E-09
 -5.63602876E-09  2.86290082E-11  4.41384769E-08  1.70304280E-05  8.35396785E-03
  6.23165055E-09  1.52124077E-10  1.21280560E-07  5.19914907E-05  2.55768936E-02
  3.91388811E-12  4.56078674E-08  4.90757961E-05  4.65323635E-10  2.28787309E-07
 -2.85021275E-06 -9.35904325E-04  1.31557439E-02  3.87245841E-02 -3.66855752E-01
  1.08011650E+00  9.21440335E+00  1.11392530E-04 -4.56359735E-07  4.00449854E-05
 -5.09704075E-04  1.51483180E-06  1.94259493E-05 -2.55382412E-05  1.61913084E-06
 -7.41200535E-04  4.53006937E-03 -1.61746140E-07  1.60290799E-10 -3.45814456E-05
 -1.32201922E-08 -2.51583625E-01  9.06704422E-06 -9.32016937E-09 -1.64328893E-04
 -2.59277471E-07  4.90638766E-06  2.34533992E-05 -8.74091807E-08  1.50288545E-06
 -3.05010792E-09  5.91201208E-02 -1.80622975E-04 -2.98041567E-02 -6.30024966E-02
 -3.09799041E-02  1.33172228E+00 -4.67519477E+00  3.29168017E-02 -5.72980591E-02
 -1.07836086E-05 -8.38782206E-02  1.45473316E-01 -5.41436891E-05 -8.26714927E-01
  1.43487964E+00  1.65907440E-04 -7.12559897E-03 -7.74307568E-08  1.35702744E-07
 -6.16868988E-03 -1.06449432E-02  1.27152832E-01 -9.45049246E-06  1.07413209E-05
  3.14716206E-02  5.42026209E-02  1.24168308E-06  6.02927604E-03 -1.04671639E-02
  5.50360576E-07  1.33178250E-06  6.85258418E-03 -2.28177969E-05 -2.98041506E-02
 -6.30024580E-02 -3.09805149E-02  1.33172492E+00 -4.67519005E+00  3.30330492E-02
  5.72307737E-02 -1.07836439E-05 -8.41739243E-02 -1.45300762E-01 -5.41436553E-05
 -8.29634603E-01 -1.43319306E+00  1.65907474E-04 -7.12562062E-03 -7.77070100E-08
 -1.35543992E-07 -6.12530110E-03  1.06700076E-02  1.27152448E-01 -9.47230908E-06
 -1.07220059E-05  3.12505126E-02 -5.43300446E-02  1.24167972E-06  6.05056756E-03
  1.04548447E-02  5.44930465E-07 -1.33400978E-06  6.85257450E-03 -1.90347355E-05
 -2.97885652E-02 -6.29624453E-02 -3.11231897E-02  1.33183891E+00 -4.67349714E+00
 -6.59509191E-02  6.73871610E-05 -1.28399447E-05  1.67671266E-01 -1.70323455E-04
 -4.89113807E-05  1.65533473E+00 -1.68668535E-03  2.17369102E-04 -7.12620580E-03
  9.22704552E-07 -9.40635742E-10  1.23003724E-02 -2.50491827E-05  1.27063781E-01
  5.21965711E-06 -5.30552103E-09 -6.25648995E-02  1.27448753E-04  3.21217171E-07
 -1.20714634E-02  1.22985204E-05 -5.72872777E-07  1.16613868E-09  6.84370848E-03
 -2.09159024E-05 -8.30574882E-06 -2.08785346E-05 -6.52121892E-05  1.23522539E-03
  2.12226126E-03  1.07397444E-01 -2.53715550E-04  2.22128516E-06 -5.31853547E-01
  1.25791438E-03 -1.10637431E-05 -8.56936641E+00  2.02393873E-02 -1.77515343E-04
 -1.21903355E-05 -4.24846004E-06  1.00222775E-08  4.27110210E-04 -3.40786180E-07
 -1.30185727E-04 -3.32242329E-04  7.67325232E-07 -2.84857313E-01  1.96827360E-04
  9.62419935E-07  1.89882401E-02 -4.49076298E-05  6.34736739E-06 -2.75190895E-09
  2.51434546E-05 -7.83607929E-08 -2.20293375E-02 -4.47806540E-02 -7.71747205E-02
  1.40221974E+00 -5.42452394E+00 -4.09879186E-03  8.94892298E-03 -1.59238179E-05
 -6.04655034E-02  9.87686155E-02 -3.52973203E-05  2.75990780E-01  2.10561301E+00
 -1.84575571E-04 -5.04942957E-03  3.18843686E-06 -3.91979043E-06 -1.04374212E-02
 -4.88649780E-03  7.12446861E-03 -8.36104421E-05 -7.17068536E-05  4.35507199E-02
  5.28324183E-02  2.28615033E-06  1.50699501E-04 -4.99424080E-03 -1.35337785E-06
  5.22457928E-06  7.84029912E-03 -8.88260023E-04 -2.19270455E-02 -4.45727126E-02
 -7.68165111E-02  1.39570912E+00 -5.39933164E+00 -4.09303639E-03 -8.90189531E-03
 -1.58500866E-05 -6.04009119E-02 -9.81767151E-02 -3.51340531E-05  2.77357724E-01
 -2.10039357E+00 -1.83576059E-04 -5.02597055E-03  3.18562597E-06  3.89198461E-06
 -1.04043929E-02  4.88577966E-03  7.09130238E-03 -8.36611286E-05  7.18835327E-05
  4.31936932E-02 -5.27283183E-02  2.27490887E-06  1.47452003E-04  4.97804883E-03
 -1.38871772E-06 -5.20691904E-06  7.80914492E-03  8.41800863E-04  4.39543629E-02
  8.93428444E-02  1.54136726E-01 -2.79848718E+00  1.08207635E+01 -1.95394755E-02
  1.85061546E-05  3.11873629E-05 -2.30438639E-01  2.39745026E-04  6.30458798E-05
 -3.36581766E+00  1.42523175E-03  3.09566645E-04  1.00777680E-02  9.05367817E-06
 -1.08105587E-08 -1.88841062E-02  2.82571519E-05 -1.41447748E-02  4.52885314E-05
  1.23591152E-07  1.34673845E-01 -2.57055818E-04 -4.09655676E-06  8.78108091E-03
 -5.28519031E-06  6.53466726E-06 -1.94886078E-08 -1.56408572E-02  4.64506518E-05
 -1.90463290E-08 -4.78459048E-08 -1.69328953E-07  3.04699624E-06  9.55977264E-06
 -2.53651388E-04 -1.07418743E-01 -2.98505348E-09  1.25575703E-03  5.32329060E-01
  1.47357566E-08  2.02374266E-02  8.56833195E+00  2.38504563E-07 -2.93779498E-08
  1.00614589E-08  4.25386647E-06  2.21351148E-07  4.08398938E-04 -3.28750934E-07
  7.73121540E-07  3.19986920E-04 -1.97921437E-04 -2.84996094E-01 -1.29891769E-09
 -4.48369614E-05 -1.90038748E-02  6.89962312E-09  7.58216093E-06  6.47705613E-08
  2.70049107E-06 -3.80376856E-02 -7.73203025E-02 -1.33294621E-01  2.42137615E+00
 -9.36557667E+00 -8.87534861E-03  1.44022965E-02 -2.74751957E-05 -9.81311468E-02
  1.74066876E-01 -6.07346626E-05 -2.10131374E+00  2.15088215E+00 -3.71856528E-04
 -8.72244860E-03  4.00070195E-06 -7.93825512E-06 -4.90549653E-03 -1.60454145E-02
  1.22635773E-02  7.35673156E-05  2.34071544E-06  5.29549615E-02  1.04174954E-01
  4.18286197E-06  4.97936009E-03 -5.90582113E-03  5.26046345E-06  4.48031628E-06
  1.35428649E-02  4.61067569E-04  3.80966990E-02  7.74402430E-02  1.33501820E-01
 -2.42513451E+00  9.38010204E+00  8.91563816E-03  1.44080981E-02  2.75179748E-05
  9.86470929E-02  1.74129498E-01  6.08290923E-05  2.10495009E+00  2.15224822E+00
  3.72350805E-04  8.73597819E-03 -4.02543667E-06 -7.94058100E-06  4.86806997E-03
 -1.60784381E-02 -1.22824795E-02 -7.33375853E-05  2.29690974E-06 -5.26461875E-02
  1.04531429E-01 -4.18898757E-06 -4.99178230E-03 -5.90904764E-03 -5.23844523E-06
  4.51571727E-06 -1.35607978E-02  5.41539876E-04 -5.90618786E-05 -1.20051347E-04
 -2.07086049E-04  3.76019975E-03 -1.45397018E-02  2.52406964E-05 -1.04776793E-03
 -4.20223847E-08  3.13457956E-04  3.61757378E-03 -8.48973448E-08  3.00452498E-03
 -1.49042684E+00 -4.16202280E-07 -1.35399361E-05 -1.33887569E-08 -1.18414947E-06
  9.89355249E-06 -7.60183444E-03  1.90190397E-05  6.78363364E-08  1.26479066E-04
 -1.54710674E-04  1.28838680E-02  5.51155971E-09 -9.02066806E-06  2.72848188E-03
 -1.81734341E-08 -4.60546549E-06  1.79605204E-05 -1.00105392E-03 -4.93316806E-09
 -1.34455729E-08 -1.39240605E-08  5.76785339E-07  1.19522948E-06  5.91519726E-05
  5.92768800E-08 -2.17328522E-06 -2.75481568E-04 -2.75888436E-07  1.60347764E-05
 -4.19072743E-03 -4.19609307E-06 -3.12295007E-04  4.49637501E-07  1.27023704E-02
  1.27193983E-05  6.64960137E-06 -2.80285368E-08  3.14573477E-05  8.77474560E-01
  8.79178213E-04 -1.42763415E-04  5.05560479E-07  9.19386881E-06  1.11165665E-05
  1.24286195E-08 -9.78194420E-03  3.96728982E-05  2.60206762E-07 -1.31064426E-09
 -9.74191005E-06 -2.04839353E-05 -2.12912352E-05  5.84755683E-04 -2.53739887E-03
  1.11241001E-05  1.71846454E-05  5.41147463E-02 -3.58771510E-05  7.28916393E-05
  1.04058998E-01  1.82731984E-04  1.00827830E-03  7.88614403E-02 -2.82772839E-06
 -6.08568459E-03  7.48735082E-03 -5.50958353E-06 -2.13881329E-06 -3.69917145E-06
  1.51719972E-01  1.64069434E-01 -2.40306915E-05  5.38333280E-05 -4.28272515E-03
  1.10976376E-06 -3.28136488E-06  3.62379476E-03 -9.45078452E-03  5.02498278E-06
  8.72519439E-08 -9.81031857E-06 -2.06277708E-05 -2.14408814E-05  5.88862524E-04
 -2.55521082E-03  1.10117344E-05 -1.72381792E-05  5.44947005E-02 -3.63359877E-05
 -7.32955456E-05  1.04789361E-01  1.76579636E-04 -1.01262442E-03  7.94146141E-02
 -2.84713892E-06 -6.13133983E-03 -7.53460207E-03 -5.50825257E-06  2.19463817E-06
 -3.78745201E-06  1.50721253E-01 -1.64532776E-01 -2.40049770E-05 -5.39151106E-05
 -4.31278762E-03  1.12876885E-06  3.29710332E-06  3.62412303E-03  9.46551100E-03
  5.06124667E-06 -1.19142549E-07  1.95518710E-05  4.11093149E-05  4.27823444E-05
 -1.17386761E-03  5.09090474E-03 -1.53418537E-05  6.03146565E-08 -1.08594547E-01
 -1.55930029E-04  1.75511370E-07 -2.08655628E-01 -1.56550982E-03  3.13853573E-06
 -1.57975366E-01  4.54939308E-06 -1.91083529E-02  1.58717511E-05 -8.72300025E-06
  2.68836439E-08  1.36103235E-05 -1.33399332E-01  6.32837372E-04  8.10533146E-05
 -6.64144822E-08  8.58948677E-03  5.08517551E-06 -7.67766799E-09 -1.27507195E-02
  7.61333975E-06 -9.94353371E-06  3.11722981E-08  3.09962718E-11  8.37872775E-11
  8.76532538E-11 -3.43658367E-09 -9.25135347E-09 -5.92272812E-08  5.91223776E-05
  4.17158561E-08  2.75973996E-07 -2.75464355E-04 -3.30441535E-08  4.19501873E-06
 -4.18477103E-03  1.39960491E-06 -8.83967635E-10 -1.27259629E-05  1.26956231E-02
 -2.80072926E-08 -7.16481242E-06 -6.31939824E-08 -8.79183935E-04  8.77605704E-01
  5.04429820E-07  1.06224966E-04 -5.50490505E-08 -1.04805356E-08  1.17560281E-05
  3.96243545E-05  9.76436151E-03 -1.34071241E-09 -2.50962947E-07  1.69310264E-05
  3.56017541E-05  3.69753325E-05 -1.01617608E-03  4.40909020E-03  1.91004116E-05
 -7.70946937E-06 -9.41659827E-02  7.67013446E-05 -1.18422618E-04 -1.81116319E-01
  1.01066156E-03 -9.87161454E-04 -1.37010555E-01  4.80582836E-06  7.50993391E-03
 -1.48043204E-02  1.88022628E-06  8.25527051E-06  2.18534258E-05  1.63972461E-01
 -3.89554124E-02 -6.07218907E-05 -4.44342833E-05  7.45371302E-03 -3.04172855E-06
  4.46825074E-06  9.46612209E-03  7.30004523E-03 -9.13880585E-06 -2.38909233E-07
 -1.68915546E-05 -3.55187468E-05 -3.68893383E-05  1.01380807E-03 -4.39880592E-03
 -1.91607070E-05 -7.60092831E-06  9.39465207E-02 -7.67957630E-05 -1.17970298E-04
  1.80693643E-01 -1.01338980E-03 -9.81021675E-04  1.36690535E-01 -4.79436650E-06
 -7.51533037E-03 -1.47586498E-02 -1.82436573E-06  8.25406607E-06 -2.18383430E-05
 -1.64661918E-01 -3.79571334E-02  6.06378629E-05 -4.44635935E-05 -7.43632837E-03
  3.04627892E-06  4.44876064E-06 -9.45102291E-03  7.30032596E-03  9.11680069E-06
 -2.94260845E-07 -3.94464298E-08 -8.29420707E-08 -8.62625593E-08  2.36812698E-06
 -1.02709221E-05  5.34424832E-08  2.21232949E-05  2.19425306E-04  3.22985490E-07
  8.24428045E-06  4.21642682E-04  3.93612241E-06  7.63513963E-04  3.18781095E-04
 -9.17798833E-09  3.67985491E-05 -1.77669878E-03  2.67795640E-08  4.50738644E-06
 -2.75440852E-08  5.20135076E-04  2.46058596E-01 -6.40697391E-08  4.88756443E-05
 -1.73567547E-05 -1.15179026E-08 -1.23308993E-06  7.25156419E-06 -9.08782606E-03
  2.12634104E-08  3.90514426E-07 -3.62031989E-02 -1.00156261E-01  2.90286810E-01
 -9.12968143E-02  6.24984841E+00  6.14479879E-05 -5.66400589E-07 -6.45954909E-06
 -1.44580525E-04 -6.40299560E-08 -2.62844129E-05  1.07633414E-03 -1.04510466E-05
 -2.87199756E-04  4.02351820E-03 -1.42866285E-07  1.44654651E-10  5.78242366E-06
  7.27378868E-09 -1.18408057E+00  4.24891646E-05 -4.28208669E-08  4.24710846E-04
  1.63154989E-06  5.11285122E-06  9.22464580E-06 -1.28809658E-08  1.04898682E-06
 -2.13605724E-09  4.13212568E-02 -1.26228989E-04 -2.63879844E-03 -7.48617447E-03
  5.44922517E-02  2.73138501E-02 -2.55014995E+00 -4.24358418E-02  7.37796152E-02
 -1.19184755E-05 -2.16335780E-01  3.75708191E-01 -4.46363113E-05 -3.62783281E-01
  6.29334521E-01  2.54338900E-05 -5.60394590E-03  1.20538218E-06 -2.00900588E-06
 -3.70770284E-03 -6.38350393E-03 -2.02093882E-01  1.33504175E-05 -4.94417736E-06
  7.95965613E-02  1.37475481E-01  3.70408450E-07 -3.27906075E-04  5.72077750E-04
  1.29317588E-06  1.70006099E-06  1.12640180E-02 -3.72451687E-05 -2.63881222E-03
 -7.48623034E-03  5.44926752E-02  2.73148167E-02 -2.55016392E+00 -4.25859047E-02
 -7.36934626E-02 -1.19184238E-05 -2.17101130E-01 -3.75268809E-01 -4.46361809E-05
 -3.64067765E-01 -6.28597025E-01  2.54333897E-05 -5.60398417E-03  1.20946781E-06
  2.00654244E-06 -3.68173486E-03  6.39861818E-03 -2.02092114E-01  1.33601011E-05
  4.91697475E-06  7.90349933E-02 -1.37798209E-01  3.70411266E-07 -3.29032812E-04
 -5.71356493E-04  1.28623300E-06 -1.70531123E-06  1.12640642E-02 -3.15415811E-05
 -2.63993427E-03 -7.49273801E-03  5.45432194E-02  2.75727214E-02 -2.55138179E+00
  8.51429205E-02 -8.69881704E-05 -9.27052029E-06  4.33710376E-01 -4.42168677E-04
 -3.11251355E-05  7.26899467E-01 -7.38524726E-04  4.79904293E-05 -5.60893404E-03
 -1.81015362E-06  1.84474815E-09  7.39827266E-03 -1.50985621E-05 -2.01797448E-01
 -5.00254921E-06  5.27058381E-09 -1.58706573E-01  3.22715965E-04  4.20296211E-07
  6.48597482E-04 -6.66633540E-07 -1.72110117E-06  3.50107335E-09  1.12691981E-02
 -3.44686981E-05  3.09002242E-05  8.52590190E-05 -1.08505928E-04 -8.64597554E-04
 -2.58487053E-03  3.11963017E-01 -8.94972226E-03  6.47607542E-06  5.85439860E-01
 -1.68183175E-02  1.21949806E-05  2.41945358E+00 -6.94176622E-02  5.02835426E-05
 -3.19807451E-06  2.49767709E-06 -7.21502799E-08 -4.90530490E-04 -1.28580249E-05
  7.96603904E-04 -9.52107486E-05  4.08971777E-06  1.18235936E+00  3.03103295E-02
 -1.09623290E-06 -2.14250041E-02  6.15796338E-04 -1.51444901E-06 -7.79401547E-08
 -5.67531018E-05 -2.62877976E-07 -2.68634241E-03 -3.21116362E-03 -7.82594668E-02
  4.03814270E-01  1.04414644E+00  1.01832825E-01  4.82726761E-03  2.72783725E-06
  3.53460837E-01 -2.73730806E-01  1.74795709E-05 -2.75165877E-01 -3.53115574E-01
  1.81766244E-05  4.99718967E-03 -7.14543612E-07  1.57930234E-07 -5.77288157E-03
  1.07882038E-02 -2.00662284E-01 -5.32429724E-05 -4.03191004E-05 -1.30990957E-01
  1.57215491E-01 -5.06205392E-07 -2.79236530E-03  5.39238221E-03 -1.21359962E-07
 -3.80261055E-08 -6.15395275E-04 -1.59179985E-02 -2.44085751E-03 -2.91770419E-03
 -7.11064784E-02  3.66898436E-01  9.48703573E-01  1.02232518E-01 -1.01972930E-02
  2.68111535E-06  3.39842165E-01  2.37527100E-01  1.62609105E-05 -2.93822170E-01
  3.47079170E-01  1.55891365E-05  4.54069547E-03 -7.14876889E-07 -1.31273144E-07
 -6.40262372E-03 -1.04225151E-02 -1.82304192E-01 -5.64250194E-05  4.09370962E-05
 -1.40239279E-01 -1.54211578E-01 -4.58482869E-07 -2.51787188E-03 -4.91112508E-03
 -1.58612624E-07  5.83903982E-08 -4.64341209E-04  1.64382169E-02  5.12451970E-03
  6.13029425E-03  1.49112233E-01 -7.69200879E-01 -1.98982910E+00  8.88967215E-02
 -3.03221404E-03  6.82890038E-07  7.88109210E-01 -6.30551383E-03 -2.94120416E-06
  3.21439592E-01  1.31355675E-02 -3.89460578E-05 -9.53152560E-03  3.13091528E-07
  5.39991397E-09  1.22741001E-02 -3.62702898E-04  3.83249439E-01  6.09453931E-06
  2.19404580E-06  1.34367136E-01 -6.51140942E-03  1.06403397E-07 -1.15782698E-02
  2.98771905E-06  1.11612563E-06 -2.95197154E-08  1.07534324E-03 -5.19859106E-04
  7.06381789E-07  1.94297540E-06 -2.06520931E-06 -2.16048910E-05 -5.63644813E-05
  8.94727779E-03  3.12046120E-01  1.79108101E-07  1.67903084E-02  5.86382590E-01
  3.37082507E-07  6.93923039E-02  2.42037910E+00  1.39020394E-06 -7.63834766E-08
  7.16567558E-08  2.51644739E-06 -1.25580595E-05  5.00984159E-04  1.85041448E-05
 -2.78045388E-06 -1.44332885E-04  3.02946621E-02 -1.18286059E+00 -3.02884006E-08
 -6.14462340E-04 -2.14700253E-02 -3.59092998E-08  2.92879897E-06 -1.31543265E-06
  1.65419046E-05  4.36623820E-03  5.21930733E-03  1.27227262E-01 -6.56582787E-01
 -1.69760848E+00  1.04198423E-02  9.35067630E-02 -7.70343309E-07 -2.45319429E-01
  6.34810727E-01 -2.15614372E-05 -3.57880453E-01  1.10265291E-01 -4.63030167E-05
 -8.11979637E-03 -2.09354982E-08 -4.51665313E-07 -1.07826923E-02 -5.84634923E-03
  3.26538841E-01 -6.05407075E-05 -1.02166453E-05 -1.59534444E-01 -3.96870140E-02
  8.49354588E-07  5.06933467E-03 -8.46413506E-03 -6.81390786E-07 -3.57758126E-07
  8.98809126E-04 -9.79478895E-03 -4.50806507E-03 -5.38886072E-03 -1.31358226E-01
  6.77897552E-01  1.75272128E+00 -4.58511372E-03  9.31059456E-02  9.19922346E-07
  2.65803038E-01  6.48428061E-01  2.24944525E-05  3.42383665E-01  1.28918407E-01
  4.72371564E-05  8.38361613E-03 -1.95315114E-08 -4.59658246E-07  1.04207572E-02
 -6.47626084E-03 -3.37133447E-01  5.74885225E-05 -8.08926183E-06  1.51851564E-01
 -4.89370550E-02 -8.76041395E-07 -5.23376746E-03 -8.73866212E-03  6.72193478E-07
 -3.57850893E-07 -9.85773162E-04 -8.89398282E-03  1.41747804E-04  1.69559259E-04
  4.12482218E-03 -2.12773752E-02 -5.50472388E-02  2.56763644E-03  1.06344376E-01
  1.88393568E-08  2.20040736E-02  1.98912437E-01 -8.14748269E-08  8.39695748E-03
 -4.86709403E-01 -1.07716645E-06 -2.63669943E-04  8.44207436E-09 -2.06739647E-07
  3.64426454E-04  1.22078416E-02  1.06005942E-02  8.74416864E-08 -7.95404042E-05
  4.17610335E-03  2.25500299E-01  2.94548172E-09 -3.19945637E-04  3.18657407E-04
  3.28758945E-08  9.84933884E-07  8.68618320E-05  1.86741078E-02  1.04208091E-09
  2.94203107E-09 -5.18097836E-08  2.28193146E-07  1.21797958E-07  3.16329130E-05
 -9.76684638E-09  1.80131888E-04 -1.05229200E-04  3.27177102E-08 -2.67384244E-04
 -2.72300146E-04  8.42956115E-08  2.83327601E-04 -1.62151468E-06 -4.50706092E-02
  1.39383172E-05  2.34090476E-06 -5.10870906E-09 -2.69024524E-06 -7.50470172E-02
  2.30621638E-05 -9.08208455E-05  2.51516280E-07  2.21471692E-05  4.20954948E-06
 -3.24420361E-10 -2.10501918E-02  5.78181468E-05  5.40911234E-07 -2.04194375E-09
 -1.11774122E-06 -3.15336729E-06  1.46184727E-05 -3.28914092E-06 -1.77560815E-04
 -1.31421894E-06 -5.80642689E-06 -5.66131000E-02 -2.67311487E-05  1.76090856E-05
 -1.00419247E-02  3.85246250E-06  7.88926483E-05  7.54478472E-02  4.04648180E-07
 -2.43449179E-03 -4.79059946E-03  1.34288614E-06 -1.18013762E-06 -7.55095386E-06
  6.24961832E-01  1.22865414E-01 -3.63837271E-05  6.59878813E-05 -7.87962799E-04
  1.38677672E-06 -6.31621275E-07  1.89259880E-03 -5.72828440E-03  2.19305439E-06
  1.14416806E-06 -1.12048907E-06 -3.16111841E-06  1.46543653E-05 -3.29695226E-06
 -1.77997069E-04 -1.29123628E-06  5.81507251E-06 -5.67524485E-02 -2.67913399E-05
 -1.76215070E-05 -1.00666572E-02  3.57580601E-06 -7.90218813E-05  7.56335966E-02
  4.06102862E-07 -2.41792924E-03  4.79995839E-03  1.34572868E-06  1.17482611E-06
 -7.63110101E-06  6.24534688E-01 -1.23451882E-01 -3.65515962E-05 -6.59323917E-05
 -7.89889207E-04  1.38851615E-06  6.31561247E-07  1.90780327E-03  5.72722258E-03
  2.19172806E-06 -1.15691309E-06  2.23723596E-06  6.31236304E-06 -2.92610634E-05
  6.54289995E-06  3.55304596E-04  5.23891235E-06 -9.45307711E-09  1.13423961E-01
 -5.78335636E-05  4.70061961E-08  2.01197309E-02 -1.28249693E-04  1.66637762E-07
 -1.51295939E-01 -7.73027553E-07  5.87929646E-03 -9.67231524E-06 -1.04042701E-06
  7.56323696E-10  7.48146994E-05  4.11755786E-01  7.31968418E-05  8.65732747E-05
 -1.41758086E-07  1.57653509E-03  1.70763402E-06 -1.13098402E-09 -8.00802670E-03
  1.26229119E-05 -4.27127523E-06  1.23200156E-08 -5.01812626E-12 -1.50402236E-11
  2.49010870E-10 -1.03322336E-09  3.71950098E-11  9.77252454E-09  3.16123224E-05
 -6.50847113E-07 -3.22750921E-08 -1.05376280E-04  1.09120572E-06 -8.37382319E-08
 -2.72159270E-04 -1.13136728E-06  1.16014570E-09 -1.39179432E-05 -4.50841358E-02
 -2.60559252E-09 -4.65519179E-07  1.87516450E-09 -2.32714748E-05 -7.49546434E-02
  2.56067133E-07  9.39976281E-05 -1.00348826E-07  2.70228526E-09  5.59258224E-06
  5.77180573E-05  2.10233491E-02 -2.05066939E-09 -5.37426350E-07  1.93737482E-06
  5.46725132E-06 -2.53714133E-05  5.84432906E-06  3.07784973E-04 -7.84827392E-06
  4.24182943E-06  9.82489558E-02  1.72508928E-05 -4.73782236E-05  1.74245504E-02
  8.15306430E-05 -8.59346609E-05 -1.31068592E-01 -1.02448172E-06 -4.78721859E-03
  3.12292066E-03  1.37566267E-06  1.14296507E-07  5.64039742E-05  1.22564547E-01
  4.82218630E-01 -7.11489391E-05 -6.55288601E-05  1.36761860E-03 -3.24889765E-07
  1.95188265E-06  5.72597855E-03  4.70837337E-03 -4.02254026E-06  4.71280222E-07
 -1.93578442E-06 -5.46276209E-06  2.53505213E-05 -5.83911509E-06 -3.07532264E-04
  7.85874136E-06  4.21757687E-06 -9.81686693E-02 -1.73091395E-05 -4.73176828E-05
 -1.74103543E-02 -8.17106002E-05 -8.56562760E-05  1.30961836E-01  1.02390708E-06
  4.79700735E-03  3.10635668E-03 -1.37709759E-06  1.18232567E-07 -5.63933064E-05
 -1.22468195E-01  4.82643313E-01  7.09332398E-05 -6.57245406E-05 -1.36649317E-03
  3.26887763E-07  1.95030747E-06 -5.70944178E-03  4.72350562E-03  4.02222116E-06
  4.48340891E-07 -1.58589189E-09 -4.47539793E-09  2.07694344E-08 -4.75345809E-09
 -2.52389084E-07 -9.66202633E-09 -5.84665130E-06 -8.04948076E-05  2.40618105E-08
 -1.67832025E-05 -1.43012870E-05  1.42841285E-07  5.08449780E-05  1.07625693E-04
  5.46201217E-10 -9.46663415E-06 -5.19705550E-03 -3.17630737E-09 -1.92309308E-06
 -5.30518538E-08  4.16984352E-04  6.96460968E-01  3.74757532E-08  4.85766865E-05
 -1.12209560E-06 -3.35884989E-10  8.58122207E-07 -4.93523766E-06 -5.20694473E-03
 -1.09907975E-10 -1.02729040E-06 -1.37846553E-12 -4.57685481E-12  3.03883848E-11
 -4.25170143E-11  1.69049523E-10 -7.16953173E-12 -3.15120801E-08  9.84302312E-09
  1.63576334E-11  9.55559601E-08 -5.24499481E-09 -8.00161151E-10  1.97389019E-07
  1.43791996E-08 -5.40323637E-12 -7.36268653E-08  4.50379173E-05  2.80541968E-12
 -1.29656187E-09 -1.40358861E-11  1.60515339E-07  1.49941250E-04 -3.99029026E-10
 -7.11556556E-08  5.14872271E-11 -3.25787571E-12 -4.57955532E-09 -9.86854155E-08
 -1.40873097E-05 -1.89210837E-09 -6.19113930E-07 -1.67075939E-09 -4.62826254E-09
  1.97076953E-08  5.62007745E-09 -2.47735205E-07  2.65717354E-06  1.52234631E-06
 -1.12205657E-04 -2.71361623E-07 -1.17021183E-07 -3.73026867E-05 -4.14323147E-06
 -2.27064815E-06  1.54330566E-04  4.94062266E-08  1.35062590E-03  7.68693057E-04
 -4.76779245E-08 -5.11055664E-09 -1.82835088E-05 -5.07963030E-01 -2.93077755E-01
  2.14373209E-06  1.10250618E-05  1.15674626E-07 -5.25866088E-07 -1.80047095E-07
 -3.30556333E-03  1.90875194E-03  8.87096140E-08  4.37445071E-07  1.66518927E-09
  4.61292028E-09 -1.96498629E-08 -5.57732463E-09  2.46554994E-07 -2.65411030E-06
  1.52778226E-06  1.11948807E-04  2.70985660E-07 -1.17628786E-07  3.73136428E-05
  4.13872694E-06 -2.27957555E-06 -1.53985617E-04 -4.94050514E-08 -1.34908267E-03
  7.71468671E-04  4.76652824E-08 -5.29742469E-09  1.82834255E-05  5.07368274E-01
 -2.94112521E-01 -2.09894996E-06  1.10334329E-05 -1.15214858E-07  5.25500252E-07
 -1.81116754E-07  3.31331321E-03  1.89530680E-03 -8.60295599E-08  4.37970178E-07
  6.81427301E-12  2.00198622E-11 -9.13008410E-11  3.17232745E-11  9.70673511E-10
 -3.09685378E-09 -3.05194683E-06  2.68688537E-07  1.95863449E-10  3.13396253E-07
 -1.81834106E-08  4.46360469E-09  4.66585870E-06 -3.64241272E-07 -2.67464757E-12
 -1.56983813E-06 -1.55095581E-03  2.36911462E-11  1.24713059E-08  2.02525236E-10
  5.97053051E-04  5.85411685E-01 -4.46004920E-08 -2.19736492E-05  2.82024569E-09
  3.64797790E-10  3.56187891E-07 -7.78438068E-06 -3.81053803E-03  1.77680319E-09
  5.83334979E-07  5.46953110E-05  1.84220074E-04 -1.93480521E-03  4.78145169E-03
  1.71876163E-03  4.17123906E-01 -1.58127047E-03  8.79101756E-06 -8.08175582E-01
  3.06847296E-03 -1.69484184E-05  1.37357518E+00 -5.19934988E-03  2.86288787E-05
  9.78615489E-06 -3.39254825E-06  1.67743836E-08  3.41126086E-02  2.49635261E-05
 -2.57854618E-04 -4.27583129E-05  1.86214581E-07  2.12848993E-01  1.53707075E-04
 -2.69999993E-07 -5.62048968E-03  2.10537065E-05  3.73180135E-08 -9.67113552E-10
  1.32122302E-04 -4.17052008E-07 -4.66446151E-03 -1.22848945E-02  4.21668450E-02
  5.88787219E-02  1.28972432E-01  9.97219705E-02  2.17847135E-02 -4.29499292E-06
  6.68728334E-02  5.27342015E-02 -5.03721616E-06 -4.44983913E-01 -8.41672457E-02
  6.46581701E-06  1.32420745E-03 -8.54702978E-07 -1.10645195E-06 -1.14228919E-02
  7.74311672E-03  3.42614381E-01  2.63608616E-05  3.40425846E-05 -2.42570619E-01
  2.59816533E-02  1.45648783E-06  2.75429532E-03 -8.06861655E-03  6.94190295E-07
  1.23621159E-06  1.30357007E-02 -3.43135101E-03 -4.61990693E-03 -1.21675627E-02
  4.17644528E-02  5.83160519E-02  1.27742023E-01  9.97993683E-02 -2.23990113E-02
 -4.23151711E-06  6.70573888E-02 -5.29037562E-02 -4.96972873E-06 -4.45283084E-01
  8.69917398E-02  6.30541195E-06  1.31155238E-03 -8.59899587E-07  1.10296935E-06
 -1.14971471E-02 -7.71049759E-03  3.39339122E-01  2.65916387E-05 -3.41496684E-05
 -2.42819687E-01 -2.61727278E-02  1.44166976E-06  2.72622854E-03  7.99660271E-03
  6.81624686E-07 -1.22733215E-06  1.29319890E-02  3.36288447E-03  9.27510669E-03
  2.44154172E-02 -8.34306821E-02 -1.18163941E-01 -2.60872143E-01  6.15030440E-02
 -3.74442299E-04  1.39893616E-05 -2.29434655E-02 -2.46313235E-04  1.22518989E-05
 -2.94586401E-01  1.66950360E-03 -3.76567206E-05 -2.63626194E-03  1.75633040E-06
  9.03653018E-10  1.93592230E-03 -4.80496133E-05 -6.82231847E-01  6.39631797E-06
 -1.96345215E-07 -1.99040928E-01 -3.09484652E-04 -1.76801692E-06  1.65405766E-02
 -1.15904117E-05  1.06606954E-06 -3.07004264E-09 -2.58349725E-02  6.80981751E-05
 -3.20516766E-08 -1.05388351E-07  1.07699661E-06 -2.62533931E-06 -1.27311912E-06
  1.58064175E-03  4.17276832E-01  2.39504834E-08 -3.06146712E-03 -8.09412630E-01
 -4.63184307E-08  5.20488711E-03  1.37199055E+00  7.89481772E-08  4.80646093E-09
 -1.42939446E-08 -4.80647890E-06  2.51529609E-05 -3.40855509E-02  2.64211042E-07
 -1.71068537E-07 -5.15314290E-05  1.58341249E-04 -2.12363385E-01 -8.06091886E-10
 -2.13508130E-05 -5.57286818E-03  7.55825693E-10  3.28849401E-07 -5.41784665E-08
  2.99666892E-06  8.02619751E-03  2.11334283E-02 -7.23886500E-02 -1.01748819E-01
 -2.22324123E-01  2.24154383E-02  7.42216426E-02  1.14413261E-05  5.27628808E-02
  6.46273762E-03  1.21386444E-05 -8.72387102E-02 -3.45959043E-01 -2.89446084E-05
 -2.28036059E-03 -1.34534549E-06  9.41010216E-07 -7.75027856E-03  2.57123961E-03
 -5.89931889E-01  5.42375347E-05  9.65036094E-06 -2.58048023E-02  2.13095702E-01
 -2.66763797E-06 -7.99144444E-03  1.19594733E-02 -1.36215830E-06 -2.09979509E-06
 -2.24097921E-02 -1.91081723E-03 -8.05190834E-03 -2.12011093E-02  7.26199146E-02
  1.02076680E-01  2.23047211E-01 -2.17113783E-02  7.41441581E-02 -1.14650469E-05
 -5.23762400E-02  6.28090830E-03 -1.21661375E-05  8.40700276E-02 -3.45653366E-01
  2.89807557E-05  2.28766584E-03  1.34251528E-06  9.44400367E-07  7.69708940E-03
  2.49691528E-03  5.91821904E-01 -5.40709020E-05  9.57251586E-06  2.53251869E-02
  2.12850509E-01  2.67563011E-06  8.03087707E-03  1.19874286E-02  1.35737466E-06
 -2.11212314E-06  2.24693718E-02 -2.02906536E-03  2.57107123E-05  6.76848916E-05
 -2.31449627E-04 -3.27409709E-04 -7.20365965E-04  2.85079582E-04  1.12536117E-01
  3.87195364E-08  3.50021023E-05  9.73683975E-02  3.39353962E-08 -1.32132336E-03
 -4.94311638E-01 -1.04102465E-07 -7.30733440E-06  3.87277172E-09 -9.71519981E-07
  3.77972210E-05  1.59206857E-02 -1.88993500E-03  8.71816994E-08  6.85178028E-05
 -2.48116620E-05  2.58033781E-01 -4.90224453E-09  4.39811354E-05 -1.89764952E-03
  3.61402116E-09  3.23840859E-07 -5.97349393E-05  3.91237033E-03  6.76954236E-02
  2.28881839E-01 -2.04568014E+00  4.27484156E+00  8.34214153E-01 -2.93248689E-04
  1.19752361E-06  2.50188654E-04 -1.13577708E-03  5.19620600E-06 -2.24154116E-04
 -2.53767512E-03  1.02575654E-05  3.75424104E-04  2.53238864E-02 -8.96442689E-07
  8.72191000E-10 -3.88414452E-05 -5.53367848E-08  1.73091399E-01 -6.10051638E-06
  5.64151988E-09 -1.13702768E-03 -1.38872061E-06  1.15294317E-05  8.09286305E-05
 -3.49139066E-07  2.13456881E-06 -4.32361016E-09  8.39359115E-02 -2.56425319E-04
 -3.82299869E-03 -1.24629621E-02  1.16320807E-01 -1.10817553E-01 -1.01576023E+00
  7.59325097E-03 -1.33717047E-02  2.96985602E-05 -1.51542073E-01  2.62779046E-01
  2.51663077E-06 -3.05649387E-01  5.31641596E-01 -1.92033927E-04  1.66224991E-03
 -1.56562926E-06  2.55093590E-06 -9.16269605E-04 -1.61381783E-03 -2.51475366E-01
 -8.48822453E-05  1.79367389E-04  2.31837867E-01  3.99510810E-01  3.54577174E-06
  1.65346753E-02 -2.86976826E-02  8.09262213E-07  1.66671314E-06  3.65297802E-02
 -9.64222986E-05 -3.82302103E-03 -1.24629834E-02  1.16319625E-01 -1.10811281E-01
 -1.01574711E+00  7.62038178E-03  1.33567602E-02  2.96984485E-05 -1.52074576E-01
 -2.62464843E-01  2.51676846E-06 -3.06728168E-01 -5.31016049E-01 -1.92033187E-04
  1.66225136E-03 -1.57080596E-06 -2.54772870E-06 -9.09635957E-04  1.61755588E-03
 -2.51473413E-01 -8.52476764E-05 -1.79193581E-04  2.30207402E-01 -4.00448359E-01
  3.54577133E-06  1.65930558E-02  2.86638919E-02  8.02469421E-07 -1.66999390E-06
  3.65296131E-02 -1.26795999E-04 -3.82795334E-03 -1.24662805E-02  1.16010888E-01
 -1.09214612E-01 -1.01216703E+00 -1.54974814E-02  1.61404700E-05  2.91836121E-05
  3.01920619E-01 -3.07001753E-04  1.19541711E-05  6.12368584E-01 -6.25532939E-04
 -1.72809895E-04  1.66179891E-03  2.95611485E-06 -3.01590720E-09  1.85101468E-03
 -3.71639669E-06 -2.50935504E-01  1.96885332E-04 -2.00085979E-07 -4.61015929E-01
  9.39610733E-04  1.02351110E-06 -3.31060599E-02  3.37107173E-05  1.17141668E-06
 -2.38093889E-09  3.65122047E-02 -1.11523509E-04 -3.33193789E-05 -1.14978477E-04
  1.08265883E-03 -2.27733808E-03 -7.90533331E-04 -1.68783575E-05  1.71392948E-08
  8.14650563E-01  1.54340289E-05 -1.89286887E-08 -6.99307907E-01 -2.71569630E-05
  2.51657614E-08  1.34387124E+00 -7.52258929E-06  1.40338500E-05 -5.03193150E-08
  8.39849691E-09  1.72043288E-11  4.05983736E-05  6.76881638E-05 -4.27850329E-07
  4.92609308E-07  7.61385193E-10 -2.21045274E-03  7.45757933E-08  4.68554413E-11
 -1.48619131E-05 -3.42354213E-08 -4.49398741E-05  1.37292465E-07 -1.24988011E-07
  1.10513409E-06 -5.04325402E-05  1.02444687E-04  6.62113418E-04  2.89128324E-06
 -7.34673746E-06  6.58044727E-02  9.74627913E-05 -1.70852684E-04  4.81594755E-02
  1.88773394E-04 -3.10416803E-04 -4.86170592E-01  3.70711292E-07 -3.94234809E-03
  6.84193433E-03  6.22581587E-07  7.97288132E-07 -1.02129766E-05 -2.39484190E-01
  4.15365552E-01 -1.07754587E-04 -2.02962696E-04 -3.93676783E-03 -7.93730045E-06
  1.34722122E-05 -5.75351694E-03 -9.92879413E-03 -1.77076816E-05  3.00714780E-07
 -1.24989521E-07  1.10510929E-06 -5.04317572E-05  1.02441322E-04  6.62106999E-04
  2.90622310E-06  7.34066100E-06  6.58043786E-02  9.78091497E-05  1.70651128E-04
  4.81592183E-02  1.89403632E-04  3.10029931E-04 -4.86170044E-01  3.70716218E-07
 -3.95626526E-03 -6.83387377E-03  6.19317942E-07 -7.99823206E-07 -1.02128324E-05
 -2.40330036E-01 -4.14876468E-01 -1.06926170E-04  2.03398358E-04 -3.93673414E-03
 -7.96469057E-06 -1.34559687E-05 -5.71299116E-03  9.95210999E-03 -1.77091093E-05
 -1.92508412E-07 -1.25897646E-07  1.09722927E-06 -5.02268174E-05  1.01582341E-04
  6.60570219E-04 -9.82098597E-06  9.91279875E-09  6.57818253E-02 -1.97426652E-04
  2.00922969E-07  4.81100222E-02 -3.47539941E-04  3.54415881E-07 -4.86043781E-01
  7.97607949E-07  7.89343975E-03 -8.03861010E-06 -1.24701631E-06  2.52837938E-09
  1.56583267E-05  4.79386062E-01 -4.87626437E-04  2.14310191E-04 -4.36623606E-07
 -3.92983425E-03  1.64844883E-05 -1.67871311E-08  1.14633947E-02 -2.33345571E-05
 -1.81247140E-05  5.53636949E-08  1.78464113E-08  7.38661287E-08 -1.04634767E-06
  2.71449291E-06  7.64040460E-07 -5.37651327E-07 -2.78949679E-04  4.76883423E-11
  1.49868415E-06  7.46939319E-04 -9.93967158E-11  7.31050363E-07  5.16470626E-05
  6.15841804E-11  1.37911422E-08 -2.65765442E-12  1.63082788E-09 -2.39806723E-08
  4.24261942E-05 -5.56372738E-07  9.03341685E-11  2.78527690E-08  1.52058631E-07
 -3.98408168E-05  5.08685602E-12  1.72528589E-08  4.83721883E-06  5.58752027E-10
  2.80541149E-07  3.34693070E-05  1.09280199E-02 -5.92374892E-06 -1.42107061E-05
  3.11633891E-05  2.51816020E-04 -1.04789934E-03 -3.41368970E-02 -1.96058399E-02
 -7.13085847E-07 -8.12968682E-02 -4.67885055E-02 -1.69432062E-06  3.35161701E-01
  1.93799257E-01  6.92831796E-06  4.12181581E-06  1.64217662E-07 -2.59244395E-07
  1.47430557E-02 -8.54970233E-03  3.53485066E-04  4.27936948E-06 -1.08847380E-05
  5.59271634E-01 -3.24207852E-01  1.86734004E-07  3.63805947E-03  2.08354210E-03
  9.48243637E-07 -7.52845236E-07  1.91868799E-05 -2.70006545E-03  5.94642513E-06
  1.42635370E-05 -3.11123752E-05 -2.53055549E-04  1.04891571E-03  3.40969735E-02
 -1.96753325E-02  7.13099282E-07  8.12008671E-02 -4.69545868E-02  1.69428166E-06
 -3.34765646E-01  1.94481765E-01 -6.92833793E-06 -4.13738990E-06 -1.64743756E-07
 -2.58908603E-07 -1.47777387E-02 -8.48954702E-03 -3.53589781E-04 -4.30162201E-06
 -1.08760007E-05 -5.60587436E-01 -3.21926921E-01 -1.86732025E-07 -3.63379461E-03
  2.09097012E-03 -9.51294768E-07 -7.48974885E-07 -3.56666357E-05 -2.69984019E-03
 -1.15233011E-08 -3.30851066E-08  1.97726161E-07  2.61208473E-08 -2.81661791E-06
  4.01668110E-05  3.93377213E-02  2.84245292E-12  9.58420649E-05  9.36843463E-02
 -2.82191138E-11 -3.92419664E-04 -3.86816249E-01 -5.05177687E-11  3.11637870E-09
  5.26112637E-10  5.17062301E-07  3.46650172E-05  1.70221574E-02  7.55114035E-07
  2.22145351E-08  2.17584743E-05  1.31572012E-03  6.46270782E-01  2.93580920E-12
 -4.29875188E-06 -4.18918832E-03  2.64151781E-09  1.29862904E-06 -8.15979292E-06
 -2.68976322E-03  1.71680129E-02  9.78262817E-02 -2.19316092E+00  6.89275864E+00
  3.54279847E+00 -7.45348117E-05  4.08557506E-07  1.40804816E-04 -5.09327919E-03
  2.31179546E-05 -3.80849036E-04 -2.02303986E-03  1.12785599E-05  8.15184590E-05
  1.99231884E-02 -7.15161174E-07  7.25685025E-10  1.32379534E-05  4.41573562E-08
 -1.59721733E+00  5.74641826E-05 -5.92141004E-08 -1.83403913E-03 -3.29411024E-06
  9.36538515E-06  1.39949143E-04 -6.27626336E-07  4.34087050E-06 -8.74923091E-09
  1.70343749E-01 -5.20394142E-04  1.40607530E-02  3.17624202E-02  1.06051479E-01
 -7.76849405E-01 -2.28494306E+00 -1.14765155E-01  1.99265768E-01 -4.00074100E-06
 -4.45143318E-01  7.72612800E-01 -5.51261637E-05 -5.74420918E-01  9.97576150E-01
 -1.05280910E-04 -1.25339764E-02  6.49936634E-07 -7.24009252E-07 -5.27405385E-03
 -9.08804767E-03  6.71588436E-01 -6.76859574E-05  9.98547628E-05  3.37514365E-01
  5.81492951E-01  4.25866176E-06  1.91757933E-02 -3.32915621E-02  4.23822041E-06
  6.57832776E-06  6.63274664E-02 -1.73015202E-04  1.40607387E-02  3.17624749E-02
  1.06048249E-01 -7.76835124E-01 -2.28491232E+00 -1.15169458E-01 -1.99029671E-01
 -4.00058113E-06 -4.46709994E-01 -7.71693342E-01 -5.51254954E-05 -5.76442965E-01
 -9.96393097E-01 -1.05279726E-04 -1.25339457E-02  6.51413979E-07  7.22682815E-07
 -5.23696335E-03  9.10943212E-03  6.71583555E-01 -6.78883780E-05 -9.97153943E-05
  3.35139609E-01 -5.82853689E-01  4.25861717E-06  1.92433608E-02  3.32521083E-02
  4.21135950E-06 -6.59549216E-06  6.63268498E-02 -2.32314760E-04  1.40526224E-02
  3.17630118E-02  1.05299198E-01 -7.73198796E-01 -2.27854362E+00  2.29448367E-01
 -2.33732083E-04  3.17391289E-06  8.88540582E-01 -9.04545964E-04 -2.73277987E-05
  1.14818503E+00 -1.17065583E-03 -6.93316992E-05 -1.25254074E-02  4.97583942E-08
 -5.59907691E-11  1.05000377E-02 -2.13966411E-05  6.70476465E-01  6.30100223E-05
 -6.42064598E-08 -6.70079265E-01  1.36594253E-03  1.32888249E-06 -3.83257393E-02
  3.90402590E-05 -3.39653691E-06  6.91510757E-09  6.62245629E-02 -2.02245800E-04
 -8.88866091E-08 -9.79644083E-09 -7.01457697E-06  2.37144306E-05  2.02378964E-05
  5.55533577E-05 -1.40418717E-01  4.22675157E-09  7.99107400E-04 -2.01281551E+00
  5.81698426E-08  7.48309671E-04 -1.88741274E+00  5.49900143E-08  3.24036580E-07
 -9.11583421E-10 -3.92884720E-06 -1.44590590E-04 -4.18995437E-02 -5.93826974E-06
  1.59525525E-08  3.85650559E-05  1.82572613E-03  5.29001171E-01 -3.16042139E-09
 -1.78360300E-05  4.49716023E-02 -2.08828547E-08 -7.26547237E-06  8.05379546E-07
  3.61406246E-06  4.89396040E-03  1.85899422E-02 -1.68393506E-01  3.94345077E-02
  3.05078831E+00  1.80170183E-01 -2.66330570E-01  2.23925198E-05  1.21148910E-01
 -2.41852427E-01  9.59822915E-06  8.91208264E-01 -1.27342456E+00  1.16955091E-04
  2.75580231E-03  1.62113792E-07  4.40571313E-07  6.28907775E-04  5.74851327E-03
 -5.23126365E-01  9.12358204E-05 -1.09802343E-04 -3.31151627E-01 -8.52525984E-01
 -2.30820789E-06 -9.87410711E-03  1.71885254E-02 -2.53914005E-06 -1.83696327E-06
 -2.45985029E-02  8.14658247E-03 -4.88593632E-03 -1.85595512E-02  1.68119751E-01
 -3.93710267E-02 -3.04583221E+00 -1.80550012E-01 -2.65455216E-01 -2.23588261E-05
 -1.21355196E-01 -2.41265419E-01 -9.58091705E-06 -8.93121140E-01 -1.26909558E+00
 -1.16780886E-04 -2.75139259E-03 -1.62800402E-07  4.41575601E-07 -5.91224616E-04
  5.74931089E-03  5.22278538E-01 -9.14559270E-05 -1.09373272E-04  3.26344905E-01
 -8.52942055E-01  2.30446534E-06  9.89292161E-03  1.71406623E-02  2.53431740E-06
 -1.83909743E-06  2.46081862E-02  8.03594254E-03 -7.95814335E-06 -3.02913736E-05
  2.75438951E-04 -6.54296706E-05 -4.99227374E-03  5.72311656E-04  4.64752353E-02
 -1.96291695E-08  4.10856783E-04 -3.15213385E-02 -2.47952088E-09  2.81302774E-03
  2.73555178E-01 -1.08462549E-07 -4.55114684E-06  9.53014866E-10  8.50726648E-07
  1.82274443E-05  4.69769855E-03  8.56990101E-04  1.74368670E-07  3.97210301E-05
 -2.05562303E-03 -2.82688505E-01  1.31238316E-09 -3.24676203E-05  4.47079680E-05
  2.17638015E-09  1.98063966E-06 -9.03400286E-06 -1.61900303E-02  2.44510534E-05
  2.70938231E-05  1.08783252E-03 -3.97216191E-03 -3.90181509E-03 -1.40655841E-01
 -5.59603732E-05 -2.91403959E-06 -2.01082280E+00 -7.96608615E-04 -4.15656384E-05
 -1.88706555E+00 -7.48314803E-04 -3.90348455E-05 -6.42549544E-05 -2.19677825E-06
 -3.33785297E-09  4.19473555E-02 -1.44825708E-04  1.02844156E-03  1.66252521E-05
  3.76867493E-08 -5.28331582E-01  1.82390483E-03  2.26980042E-06  4.49719795E-02
  1.78437045E-05  4.30965977E-06 -1.90515999E-08 -1.44679582E-04  5.06871435E-07
 -2.82633504E-03 -1.07188994E-02  9.67823457E-02 -2.20711848E-02 -1.75276635E+00
 -5.71086411E-02  1.79748619E-01 -1.18983492E-05 -1.00759515E-01  1.20386455E-01
 -6.13279600E-06 -2.38583031E-01  8.89112384E-01 -6.15331600E-05 -1.57351066E-03
  5.61102082E-07  2.37192597E-07 -5.05244215E-03 -5.79487325E-04  3.00475955E-01
 -9.97708444E-07  8.59041373E-05  4.72284326E-01  3.26063445E-01  1.32486775E-06
  5.70788966E-03 -9.83098582E-03 -9.32108060E-07  2.90735713E-06  1.41563827E-02
  1.39882690E-02 -2.84022747E-03 -1.07716029E-02  9.72584929E-02 -2.21792657E-02
 -1.76138937E+00 -5.79855736E-02 -1.80383678E-01 -1.19615900E-05 -1.01346854E-01
 -1.20861686E-01 -6.15978922E-06 -2.42921721E-01 -8.92218675E-01 -6.18636268E-05
 -1.58127285E-03  5.60157432E-07 -2.37089919E-07 -5.05170698E-03  6.16311163E-04
  3.01955213E-01 -1.43127204E-06 -8.62114425E-05  4.71877087E-01 -3.30399047E-01
  1.33137763E-06  5.75586162E-03  9.86779950E-03 -9.36786351E-07 -2.90873320E-06
  1.41402483E-02 -1.40518136E-02  5.66103537E-03  2.14895218E-02 -1.94366804E-01
  4.42768935E-02  3.52099135E+00 -3.70229870E-01  4.42578339E-04  1.38424740E-05
 -3.10747033E-01  2.72195401E-04  1.68906848E-06 -1.78742196E+00  2.20682225E-03
  7.65103468E-05  3.17771862E-03 -6.28454941E-08  1.26892949E-09 -6.09493655E-03
  1.90733244E-05 -6.04137638E-01 -9.43976424E-05  1.52326469E-07  1.04319544E+00
 -2.52385509E-03 -9.20582222E-07  2.28612406E-02 -2.32212992E-05  1.29898760E-06
  1.55337730E-10 -2.84119018E-02  6.38937603E-05 -3.48800510E-06 -1.00158482E-05
  3.22052792E-05  7.92083228E-05  9.66612124E-05  1.66360215E-05 -1.58882810E-08
 -8.56210419E-01 -3.49989279E-05  3.65747054E-08  1.65800892E+00  5.61169600E-06
 -6.09525405E-09 -2.38138091E-01  2.11652886E-06  1.04135845E-05 -8.53199884E-08
  1.23579795E-07 -1.24592727E-10 -1.29272726E-04  1.32198544E-02 -2.63522769E-05
 -2.23593016E-06  2.99890835E-09  5.72726892E-02 -2.71681837E-06  2.57156830E-09
 -2.40479703E-04  2.04026461E-07  1.76994800E-07 -5.33673358E-10  1.20373565E-07
  1.59981898E-07  3.01358219E-06 -1.71997804E-05 -5.15836687E-05  1.88694922E-06
  5.37055468E-06 -2.53647330E-01 -9.77453219E-06  9.74977621E-06  2.09378278E-01
 -4.67200603E-06  1.55570956E-05 -2.49633448E-01  1.46643511E-08 -2.44847718E-04
  4.41694180E-04 -9.06379196E-08 -1.47987680E-07  9.99724728E-06 -2.53442208E-01
  4.32621187E-01  4.04087226E-06 -9.58157782E-06  8.27313781E-03 -2.93480471E-06
  4.66434921E-06  2.05904960E-03  2.96693755E-03 -6.51916373E-07 -2.32134252E-08
  1.20362911E-07  1.59967812E-07  3.01313302E-06 -1.71970359E-05 -5.15822113E-05
  1.87647604E-06 -5.37344564E-06 -2.53654131E-01 -9.79358538E-06 -9.72860361E-06
  2.09382279E-01 -4.70321971E-06 -1.55456217E-05 -2.49643383E-01  1.46601266E-08
 -2.45687406E-04 -4.41108429E-04 -9.00346736E-08  1.48318870E-07  9.99361735E-06
 -2.54335692E-01 -4.32118161E-01  4.07818393E-06  9.56741524E-06  8.27304549E-03
 -2.94420943E-06 -4.65831960E-06  2.04722110E-03 -2.97509728E-03 -6.51775184E-07
  2.71327292E-08  1.14401966E-07  1.58382631E-07  2.55180749E-06 -1.46142548E-05
 -5.10436007E-05  1.09738990E-05 -1.09848885E-08 -2.59785718E-01  5.34462328E-06
 -5.57144650E-09  2.12794830E-01  2.25225947E-05 -2.21864247E-08 -2.58582325E-01
  2.95251709E-08  4.04561696E-04 -4.19478192E-07  1.32992764E-07 -2.87890867E-10
  3.50163541E-05  5.17806508E-01 -5.23161824E-04 -7.26681903E-06  1.40520620E-08
  8.25976567E-03  4.65718019E-06 -4.77968084E-09 -3.64444989E-03  7.76074263E-06
 -5.13767681E-07  1.61931236E-09  9.31676100E-11  2.70120002E-10 -9.18295405E-10
 -1.97797266E-09 -2.57034422E-09 -3.99555489E-07 -9.76541077E-05  2.07702885E-05
 -1.40308334E-07 -3.52132554E-05 -4.01024662E-05  2.79843167E-07  6.82523025E-05
  5.81430877E-06 -2.03839757E-10 -5.62844850E-06 -1.42915132E-03  1.08441679E-08
 -1.03338209E-05  1.28921472E-07  4.66660325E-03  1.14268496E+00 -2.96700291E-07
  1.47278726E-04 -1.41129578E-06  6.99296309E-08  1.80243572E-05 -1.95960632E-05
  1.88756200E-02 -2.43991900E-11 -4.85949417E-07 -2.44150817E-07  6.11740053E-08
 -2.33687679E-05  1.30138079E-04  7.19678147E-06  1.19647347E-05 -3.65701298E-05
 -3.07955112E-01  3.87599901E-05 -5.59300667E-05  1.67391550E-01  9.50784960E-08
 -6.42903479E-05 -4.46891019E-01 -3.78869086E-07  3.01938495E-03 -4.29047128E-03
  7.46205693E-08  1.52710971E-06 -1.50171963E-04 -5.63483174E-01  6.13968712E-01
 -7.87395888E-05 -8.86577525E-05  7.56810622E-04  3.44593039E-06 -1.10933272E-06
  1.44175687E-02 -4.00019756E-03 -6.12060340E-07  2.56729254E-06  2.45008105E-07
 -6.14022972E-08  2.34513870E-05 -1.30598133E-04 -7.21726169E-06 -1.22459248E-05
 -3.65797189E-05  3.09059752E-01 -3.89049141E-05 -5.61094770E-05 -1.67996242E-01
 -7.15277649E-07 -6.42328557E-05  4.48487872E-01  3.80431326E-07 -3.03302832E-03
 -4.30284234E-03 -7.61201171E-08  1.52864595E-06  1.50623905E-04  5.64526791E-01
  6.16299612E-01  7.82095770E-05 -8.96021961E-05 -7.59835559E-04 -3.42856400E-06
 -1.11769971E-06 -1.43077931E-02 -3.85358489E-03  6.25348148E-07  2.53522549E-06
 -8.61906012E-10  2.29943677E-10 -8.29084271E-08  4.61347469E-07  2.45260772E-08
 -1.26696410E-07 -2.66663575E-05 -1.08597185E-03 -2.41001781E-07  1.72367598E-05
  5.89327526E-04 -2.28882613E-07 -7.95805269E-05 -1.57858097E-03 -2.40404238E-09
 -1.75665696E-05  9.37154094E-04 -1.86997017E-09  1.17743659E-06 -3.57669167E-07
  2.50367423E-03 -3.61540617E-01  5.11362093E-07  8.72939799E-05  2.41960515E-06
 -5.72916245E-09  3.27358602E-06 -7.18483279E-05 -2.88032554E-02 -1.32429084E-08
 -4.16713398E-06  7.47518112E-08  2.30713756E-07 -1.29776019E-06  4.80866593E-07
 -1.53813302E-06 -9.79135132E-05  3.99092309E-07  9.88356309E-03 -3.42272859E-05
  1.43673106E-07 -1.95775708E-02  6.84425489E-05 -2.78697270E-07  2.60623031E-03
 -9.16608646E-08 -1.38462065E-03  5.86767365E-06  1.03968531E-05  1.05004237E-08
  4.22717048E-05  1.14241673E+00 -4.66782988E-03 -1.94586889E-04 -5.52771850E-08
 -6.43061485E-04  1.68246691E-05 -7.23882000E-08 -1.89072241E-02 -1.93157834E-05
  4.80450693E-07  3.88828617E-14  1.47812239E-07 -1.61660062E-08  1.34845489E-05
 -7.56287311E-05 -3.25914498E-06 -3.37271917E-05  5.72738713E-06  1.82099899E-01
 -5.22345653E-06  4.25375657E-05 -9.98417597E-02 -7.97570024E-05 -8.97891475E-06
  2.62831106E-01  2.52734286E-07 -8.07135261E-04  3.03720634E-03 -1.26163629E-06
 -2.05695174E-07  7.41992765E-05 -3.18823670E-02 -5.70941127E-01 -2.67740287E-05
  1.02178211E-04 -5.36530854E-04  3.20925140E-06  2.47785065E-06  2.04198392E-02
 -1.44183418E-02 -3.35237162E-07  4.60481363E-06  1.46308520E-07 -1.57994272E-08
  1.33409614E-05 -7.48288761E-05 -3.21384095E-06 -3.36640986E-05 -5.43432145E-06
  1.80207561E-01 -5.07144797E-06 -4.21832879E-05 -9.88136097E-02 -7.97351516E-05
  9.53590094E-06  2.60085060E-01  2.50411027E-07 -7.94738627E-04 -3.00919929E-03
 -1.26034250E-06  2.01457660E-07  7.32766258E-05 -3.41821593E-02  5.67235141E-01
 -2.76701944E-05 -1.01520250E-04 -5.31838408E-04  3.22526613E-06 -2.47758869E-06
  2.05665645E-02  1.43588837E-02 -3.67224287E-07 -4.61829151E-06 -2.74532574E-07
  9.49525700E-08 -2.71119663E-05  1.50343339E-04  8.48683745E-06 -3.25642575E-05
  1.14853034E-07 -3.53149923E-01 -8.41357089E-05  3.28781143E-08  1.91346424E-01
 -4.84932616E-05  2.93314283E-07 -5.13763133E-01 -7.85318256E-07 -6.04219290E-03
  3.28325073E-06 -1.38919602E-06 -7.83852047E-10 -1.16778056E-04  9.34549453E-01
  1.56916755E-04  1.08990367E-04 -4.89501371E-07  7.60095509E-04 -2.97813037E-06
 -7.00521346E-09 -4.29162046E-03  9.70704969E-05 -1.48011743E-07  1.32322858E-08
  9.08346499E-02  3.05801746E-01 -2.44048130E+00  3.28226561E+00 -8.93743676E-01
 -3.51766505E-04  1.29010524E-06  4.07843458E-05 -2.42278817E-05  1.05122697E-07
 -4.72537107E-05  1.22103368E-03 -3.87171273E-06  7.76482281E-05 -3.84523979E-02
  1.37952918E-06 -1.40267709E-09  4.18161935E-05  1.01848724E-08 -7.20138167E-01
  2.53269371E-05 -2.45596447E-08 -1.58300760E-03 -1.11158103E-06 -5.81182081E-07
  1.21569073E-04 -4.86413109E-07  4.10992752E-07 -7.49803534E-10  1.53694662E-02
 -4.69412337E-05  1.98831462E-02  5.78072950E-02 -1.65592602E-01 -4.66241385E-01
  1.34416876E-01  5.36465981E-02 -9.38951937E-02 -7.14242852E-06 -3.26833975E-01
  5.67749916E-01 -2.59581501E-05  1.10476203E-01 -1.92976482E-01 -2.96343232E-05
 -6.02598235E-03  4.30915313E-07 -7.45148186E-07 -5.17256462E-03 -8.93420548E-03
  4.04021318E-02 -2.24881511E-05  2.39660435E-05 -1.77332750E-01 -3.03989688E-01
  2.46566121E-06  1.19689679E-02 -2.07678427E-02  3.21781996E-06  4.37879915E-06
  5.81847759E-02 -1.56233758E-04  1.98832030E-02  5.78074824E-02 -1.65594495E-01
 -4.66232176E-01  1.34408337E-01  5.38357010E-02  9.37844265E-02 -7.14158830E-06
 -3.27986342E-01 -5.67078261E-01 -2.59583682E-05  1.10865416E-01  1.92747662E-01
 -2.96334364E-05 -6.02605438E-03  4.32427491E-07  7.44258073E-07 -5.13611971E-03
  8.95526948E-03  4.04026227E-02 -2.25358211E-05 -2.39186704E-05 -1.76094677E-01
  3.04707316E-01  2.46566345E-06  1.20112864E-02  2.07434638E-02  3.19992467E-06
 -4.39188744E-06  5.81846798E-02 -1.99304336E-04  1.98956752E-02  5.78516601E-02
 -1.66122575E-01 -4.63508370E-01  1.31601351E-01 -1.07562914E-01  1.10743081E-04
 -1.01916969E-05  6.53401001E-01 -6.66014695E-04 -5.73076063E-06 -2.20945710E-01
  2.26662747E-04 -3.62056223E-05 -6.04436916E-03 -2.08410377E-07  2.15044385E-10
  1.03364268E-02 -2.10296280E-05  4.05056529E-02  4.01047038E-05 -4.10873282E-08
  3.51768593E-01 -7.19180423E-04  6.38644295E-07 -2.39853539E-02  2.44123066E-05
 -2.00621847E-06  4.05142519E-09  5.81985862E-02 -1.77773818E-04  8.19223033E-05
  2.83222594E-04 -2.38203028E-03  3.06389676E-03 -2.02048991E-04  4.31763513E-01
  8.03286775E-04  9.03046644E-06 -1.00331298E-01 -1.84812406E-04 -2.23884164E-06
 -1.12574888E+00 -2.09517570E-03 -2.32896938E-05 -2.95738266E-05  7.14146413E-06
  1.82158309E-08 -4.13185539E-02  2.03076610E-04 -6.92969653E-04  1.45403836E-04
  1.18845983E-07  1.26923945E+00 -6.23920795E-03 -2.97028103E-06 -5.84317447E-02
 -1.08722119E-04 -3.60209388E-06  2.87391527E-08  3.39893365E-05  6.52791570E-08
  4.91133404E-04  3.60857928E-03 -7.81062987E-02  3.92743930E-01 -3.98398447E-01
  4.50138586E-01  2.38073518E-01  5.80330679E-05 -2.26962033E-01 -3.63786218E-01
 -3.25378421E-05  5.80129491E-01  4.07131922E-01  3.82129770E-05 -3.14299047E-03
  3.14476022E-08  1.41643217E-06 -4.20523618E-03  5.49612767E-03 -8.76866087E-02
  7.52098718E-05 -5.41955578E-05  5.83655476E-01 -5.35936445E-01  2.41989875E-07
 -4.89056169E-03 -7.69358249E-03  3.79908657E-06 -4.59781236E-07  6.80785064E-03
 -1.40215515E-02  4.95820851E-04  3.64406962E-03 -7.88872339E-02  3.96684713E-01
 -4.02389546E-01  4.48282335E-01 -2.37984865E-01  5.84926159E-05 -2.24116356E-01
  3.65377152E-01 -3.27728892E-05  5.76952238E-01 -4.07687414E-01  3.84268918E-05
 -3.17439469E-03  2.28070575E-08 -1.42543274E-06 -4.19595250E-03 -5.49147760E-03
 -8.85659796E-02  7.55380772E-05  5.46804360E-05  5.82754717E-01  5.33758028E-01
  2.49130620E-07 -4.83061865E-03  7.72643320E-03  3.79915863E-06  4.24720960E-07
  6.96123930E-03  1.39328555E-02 -9.26992691E-04 -7.08098143E-03  1.56521434E-01
 -7.90374957E-01  8.00248583E-01  3.65428720E-02  1.65126142E-03 -9.70922030E-05
  4.07890663E-01 -1.67121530E-03  6.43356294E-05 -1.27524340E-01  2.47230996E-03
 -5.53200991E-05  6.28962618E-03 -2.37867990E-06  5.03667374E-09  5.34578860E-03
  1.03024503E-05  1.76311504E-01  1.21750713E-04 -7.62183242E-08 -3.42516939E-01
 -1.86988281E-03 -5.54695553E-07  8.39425927E-03 -3.53121581E-05  2.24197925E-06
 -1.30395092E-08 -1.35744678E-02  8.78071628E-05  4.37032521E-07  1.49690006E-06
 -1.19797458E-05  1.35447093E-05 -1.43428791E-06  8.03387073E-04 -4.31699655E-01
  2.62157255E-08 -1.85513299E-04  9.86913561E-02 -6.77566469E-09 -2.09450512E-03
  1.12603012E+00 -6.69760782E-08 -1.66530281E-07  1.15498129E-08 -8.85295867E-06
 -2.02972931E-04 -4.12849455E-02 -3.02644139E-06  3.24069457E-07 -9.26379267E-05
  6.23957971E-03  1.26933623E+00 -8.56663584E-09 -1.08711247E-04  5.84226153E-02
 -2.54889425E-08 -7.42910916E-06  2.01538193E-08 -3.06850877E-05  8.10862743E-04
  6.16139528E-03 -1.35826708E-01  6.85778360E-01 -6.94091639E-01 -2.36931497E-01
 -1.73441783E-01  7.99876152E-05  3.64539360E-01 -1.98000831E-01 -4.09027669E-05
 -4.05904758E-01 -1.06742325E-01  3.72622852E-05 -5.46209593E-03 -9.96526789E-07
  1.55936399E-06  5.48964753E-03  2.17288321E-03 -1.53072630E-01  3.78441140E-05
 -1.11065308E-04 -5.33197946E-01 -3.49196477E-02  1.23901654E-06  7.65656633E-03
 -4.01740259E-03 -2.78982348E-07  3.39793841E-06  1.18520186E-02  7.99399841E-03
 -8.07962095E-04 -6.14033939E-03  1.35374082E-01 -6.83505008E-01  6.91786690E-01
  2.39163437E-01 -1.75295945E-01 -7.96519820E-05 -3.66239680E-01 -1.95158701E-01
  4.07146504E-05  4.09016272E-01 -1.09916124E-01 -3.70415855E-05  5.44387964E-03
  9.99847036E-07  1.54914874E-06 -5.50500196E-03  2.16367900E-03  1.52564702E-01
 -3.76357969E-05 -1.10674891E-04  5.36413870E-01 -3.40163613E-02 -1.23759882E-06
 -7.69258662E-03 -3.95728510E-03  3.14693154E-07  3.39925071E-06 -1.17627812E-02
  8.14653020E-03 -2.61843818E-06 -2.02432478E-05  4.50219302E-04 -2.27635945E-03
  2.30301124E-03 -4.92069134E-04 -5.86532141E-01 -2.79473820E-07  1.62004999E-03
  4.36288311E-01  1.85173329E-07 -1.19549666E-03 -8.13734483E-01 -1.59199356E-07
  1.80866249E-05 -7.77354046E-09 -9.08002637E-07  4.33352786E-07 -7.35674560E-03
  5.07847147E-04  3.33448460E-07 -1.66135084E-05  8.30457520E-04  8.91788263E-01
 -1.59597727E-09  3.35554280E-05  9.29478095E-03  1.24440642E-08  2.94138187E-06
 -8.81191447E-05 -1.60939728E-02  1.99079186E-05  5.74007783E-05  4.92687792E-04
 -3.38376018E-03 -1.18311465E-03 -1.04471849E+00 -8.62475604E-05 -2.16564878E-05
  3.80538936E+00  3.11998444E-04  7.90345432E-05 -2.33236891E-01 -2.02095738E-05
 -4.76042603E-06 -1.10624742E-05 -3.23160889E-06 -1.53345785E-09  2.78170930E-02
 -8.72950533E-05  8.03147005E-04 -1.19926918E-04 -9.33040326E-08  1.82831095E+00
 -5.73589601E-03  5.88374212E-06  1.16066075E-01  9.68072450E-06  1.30188167E-05
 -4.92565569E-08 -1.89658377E-04  5.78770266E-07 -1.97347920E-02 -5.45613096E-02
  1.14448420E-01  6.81365202E-01  5.39445071E-01  2.64304441E-01  4.42848379E-03
 -5.63810290E-08  1.98427430E-01 -7.02569059E-01  4.82615082E-05  3.70839012E-01
 -1.21910387E-01  6.03252560E-06  1.25284616E-02 -6.06419572E-07  2.32301042E-06
  7.31262050E-04  2.06637551E-02 -4.78658815E-02  5.66418399E-05  1.31860894E-05
 -1.53668695E-02 -3.14876707E-01 -7.98775542E-06 -2.29012848E-02  5.35113807E-02
 -1.22663244E-05 -1.42020837E-06 -3.87111177E-02 -3.11600056E-03 -1.98101669E-02
 -5.47697033E-02  1.14886150E-01  6.83962397E-01  5.41501943E-01  2.64291923E-01
 -4.39759824E-03 -7.71631948E-08  2.01397933E-01  7.04388885E-01  4.84611554E-05
  3.71360963E-01  1.22279360E-01  6.03208177E-06  1.25763431E-02 -6.16101668E-07
 -2.32810183E-06  6.92552919E-04 -2.07208528E-02 -4.80484611E-02  5.65635040E-05
 -1.32127452E-05 -1.47761205E-02  3.15772746E-01 -8.01978882E-06 -2.31283617E-02
 -5.36512300E-02 -1.22593945E-05  1.50168872E-06 -3.88390197E-02  3.34891642E-03
  3.95209612E-02  1.09260670E-01 -2.29367731E-01 -1.36252231E+00 -1.07879091E+00
  2.57529472E-01  3.45537462E-05  1.63744595E-05  1.41485111E+00 -1.67252459E-03
 -5.88947115E-05  5.82468112E-01 -2.59278387E-04  1.53431215E-05 -2.51098828E-02
 -1.80012314E-06  3.10815177E-09  3.65641253E-02 -6.21212837E-05  9.56561366E-02
  5.91212118E-06  6.34618603E-08 -5.60992098E-01  9.58633635E-04  7.78243580E-06
 -1.15743161E-01  1.26574771E-04 -5.59830403E-06  2.47141641E-08  7.74332713E-02
 -2.32453588E-04 -9.06325566E-08 -2.54211876E-07 -2.53410331E-06  1.63526453E-05
  5.58578574E-06  8.64405968E-05 -1.04481347E+00  2.38814334E-08 -3.17481346E-04
  3.80989167E+00 -8.77858409E-08  1.81409680E-05 -2.31968049E-01  5.04942581E-09
  5.67671018E-08 -9.02118009E-10 -4.38030999E-06 -8.70410403E-05 -2.77520120E-02
 -3.90531399E-06 -6.71953121E-08 -1.95972225E-04 -5.74458191E-03 -1.83059891E+00
 -6.43029539E-09 -9.48687176E-06  1.15943449E-01 -5.62731710E-08 -2.06143997E-05
  9.46019840E-07  1.97432133E-05  3.42630460E-02  9.47183924E-02 -1.98421837E-01
 -1.18453373E+00 -9.36864290E-01  2.85702735E-03  2.58296156E-01  9.61764271E-06
 -7.00969566E-01  1.01564428E+00 -9.11454836E-05 -1.23498507E-01  5.11481905E-01
  2.25427277E-07 -2.17590313E-02  2.24539887E-06 -2.88043074E-06 -2.07511929E-02
 -2.45931464E-02  8.30278936E-02  2.32701226E-05  4.02694863E-05  3.16094237E-01
  3.79376601E-01  1.45755711E-05  5.35487142E-02 -8.50178074E-02 -3.92198894E-07
  1.43322491E-05  6.71827671E-02 -2.06475660E-03 -3.42194238E-02 -9.45977878E-02
  1.98169857E-01  1.18301835E+00  9.35666012E-01 -2.91124749E-03  2.58314333E-01
 -9.61731159E-06  7.02587373E-01  1.01265416E+00  9.10381244E-05  1.23723218E-01
  5.10960325E-01 -2.38711534E-07  2.17314014E-02 -2.24990842E-06 -2.87073190E-06
  2.06494062E-02 -2.46319044E-02 -8.29215022E-02 -2.33127764E-05  4.03457747E-05
 -3.14513576E-01  3.79965162E-01 -1.45578908E-05 -5.36707803E-02 -8.47903744E-02
  4.77604021E-07  1.43271963E-05 -6.71083828E-02 -1.66175724E-03 -4.34943951E-05
 -1.20227442E-04  2.51924393E-04  1.50214974E-03  1.18795168E-03 -9.98451684E-06
  2.68555219E-01 -1.81986028E-08 -1.77127445E-03 -2.08624106E-01  6.50699918E-08
 -3.33852583E-04  3.01852278E-01 -1.69103629E-08  2.76498349E-05  3.15657857E-09
  1.15609839E-06 -1.73757175E-05  1.12381206E-02 -1.05045984E-04  5.77561399E-08
  6.31405798E-05  2.77941346E-04 -1.67034896E-01 -8.57355346E-09  1.35545642E-04
  7.91020554E-03  3.07874199E-08  1.20934068E-05 -7.36596821E-05  3.78911581E-03
  4.92483303E-09  1.56651012E-08 -1.16059243E-07  1.66624563E-07  2.97366671E-07
 -4.39883607E-06 -2.60061293E-03 -4.52323986E-12  1.62676114E-05  9.58094488E-03
  5.60953930E-11 -8.34662050E-07 -5.01462533E-04  4.24729870E-11 -1.37890493E-08
 -1.62822926E-11 -1.19992083E-08 -9.59096064E-08 -8.90859659E-05 -4.65312059E-08
 -7.37339004E-10 -5.01654311E-07 -6.44778021E-06 -4.52810712E-03  9.55150816E-13
  4.84693355E-07  3.01258374E-04 -4.64088958E-10 -2.50393383E-07 -2.28308299E-05
 -7.46572321E-03  8.98015101E-05  2.49434690E-04 -5.70756870E-04 -2.86384847E-03
 -2.47081242E-03  6.07736519E-01  3.50731399E-01  1.25981742E-05 -8.51981118E-01
 -4.87226450E-01 -1.78174170E-05  5.40680671E-01  3.12927243E-01  1.11959325E-05
 -6.00191061E-05  3.73541359E-07  1.93748573E-07  3.93912824E-04 -3.22255913E-04
  1.89502617E-04  1.69895940E-06  2.24438348E-07  3.50551506E-02 -1.89230399E-02
 -1.03870837E-07 -2.63888588E-03 -1.81800384E-03 -4.39604160E-07  2.42540523E-07
  1.41748476E-04 -6.02788614E-03 -8.98523095E-05 -2.49561815E-04  5.70764352E-04
  2.86660749E-03  2.47219163E-03 -6.07020426E-01  3.51968722E-01 -1.25982510E-05
  8.50988022E-01 -4.88958653E-01  1.78176819E-05 -5.40041313E-01  3.14028280E-01
 -1.11959810E-05  6.00709410E-05 -3.73148296E-07  1.94498823E-07 -3.95224213E-04
 -3.20724785E-04 -1.89612920E-04 -1.69830921E-06  2.27866199E-07 -3.51323805E-02
 -1.87792770E-02  1.03840198E-07  2.63508804E-03 -1.82355952E-03  4.40546259E-07
  2.40746958E-07 -1.78694561E-04 -6.02688051E-03  7.28658276E-08  2.01517392E-07
 -4.82516061E-07 -2.13958355E-06 -2.02891871E-06 -7.13119367E-04 -7.00761094E-01
 -4.25336815E-11  1.00103611E-03  9.80760500E-01  7.24047993E-12 -6.34037809E-04
 -6.23643096E-01 -2.98507828E-11 -5.12914737E-08 -4.11003776E-10 -3.99469423E-07
  1.18794051E-06  5.52023286E-04  1.32113089E-07 -8.84992133E-11 -8.55656540E-08
  7.91373771E-05  3.93115479E-02  1.39002231E-11  3.07743785E-06  3.22088307E-03
 -1.70961447E-09 -8.35645220E-07 -1.82293199E-05 -6.00878626E-03  5.55574860E-12
  1.58499158E-11 -9.59526427E-11 -4.33911632E-12 -8.67023172E-11  2.15824633E-07
  3.69108034E-05 -1.42133618E-06 -1.10011613E-06 -1.88591853E-04  3.15395725E-06
 -1.01042286E-06 -1.72698726E-04 -3.38668432E-06 -9.34793987E-10 -3.12491342E-05
 -5.39733101E-03 -1.30244804E-08  5.03191570E-06  1.22864682E-07  4.14823148E-03
  7.08980477E-01 -7.40036404E-07  2.14328098E-04  3.81343578E-07  6.77538239E-08
  1.62300196E-05 -2.40657671E-04  8.58705418E-02  3.82242668E-09 -2.19218975E-06
  3.79432237E-06  1.48353286E-05 -1.36637691E-04  3.63447212E-04 -3.94924375E-06
  4.87667077E-05  1.89792687E-05  7.87429082E-01  5.99397814E-07 -1.73046856E-04
 -1.23206221E+00  4.28274861E-05  3.26956378E-05  4.25271144E-01  1.55863273E-06
 -5.87166718E-03 -2.47765927E-03  3.13716162E-06  2.90301550E-06 -3.88178507E-05
 -2.61847340E-01  2.00622944E-01 -3.12493875E-05 -3.82954254E-05 -1.22402593E-02
  1.60854063E-06  1.09845359E-06  1.60978590E-02 -2.24222653E-02 -3.84836592E-06
 -1.93024597E-08 -3.81559998E-06 -1.49184879E-05  1.37402895E-04 -3.65480129E-04
  3.97255709E-06 -4.77358093E-05  1.84524989E-05 -7.91832758E-01 -3.02997193E-06
 -1.72811012E-04  1.23895211E+00 -4.18271682E-05  3.22873702E-05 -4.27647783E-01
 -1.57170849E-06  5.77791267E-03 -2.43320495E-03 -3.11759625E-06  2.94366889E-06
  3.89473774E-05  2.61286687E-01  2.02617889E-01  3.10362523E-05 -3.88273741E-05
  1.23087102E-02 -1.57419624E-06  1.10235086E-06 -1.57949415E-02 -2.22031374E-02
  3.85743050E-06 -3.68025254E-08  2.12277448E-08  8.29932482E-08 -7.64146272E-07
  2.03119172E-06 -2.25180398E-08 -4.83684240E-08  1.30582310E-04  4.41062630E-03
 -8.42552150E-07 -2.14062265E-04 -6.89992360E-03  8.82875985E-08  1.21050313E-04
  2.38321082E-03  1.00661010E-08 -8.36150801E-06 -1.25505803E-02 -2.65902961E-08
 -2.07782202E-06 -1.03129278E-07  1.44836675E-03 -2.51299307E-01  3.01953106E-07
  3.41455807E-05 -6.85526727E-05  1.41122470E-08  9.67394887E-07 -3.82173235E-05
 -4.99284265E-02 -1.33041224E-08  2.45300239E-06 -2.67147613E-09 -8.79197148E-09
  1.09503204E-07 -2.28182383E-07  8.74285871E-09 -3.69215618E-05  2.16260171E-07
  6.59346493E-04  1.88172131E-04 -1.10484919E-06 -1.35625437E-03  1.72608276E-04
 -1.01077997E-06  1.51957861E-03  1.97823736E-07  5.34137034E-03 -3.16086221E-05
  4.81443309E-06  1.45280891E-08 -2.53318156E-05 -7.08788773E-01  4.15022189E-03
  2.43522779E-04  5.40886456E-07 -2.08030753E-04 -1.05843827E-05  8.92235875E-08
  8.59336414E-02  2.40074431E-04 -2.17191233E-06 -3.92051634E-09  2.22134869E-06
  8.68150426E-06 -7.98896198E-05  2.12302174E-04 -2.42977961E-06 -1.02476092E-04
 -6.44864453E-05  4.58639949E-01  2.15014033E-04  2.28934600E-05 -7.17705669E-01
 -9.64268936E-05 -5.09070905E-05  2.47286698E-01  1.35978446E-06  9.15966744E-03
  5.80096527E-03 -7.70544700E-07  2.90521257E-06 -1.36106471E-05  9.94553367E-02
  2.62252613E-01  5.56700437E-06 -4.21064321E-05 -7.13224105E-03 -3.31263587E-06
  7.84930438E-08 -4.06118489E-02  1.59297231E-02 -9.79972810E-07  6.26718498E-07
  2.18456532E-06  8.53767036E-06 -7.85645349E-05  2.08776354E-04 -2.39192761E-06
 -1.02810888E-04  6.48764379E-05  4.51004571E-01  2.14946967E-04 -2.50044608E-05
 -7.05758271E-01 -9.67319901E-05  5.14177904E-05  2.43163203E-01  1.34464120E-06
  9.20414189E-03 -5.84342844E-03 -8.12562814E-07 -2.87370796E-06 -1.32345074E-05
  1.01452403E-01 -2.60506876E-01  6.03898426E-06  4.17095384E-05 -7.01354192E-03
 -3.32813725E-06 -6.10481863E-08 -4.08310336E-02 -1.59795943E-02 -9.46492989E-07
 -6.21095215E-07 -4.38494338E-06 -1.71480635E-05  1.57967235E-04 -4.20116658E-04
  4.53953751E-06  3.74765698E-05  5.93275119E-07 -9.12841030E-01  1.29345169E-04
 -1.16688255E-06  1.42801731E+00  7.25611240E-06  5.77918962E-07 -4.93447293E-01
 -2.08445880E-06 -9.15048089E-04 -5.97489950E-05  4.62504131E-06 -1.94694353E-08
  2.13296123E-05 -3.52653537E-01 -8.55910301E-04 -4.81428938E-05  2.63232086E-07
  1.41863732E-02 -2.72524024E-06  7.44331583E-09 -1.31392537E-02 -2.14655646E-04
  4.30152241E-06 -1.28274432E-09  4.14319649E-06  1.24425497E-05 -5.66751685E-05
 -7.53364803E-05 -3.05341120E-04  8.65064423E-06 -8.88805594E-09 -4.18219189E-01
 -2.19229167E-05  2.22034681E-08  1.06550320E+00  1.93477724E-05 -2.02828830E-08
 -9.24516271E-01 -4.04758546E-06  3.04936287E-05 -1.30491413E-07  1.53273133E-08
  7.04236556E-12 -4.17774287E-05 -1.42381807E-03  5.27322903E-06  3.47125222E-07
  4.50827545E-11  1.13250539E-01 -5.77700631E-06  5.99250812E-09  1.10192432E-04
  3.60195158E-08 -1.33934536E-05  4.09138748E-08 -8.11299989E-06 -2.75201107E-05
  1.78552544E-04 -2.70255761E-04  2.49172349E-04 -5.70595183E-05  7.53985623E-05
  6.47091208E-01  8.77898201E-05 -1.16493908E-04 -9.81069692E-01 -3.10230978E-06
 -1.60130746E-05  5.86160257E-01  1.59388229E-06 -8.17377738E-04  1.45711474E-03
 -1.30311684E-06 -2.30093488E-06 -5.54891170E-06 -8.15974782E-02  1.42436664E-01
 -2.72351007E-05 -5.29224702E-05 -9.42395238E-03 -1.33702752E-06  2.21976749E-06
 -8.17144789E-03 -1.39346342E-02  5.39025109E-06  3.42012551E-07 -8.11306542E-06
 -2.75203470E-05  1.78554374E-04 -2.70259660E-04  2.49173461E-04 -5.72136218E-05
 -7.52819608E-05  6.47084473E-01  8.80273422E-05  1.16313482E-04 -9.81058463E-01
 -3.07003718E-06  1.60200009E-05  5.86156634E-01  1.59387255E-06 -8.20293328E-04
 -1.45547819E-03 -1.29375629E-06  2.30624874E-06 -5.54852595E-06 -8.18845489E-02
 -1.42267696E-01 -2.70190337E-05  5.30326824E-05 -9.42386666E-03 -1.34157824E-06
 -2.21705970E-06 -8.11478427E-03  1.39675953E-02  5.38806850E-06 -3.74947321E-07
 -8.12963662E-06 -2.75820002E-05  1.79064005E-04 -2.71449270E-04  2.49477913E-04
  7.38182764E-05 -7.45302794E-08  6.44900889E-01 -1.14031617E-04  1.15072484E-07
 -9.77448608E-01 -3.06132026E-05  3.17185084E-08  5.85010405E-01  1.67858376E-06
  1.67081295E-03 -1.76519160E-06  2.60393970E-06 -5.31202897E-09  3.33239154E-06
  1.63014729E-01 -1.67233630E-04  5.42329946E-05 -1.10257664E-07 -9.39356398E-03
  4.09987736E-06 -4.16319021E-09  1.61201289E-02 -3.30742884E-05  4.77920331E-06
 -1.45848077E-08 -2.63449505E-02 -7.44206867E-02  1.98587151E-01  9.03159709E-01
  4.31504870E+00 -3.11788709E-04  1.38274565E-06 -7.23002119E-05  8.58605756E-04
 -4.02173163E-06  1.13243228E-04  4.02790742E-04 -2.11946275E-06 -3.26220910E-04
  7.82182835E-03 -2.79434411E-07  2.77811560E-10 -1.74606664E-06  1.08292340E-09
 -3.54190898E-01  1.25794944E-05 -1.22680413E-08  6.59153675E-04  4.99693097E-07
  2.27364987E-05  7.04082037E-05 -3.10055912E-07  1.04092676E-06 -2.06142277E-09
  4.04963883E-02 -1.23721755E-04  5.88835161E-02  2.00005240E-01 -1.29890804E+00
  1.94957603E+00 -2.72041855E+00  2.05491160E-01 -3.56798846E-01  1.13228371E-04
 -3.90577066E-01  6.78273581E-01 -1.86946852E-04 -2.86940880E-01  4.97905483E-01
  9.61693110E-05 -5.53622410E-03  5.60190942E-07 -1.31087456E-07  6.87783836E-03
  1.18717675E-02  1.08717609E-01 -2.00496592E-05  3.96729005E-05  1.61047887E-01
  2.77543881E-01 -3.16044392E-06 -2.23282736E-03  3.89126059E-03 -1.49468692E-06
 -2.45039546E-06 -8.17077070E-03  2.78583911E-05  5.88837091E-02  2.00005870E-01
 -1.29891166E+00  1.94957971E+00 -2.72042400E+00  2.06217900E-01  3.56380061E-01
  1.13227853E-04 -3.91959212E-01 -6.77479231E-01 -1.86946010E-04 -2.87955100E-01
 -4.97321374E-01  9.61688758E-05 -5.53623895E-03  5.60461466E-07  1.29945551E-07
  6.82938956E-03 -1.18996556E-02  1.08717806E-01 -2.01301024E-05 -3.96318117E-05
  1.59916754E-01 -2.78198336E-01 -3.16040106E-06 -2.24061665E-03 -3.88651662E-03
 -1.48471605E-06  2.45641008E-06 -8.17067958E-03  2.20700879E-05  5.89183389E-02
  2.00115900E-01 -1.29948723E+00  1.94992560E+00 -2.72139434E+00 -4.11840383E-01
  4.19354789E-04  1.00284797E-04  7.83410867E-01 -7.97908985E-04 -1.62370262E-04
  5.74978278E-01 -5.85418724E-04  1.13952089E-04 -5.54224961E-03 -5.22149113E-07
  5.24062591E-10 -1.37076272E-02  2.79056165E-05  1.08741552E-01  2.84589425E-05
 -2.91557099E-08 -3.21128934E-01  6.54294850E-04 -2.81201950E-06  4.42563033E-03
 -4.52985819E-06  2.33279437E-06 -4.79123001E-09 -8.14571973E-03  2.48880159E-05
 -1.13701295E-05 -4.41332875E-05  9.55459354E-05  1.67522468E-03  2.16854240E-03
 -9.05605169E-02 -1.29515026E-04 -1.87637622E-06 -1.44391930E+00 -2.06059386E-03
 -3.00432472E-05 -4.52529272E+00 -6.45807268E-03 -9.38593173E-05 -2.90158735E-06
  1.31854720E-05  9.89168819E-09  8.79883412E-02 -3.94480748E-04 -1.58873762E-04
  1.28077968E-04  2.45284521E-07 -6.15967584E-01  2.76053423E-03  1.02554039E-06
  2.00309126E-02  2.86961652E-05 -5.18225886E-06  2.00070119E-08  1.09428963E-04
 -3.06440721E-07  3.89304292E-02  1.34474549E-01 -9.17398268E-01  1.58099630E+00
 -3.47922274E+00  1.35682716E-01 -2.88082435E-01 -2.15086950E-05 -3.57402652E-01
  6.60966673E-01  3.05254311E-05  1.06701349E-01  1.07672590E+00 -8.98688289E-05
  8.91265519E-03  1.94755948E-06  3.59024089E-06  1.19640673E-02  4.52775610E-03
  1.68016066E-01 -1.57328408E-06  1.44854353E-05  2.18322830E-01  1.87996958E-01
  2.65672840E-06 -8.17739673E-03 -9.93884225E-03  6.61743470E-06  8.88588783E-07
  6.36430221E-03  1.50949962E-02  3.92615654E-02  1.35618406E-01 -9.25202477E-01
  1.59444840E+00 -3.50881430E+00  1.37685571E-01  2.90104966E-01 -2.16863794E-05
 -3.61996987E-01 -6.65736801E-01  3.07811658E-05  9.92215652E-02 -1.08252763E+00
 -9.07613351E-05  8.98859202E-03  1.92083519E-06 -3.60589068E-06  1.19678542E-02
 -4.66096362E-03  1.69445608E-01 -1.68688670E-06 -1.45867934E-05  2.18476482E-01
 -1.91023969E-01  2.68530794E-06 -8.10851066E-03  9.97172672E-03  6.61447721E-06
 -9.46414721E-07  6.32598955E-03 -1.50910376E-02 -7.81642339E-02 -2.70004122E-01
  1.84217352E+00 -3.17550283E+00  6.98440679E+00  6.37165646E-01 -7.22928553E-04
  6.20553166E-05 -1.50734503E+00  1.59241635E-03 -1.07460069E-04 -1.76643277E+00
  3.57486400E-03  1.48203110E-04 -1.79197684E-02 -3.00172375E-06  1.24374156E-08
  1.99180912E-02 -6.33749174E-05 -3.37375487E-01  4.95832863E-06  4.19294598E-09
  5.46146915E-01 -1.37927153E-03 -5.70278618E-06  9.08199002E-03 -4.32113726E-05
  5.92165563E-06 -2.68608905E-08 -1.27255536E-02 -3.71785161E-06  7.37970512E-08
  2.75618967E-07 -4.75580381E-07 -1.07593792E-05 -1.48711878E-05  1.29549430E-04
 -9.09627142E-02  4.62250419E-09  2.06158958E-03 -1.44376222E+00  7.38349805E-08
  6.46107710E-03 -4.52530740E+00  2.29903891E-07 -7.57546543E-09 -2.25291015E-08
  9.52527421E-06 -3.94452854E-04 -8.80146100E-02  1.10361922E-06 -1.56868922E-07
  1.53619462E-04  2.76104500E-03  6.15852862E-01 -2.55915492E-09 -2.87171024E-05
  2.01979951E-02  2.04575553E-08  3.84043448E-06 -6.46586547E-07  3.17930977E-06
 -6.77845535E-02 -2.34152874E-01  1.59756956E+00 -2.75367296E+00  6.05910914E+00
 -2.88899168E-01  4.71478042E-01  3.63570949E-05  6.62820759E-01 -1.12754103E+00
 -5.23198555E-05  1.07818495E+00 -1.14710734E+00  1.82694964E-04 -1.55526047E-02
  3.95868989E-06 -2.40839202E-06 -4.66155479E-03 -1.72754516E-02 -2.92723257E-01
  1.71711113E-05 -2.14583262E-05 -1.90715358E-01 -4.37055997E-01 -5.84475669E-06
 -9.89910095E-03  3.34200100E-03 -1.90286882E-07 -6.30821603E-06 -1.09958431E-02
  8.71470173E-03  6.75932250E-02  2.33491992E-01 -1.59306130E+00  2.74590558E+00
 -6.04200387E+00  2.89187873E-01  4.69474580E-01 -3.62515261E-05 -6.63350034E-01
 -1.12294223E+00  5.21701279E-05 -1.08101589E+00 -1.13962543E+00 -1.82253007E-04
  1.55088224E-02 -3.97302606E-06 -2.38271028E-06  4.53263981E-03 -1.72716788E-02
  2.91897260E-01 -1.72067278E-05 -2.13521263E-05  1.87866679E-01 -4.36898601E-01
  5.83168857E-06  9.94566313E-03  3.27314324E-03  1.32260376E-07 -6.30437758E-06
  1.10181539E-02  8.72125350E-03  1.91105264E-04  6.60149701E-04 -4.50424971E-03
  7.76501756E-03 -1.70797827E-02 -1.58884438E-03 -3.01665820E-02 -1.51760138E-07
  3.70930545E-03  2.32236232E-02  2.62818952E-07  5.05928633E-03  7.26221177E-01
 -3.62518945E-07  4.38533153E-05  1.12490336E-08  3.83573729E-06 -6.77096955E-05
 -9.32394967E-03  8.25105788E-04 -8.24563746E-09  3.78678068E-06 -1.55737424E-03
 -1.09034105E-01  1.39389191E-08 -3.62488727E-05 -1.38762482E-02 -2.67862875E-08
 -6.04548073E-06 -2.20937663E-05 -1.74169742E-02  7.81886463E-08  2.05000813E-07
  1.10723792E-06 -1.09528734E-05 -3.75645736E-06  2.86661320E-05 -5.24638548E-02
  1.82742093E-09  4.76190036E-04 -8.71426371E-01  2.81186088E-08  6.35612461E-05
 -1.19043863E-01  4.18313650E-09 -2.97903547E-07  2.62464175E-08 -3.10564696E-05
  5.13090699E-04  1.42426938E-01  2.41709711E-06  1.82086128E-07 -7.91867189E-05
  7.70371379E-03  2.13898642E+00 -4.89214281E-10 -2.68058916E-06  4.91724048E-03
  3.40436191E-08  9.31226056E-06 -3.81943704E-07 -2.28749150E-05 -1.72470335E-02
 -4.73342915E-02  9.61103713E-02  8.53027734E-01  3.73016937E-01  3.52034850E-01
  1.16371658E-01 -8.04219412E-05 -2.76496486E-01 -1.09134904E+00  2.22014348E-04
  2.00047594E-01 -7.91533499E-02 -3.18351640E-05  1.04481880E-02 -1.69250269E-06
  3.60970547E-06  1.45613823E-02  1.86964269E-02 -1.02232295E-01  4.37213940E-05
 -1.25358978E-04 -6.01191075E-01 -1.61063732E-01  4.20460768E-06 -2.30535078E-02
  1.78764630E-02  1.13702845E-05  1.04864531E-05  3.48145996E-02 -4.92555751E-02
  1.72159144E-02  4.72489123E-02 -9.59381136E-02 -8.51480592E-01 -3.72341034E-01
 -3.53438066E-01  1.18193532E-01  8.02293170E-05  2.78696104E-01 -1.09277868E+00
 -2.21510606E-04 -2.00685008E-01 -7.81175335E-02  3.17600900E-05 -1.04293645E-02
  1.69506947E-06  3.60022101E-06 -1.44792127E-02  1.87100697E-02  1.02046816E-01
 -4.37433072E-05 -1.25066041E-04  6.02202986E-01 -1.61630313E-01 -4.19351562E-06
  2.31173939E-02  1.77572048E-02 -1.13233650E-05  1.04978653E-05 -3.50527873E-02
 -4.93094440E-02  3.11240404E-05  8.54139268E-05 -1.73568800E-04 -1.53764970E-03
 -6.69048288E-04  8.77372805E-04  7.28163742E-01  1.61126668E-07 -1.46743021E-04
 -1.57253363E+00 -3.80648868E-07  5.76238582E-04  2.68419683E-01  7.12392330E-08
 -1.89032993E-05 -4.65459624E-09  2.75765526E-07  2.92435038E-05 -6.45699260E-03
  1.83966977E-04  2.02065760E-07 -1.26183200E-05  9.98586885E-04  8.80665751E-01
 -1.21958432E-08 -7.12861129E-05 -2.21553839E-02  2.54928044E-08 -1.26017469E-06
  2.38057579E-04  9.86069514E-02  2.24386372E-05  6.41570889E-05 -1.00301509E-06
 -1.85662920E-03 -9.55988154E-04  5.26132732E-02  2.87367402E-05  1.11525453E-06
  8.67960130E-01  4.74930185E-04  1.79695641E-05  1.19106181E-01  6.62173509E-05
  2.54621770E-06 -7.64861166E-05  3.69898271E-05  1.09538346E-08  1.42579881E-01
 -5.13448766E-04  4.00682313E-04  1.67915563E-04 -4.70415347E-08  2.13812992E+00
 -7.70121541E-03 -2.72692837E-07 -4.95598727E-03 -2.71473217E-06  9.65723981E-06
 -3.42796722E-08 -7.29433041E-05  3.43946084E-07 -9.92304695E-03 -2.72412337E-02
  5.54941780E-02  4.89876197E-01  2.15073531E-01 -5.25415963E-01 -3.52284912E-01
 -6.13411096E-05  1.41325443E+00  2.78237205E-01  1.60281803E-04 -1.53161596E-01
 -2.00200038E-01 -2.38809583E-05  5.99691384E-03 -1.51766786E-06  1.91822531E-06
  1.90149030E-03  1.45042667E-02 -5.88688004E-02  7.42777375E-05 -6.48761536E-05
  5.33430652E-01 -6.02477649E-01  3.54889153E-06  8.90080820E-03  2.30020161E-02
  1.34211306E-06  1.11107991E-05  2.03647777E-02  8.54583230E-02 -9.97702449E-03
 -2.73894273E-02  5.57966755E-02  4.92536224E-01  2.16242348E-01 -5.23593625E-01
  3.52986009E-01 -6.15923493E-05  1.41181613E+00 -2.77697963E-01  1.60975278E-04
 -1.52125814E-01  2.00757380E-01 -2.39803635E-05  6.02957361E-03 -1.52687585E-06
 -1.92640483E-06  1.88777090E-03 -1.45704817E-02 -5.91883951E-02  7.45467826E-05
  6.51163342E-05  5.33997333E-01  6.00807286E-01  3.56206650E-06  8.78171694E-03
 -2.30756298E-02  1.33231428E-06 -1.11491194E-05  1.99521831E-02 -8.54271965E-02
  1.99071926E-02  5.46512762E-02 -1.11544956E-01 -9.80969963E-01 -4.29609386E-01
  8.66395739E-02 -1.22756667E-03  1.02941696E-04  9.29481845E-01  1.51415414E-03
 -2.43214884E-04  1.94071026E-01 -6.17830429E-04  4.55173383E-05 -1.20586796E-02
 -3.15375407E-06  2.78150095E-09  2.70862943E-02 -4.50421580E-05  1.17735759E-01
  1.37336911E-04 -1.20111897E-07 -5.08032107E-01 -3.43451581E-04 -7.79787718E-06
 -3.10738414E-02  6.63137086E-05  1.79399678E-05 -3.45540607E-08 -4.03835294E-02
 -3.10394958E-05 -2.26826597E-05 -9.18497927E-05 -1.05238135E-04  4.08308944E-03
  5.20808071E-04  2.22339478E-01  8.25708321E-04  4.59110207E-06 -4.36156324E+00
 -1.62246855E-02 -9.05767699E-05  1.21217285E+00  4.50267141E-03  2.50749475E-05
 -2.27331235E-05 -8.15967527E-05 -3.77270851E-07  3.76943839E-01 -2.55304727E-03
 -7.27831606E-04  1.02044340E-04  9.55599230E-07 -2.93218160E+00  1.98612292E-02
 -1.06458302E-05 -2.10872539E-01 -7.81812056E-04 -8.69845966E-05  6.53889511E-07
  5.17579787E-04 -1.85849783E-06 -2.98410446E-02 -1.10667226E-01  1.09172884E+00
 -2.79766592E+00  8.47123490E-01  2.13729999E-01 -2.28124915E-01  3.54891770E-05
 -1.15420143E+00  1.20575045E+00 -1.36782560E-04 -2.66597936E-02 -3.30634146E-01
  3.21223078E-05 -2.87443368E-03 -4.24003195E-06 -5.65969543E-06  3.25792876E-03
  1.37771893E-02  1.47124302E-01 -1.00122068E-04  2.78338253E-05 -5.85401097E-03
  5.86374023E-01  2.48058814E-06  2.49086449E-02 -7.13773520E-02  2.43768928E-05
 -2.67105962E-05 -3.78616400E-02  7.87546302E-02 -3.03347926E-02 -1.12498152E-01
  1.10978766E+00 -2.84393643E+00  8.61137561E-01  2.16380443E-01  2.32241735E-01
  3.60479893E-05 -1.16820400E+00 -1.22768589E+00 -1.38887173E-04 -2.28337745E-02
  3.34086920E-01  3.27275850E-05 -2.92169686E-03 -4.16764582E-06  5.68815493E-06
  3.33325074E-03 -1.39737547E-02  1.49557165E-01 -1.00304009E-04 -2.88363482E-05
 -2.67444688E-03 -5.92763700E-01  2.53505372E-06  2.57351031E-02  7.23503822E-02
  2.41535399E-05  2.66818041E-05 -3.89700244E-02 -7.80902063E-02  6.01969548E-02
  2.23213767E-01 -2.20114249E+00  5.63751920E+00 -1.70952169E+00  6.13820501E-01
 -2.36591147E-04 -4.99064815E-05 -3.26571926E+00  1.15638543E-03  1.59657894E-04
  5.51555901E-01 -1.58707004E-03 -5.44188572E-05  5.78067969E-03  6.29737862E-06
 -4.29899808E-08  2.73823181E-02 -3.35852127E-05 -2.96292398E-01 -9.09266450E-05
 -2.78104030E-07  1.01600517E+00 -4.38757441E-04  5.18918574E-06  1.49636314E-01
 -2.28832032E-04 -3.06718917E-05 -1.54072231E-07  7.67766111E-02 -6.63203611E-04
  1.71374974E-07  7.11234087E-07  1.01565420E-06 -3.30332825E-05 -3.38521289E-06
 -8.26120708E-04  2.22094300E-01 -2.16592045E-08  1.62135940E-02 -4.36611743E+00
  4.29528539E-07 -4.50568595E-03  1.21156081E+00 -1.18576426E-07  3.55096470E-07
  2.87455927E-07 -9.72548538E-05 -2.55288020E-03 -3.77065105E-01  5.86978195E-06
 -2.55660140E-07  2.23845485E-04  1.98606158E-02  2.93360537E+00  5.00975926E-08
  7.83474464E-04 -2.10274742E-01  6.16821653E-07  1.00659761E-04 -4.47920668E-06
 -9.07254014E-05  5.22857487E-02  1.93887844E-01 -1.91244047E+00  4.90059360E+00
 -1.48389783E+00 -2.30947640E-01  4.82347023E-01 -5.91809547E-05  1.22033583E+00
 -2.57361980E+00  2.22942184E-04 -3.32029888E-01  3.61203329E-01 -6.40700790E-05
  4.99851678E-03 -6.40369250E-06  2.13586066E-06 -1.39679685E-02 -1.93878998E-02
 -2.57695709E-01  1.34917541E-05 -1.27579289E-04 -5.90744154E-01 -6.78328255E-01
 -5.75940457E-06 -7.18155251E-02  1.08602204E-01  3.49708332E-05  7.45792828E-06
  6.67606194E-02  4.47713232E-02 -5.20008440E-02 -1.92831182E-01  1.90201398E+00
 -4.87386375E+00  1.47581075E+00  2.29891085E-01  4.79697805E-01  5.88422390E-05
 -1.21456222E+00 -2.55960803E+00 -2.21636148E-04  3.32996378E-01  3.57379677E-01
  6.37629463E-05 -4.97104670E-03  6.44777550E-06  2.06899336E-06  1.38579694E-02
 -1.93132766E-02  2.56289662E-01 -1.28021525E-05 -1.27283788E-04  5.88025815E-01
 -6.75143415E-01  5.73557681E-06  7.17958312E-02  1.07775176E-01 -3.51704496E-05
  7.34795635E-06 -6.61197148E-02  4.59200022E-02 -2.85096450E-04 -1.05712551E-03
  1.04238803E-02 -2.66961563E-02  8.09578912E-03 -2.82361255E-03  8.20079209E-02
  2.36323958E-07  1.49980081E-02 -4.58085695E-01 -7.55990575E-07 -2.83275583E-03
 -2.16532057E-01  2.57653779E-07 -2.73229854E-05 -3.76930837E-08 -7.72561645E-06
 -1.20193630E-04  4.69704736E-03  1.40312082E-03  3.50840643E-07 -7.82921544E-05
 -4.10963510E-03  3.44295428E-01 -2.46222821E-08 -7.24740020E-04 -1.61343693E-02
  5.21295956E-08 -4.57319738E-05 -6.40225020E-04 -9.05671480E-02 -7.26819296E-09
 -1.67136769E-08 -2.50557323E-07  1.46912122E-06  2.38380851E-07  1.13618482E-05
 -8.13058151E-09 -3.75233895E-07 -4.84236087E-04  3.48591756E-07 -8.91858877E-06
  5.50333398E-04 -3.94838449E-07  1.48401017E-04  2.04374671E-05  5.65923033E-01
 -4.06246899E-04  7.88216984E-06 -2.53333220E-08 -4.03574380E-06 -1.01178254E-01
  7.28198266E-05 -4.20467482E-04  9.83812624E-07 -3.80434030E-04 -1.34356463E-04
  8.33090999E-08  6.55977327E-01 -1.53402711E-03 -1.65171844E-05  5.57780816E-08
 -4.10377364E-06 -1.57092073E-05  1.57175110E-04 -4.11277736E-04  3.11463482E-04
  4.65636515E-05 -1.48602247E-05 -4.73773616E-02 -2.08029567E-04  1.15268254E-04
  1.38742032E-01 -3.43817629E-05 -1.19500398E-04 -5.70196599E-02 -4.97276564E-06
 -1.21556073E-02  3.35387357E-02 -7.56047429E-07 -2.55373146E-06  3.21808743E-05
  1.62676245E-01 -7.07965052E-02 -6.20632982E-05  1.29892926E-04  7.70303362E-02
 -2.80473646E-05 -5.35416540E-06 -5.99524188E-02  1.76057602E-01 -3.08207540E-05
 -1.86664881E-05 -4.10803628E-06 -1.57255235E-05  1.57338246E-04 -4.11704152E-04
  3.11788148E-04  4.66037402E-05  1.48029021E-05 -4.74270802E-02 -2.08335535E-04
 -1.15046538E-04  1.38887242E-01 -3.40649154E-05  1.19631835E-04 -5.70791505E-02
 -4.97821632E-06 -1.22439556E-02 -3.35445015E-02 -7.46303339E-07  2.55933939E-06
  3.22096867E-05  1.62862622E-01  7.06125049E-02 -6.25158511E-05 -1.29695649E-04
  7.71108080E-02 -2.80302991E-05  5.40277521E-06 -6.05630456E-02 -1.75898201E-01
 -3.07425618E-05  1.88519453E-05  8.20155227E-06  3.13919970E-05 -3.13948104E-04
  8.21316905E-04 -6.23703946E-04  6.91353082E-05 -5.92094067E-08  9.49684715E-02
 -3.97734556E-04  3.63148566E-07 -2.77884963E-01  1.69541195E-04 -2.04073271E-07
  1.14011596E-01  6.56256697E-06 -7.02472589E-02  7.37053858E-05 -2.76063907E-06
  5.51647143E-09 -4.22159751E-05  2.85429053E-01 -2.53971961E-04  1.57095286E-04
 -2.80532009E-07 -1.54321440E-01  1.29335717E-05 -2.02024329E-08  2.44639363E-01
 -4.49483958E-04  5.84510007E-05 -1.74711303E-07 -1.32742067E-11 -3.95065083E-11
 -3.23081988E-10  2.80835306E-09  3.11498308E-10 -8.13490695E-09 -1.13307809E-05
 -2.26796040E-08  3.46097942E-07  4.84660304E-04  1.62946930E-08 -3.94181252E-07
 -5.50093940E-04  5.55740423E-07  6.26371525E-09 -4.05584841E-04 -5.66303033E-01
  6.65852422E-08  3.14474251E-05 -1.82957999E-09  7.24552021E-05  1.01421109E-01
 -9.92126254E-07 -4.24685914E-04 -1.65979362E-06  1.40194517E-07  1.77280319E-04
  1.53261711E-03  6.55687593E-01 -5.55768269E-08 -1.66980930E-05 -7.10594996E-06
 -2.72004063E-05  2.72105781E-04 -7.12108515E-04  5.39948131E-04  1.64514644E-05
 -6.26418112E-05 -8.21416180E-02 -1.19669486E-04  3.37898614E-04  2.40537053E-01
  1.21535362E-04 -1.02866267E-04 -9.87928627E-02 -9.07361690E-06 -3.35124175E-02
  5.09972925E-02 -1.16128995E-06 -4.21468422E-06  4.80715035E-05  7.05955217E-02
 -2.44598972E-01  1.26881755E-04  9.40301075E-05  1.33640215E-01  1.00993926E-05
  1.39994021E-05  1.76243485E-01  1.42767007E-01 -6.04328147E-05  4.74801259E-06
  7.10347856E-06  2.71909247E-05 -2.72010438E-04  7.11857468E-04 -5.39760343E-04
 -1.65509651E-05 -6.25992325E-05  8.21135908E-02  1.20231084E-04  3.37583086E-04
 -2.40454211E-01 -1.21765277E-04 -1.02546686E-04  9.87582746E-02  9.07058487E-06
  3.36087886E-02  5.09085153E-02  1.14360302E-06 -4.21778718E-06 -4.80519183E-05
 -7.09957920E-02 -2.44412497E-01 -1.26534890E-04  9.44674896E-05 -1.33594217E-01
 -1.00875423E-05  1.40233878E-05 -1.75696948E-01  1.43377917E-01  6.04421444E-05
  4.38997660E-06  2.48934134E-09  9.51838190E-09 -9.50330788E-08  2.48276964E-07
 -1.88548242E-07 -1.67042690E-08 -3.70136314E-05  2.86931059E-05  2.10388931E-08
  1.38662484E-04 -8.39010345E-05  1.57641003E-07  1.04389673E-04  3.42807825E-05
  1.97190760E-09 -2.85445063E-05 -7.20114629E-03 -3.71468164E-10  2.12003031E-07
 -1.27370477E-08 -3.78274622E-05 -1.21837855E-01 -2.18180112E-07 -1.30372987E-04
 -4.67682238E-05  2.75030547E-08  2.32548986E-05 -2.55626802E-04 -1.61761783E-01
 -2.02474642E-08 -1.23863476E-05 -2.30586199E-02 -2.96126072E-02 -1.42212418E+00
  5.63264700E+00  8.17151797E-01 -1.83390153E-05  1.03449064E-07  1.90180517E-05
 -3.71384634E-03  1.71727748E-05 -2.36853910E-04 -4.77346627E-04  6.63030673E-07
 -3.48730938E-05  6.49793513E-01 -2.33381500E-05  2.36087992E-08  3.25935878E-04
  3.47835506E-07 -1.71873416E+00  6.18264390E-05 -6.35697178E-08 -1.72879563E-03
 -4.36389220E-06  8.00747539E-05  4.91975230E-04 -2.00062858E-06  3.46606189E-06
 -6.70185414E-09  1.37561269E-01 -4.20173607E-04 -3.71868478E-02 -1.30314649E-01
  1.24630003E+00 -2.61275352E+00 -3.78859772E-01  2.37557940E-01 -4.12436021E-01
  1.83197733E-05 -9.31506862E-01  1.61706812E+00 -8.72036204E-05 -3.89790863E-02
  6.77421618E-02 -5.64296192E-06  4.18906612E-02 -6.67978130E-06  1.04362611E-05
  2.02522836E-02  3.49783513E-02  4.07098534E-01 -2.53693570E-05  3.25205943E-05
  1.93463198E-01  3.33528225E-01  8.67563016E-06 -2.26454910E-02  3.93557859E-02
  1.84440099E-05  2.32447720E-05  1.36717085E-01 -2.75225154E-04 -3.71867183E-02
 -1.30314150E-01  1.24629304E+00 -2.61272800E+00 -3.78859787E-01  2.38396757E-01
  4.11950111E-01  1.83196380E-05 -9.34790812E-01 -1.61515340E+00 -8.72026190E-05
 -3.91171929E-02 -6.76630132E-02 -5.64294121E-06  4.18906498E-02 -6.70098548E-06
 -1.04225539E-05  2.01095023E-02 -3.50603941E-02  4.07096366E-01 -2.54353738E-05
 -3.24684635E-05  1.92100639E-01 -3.34310144E-01  8.67553017E-06 -2.27256479E-02
 -3.93098553E-02  1.83490732E-05 -2.33196220E-05  1.36716198E-01 -5.60418520E-04
 -3.71619797E-02 -1.30217690E-01  1.24483670E+00 -2.60722855E+00 -3.78206037E-01
 -4.75666254E-01  4.84316146E-04  3.48977447E-06  1.86258628E+00 -1.89612969E-03
 -2.90239882E-05  7.81041943E-02 -7.95530562E-05 -3.20419281E-06  4.18968198E-02
  8.85947173E-06 -9.01162471E-09 -4.03612453E-02  8.21147380E-05  4.06606847E-01
  6.83532640E-06 -6.92451137E-09 -3.84719342E-01  7.83206874E-04  1.21451496E-05
  4.54590434E-02 -4.63967350E-05 -2.64003474E-05  5.37271919E-08  1.36659885E-01
 -4.17172645E-04  2.37307301E-06  1.01427877E-06  2.46027107E-04 -9.29143659E-04
  2.35374721E-05 -4.13370284E-06  4.18743582E-09  1.99852820E-01  1.14894096E-05
 -1.34105978E-08 -5.31338583E-01  4.57208077E-06 -5.73613089E-09 -2.03332749E-01
 -4.33083575E-05  6.22321810E-04 -2.74028012E-06 -3.27595705E-08  5.65546980E-12
  2.80793049E-04 -2.67637687E-04  1.17447692E-06  1.78572926E-07  5.10959892E-10
  9.13211945E-01 -4.64787428E-05  4.77257973E-08  2.75539969E-05  3.15667638E-07
 -9.49346461E-05  2.89916856E-07  5.02096230E-06  1.82000125E-05 -1.83356095E-04
  4.00071022E-04  6.62823539E-06 -2.95459141E-05  5.39313897E-05 -7.30708567E-02
  1.26726504E-04 -2.30314440E-04  2.86051856E-01 -4.02342395E-07 -1.39946759E-06
  5.49114162E-02 -1.19522988E-05 -2.89748882E-02  5.03203708E-02 -2.35155285E-06
 -6.13025760E-06 -2.11410583E-05  1.68478008E-01 -2.92411646E-01 -3.39063915E-05
 -4.63356216E-05  1.77393158E-01 -2.80404367E-05  3.96235177E-05  5.80235562E-02
  1.00057177E-01 -7.90347094E-07 -2.54883913E-06  5.02096404E-06  1.82000144E-05
 -1.83355726E-04  4.00068718E-04  6.62618828E-06 -2.96556324E-05 -5.38710360E-05
 -7.30711005E-02  1.27194394E-04  2.30054204E-04  2.86051572E-01 -3.99953385E-07
  1.39993544E-06  5.49116596E-02 -1.19522123E-05 -2.90770273E-02 -5.02608364E-02
 -2.32657016E-06  6.13972221E-06 -2.11409013E-05  1.69072987E-01  2.92067286E-01
 -3.37171644E-05  4.64730140E-05  1.77392531E-01 -2.81209582E-05 -3.95661215E-05
  5.76152642E-02 -1.00292457E-01 -7.74599559E-07  2.55361015E-06  5.02235259E-06
  1.82037390E-05 -1.83299703E-04  3.99620851E-04  6.02379228E-06  6.37357870E-05
 -6.49189457E-08 -7.31313623E-02 -2.71300058E-04  2.76307340E-07  2.86000073E-01
 -2.55896574E-06  2.83023338E-09  5.49813911E-02 -8.81261445E-06  5.79518678E-02
 -5.90515274E-05  4.66848172E-06 -9.49266346E-09 -3.92735634E-05 -3.37352647E-01
  3.43413686E-04  6.74967511E-05 -1.37578616E-07  1.77248283E-01  2.90916696E-05
 -2.96024841E-08 -1.15601436E-01  2.35342746E-04  3.65889656E-06 -1.12483045E-08
  1.41064107E-09  3.16666686E-09  1.02301230E-08 -7.69492101E-08  2.57799236E-08
  6.72388233E-08  5.22824440E-05  2.25505917E-11  1.93430198E-06 -6.34973197E-06
 -1.33161544E-11 -1.35236132E-06 -8.45448916E-05 -4.94465876E-11 -4.13695588E-08
 -2.27142012E-10 -5.10127006E-08  3.40994615E-07 -2.80047403E-04  4.84411532E-08
  1.58641427E-10  3.80725923E-08  1.33686509E-06 -1.15301930E-04  1.18701860E-10
  5.26389251E-07  1.51832001E-04  4.39239339E-08  2.16396415E-05  2.60150263E-03
  8.51542767E-01 -3.07611395E-07 -4.53596951E-06  4.80630379E-05 -3.40663582E-05
 -1.17662662E-04 -1.69706756E-02 -9.83741579E-03 -3.49558864E-07  1.76526553E-01
  1.01857090E-01  3.64905062E-06  9.50099347E-03  5.55160830E-03  1.92188823E-07
 -6.91676144E-07 -7.12785027E-06 -1.80602814E-06 -9.59114865E-02  5.55999105E-02
  5.00462051E-05  2.43772225E-05  7.03869406E-06  2.92799221E-01 -1.69678355E-01
  2.33042700E-06  4.57054249E-02  2.63384059E-02 -3.06781620E-05  2.21620273E-05
  5.97972041E-04  2.39855782E-01  3.51874113E-07  4.70602776E-06 -4.96216801E-05
  3.73610350E-05  1.16450146E-04  1.69506277E-02 -9.87267944E-03  3.49508791E-07
 -1.76317079E-01  1.02217885E-01 -3.64884370E-06 -9.48927416E-03  5.57033925E-03
 -1.92183133E-07  6.97193713E-07  7.12412156E-06 -1.82051505E-06  9.61367749E-02
  5.52085559E-02 -5.04196749E-05 -2.43626894E-05  7.08840788E-06 -2.93487164E-01
 -1.68483002E-01 -2.33042962E-06 -4.56516795E-02  2.64315863E-02  3.07681830E-05
  2.20369032E-05  8.67888807E-04  2.39855311E-01 -3.74788328E-08 -1.48103089E-07
  1.39680465E-06 -3.02605630E-06  1.13036381E-06  1.95257715E-05  1.97027977E-02
  1.11965720E-11 -2.05432275E-04 -2.03664727E-01 -2.99975167E-11 -1.13770459E-05
 -1.08964332E-02  1.18633519E-11 -1.43164017E-08  3.71770247E-09  3.61989341E-06
 -2.25547900E-04 -1.10754171E-01  3.45682199E-07 -1.43961485E-08 -1.41049220E-05
  6.87869537E-04  3.38103913E-01  7.24716144E-11 -5.36222410E-05 -5.27596274E-02
 -5.28649957E-08 -2.59235485E-05  7.32591059E-04  2.39927261E-01 -7.86023335E-03
 -2.60093210E-02  3.89179045E-01 -1.33110944E+00  2.30102016E+00  9.40168737E-04
 -3.38859441E-06 -1.97265235E-05 -5.10290173E-04  1.54105600E-06  9.47505849E-05
  6.11641784E-03 -2.12031862E-05 -8.36143154E-05  8.02687258E-01 -2.92458615E-05
  2.95344783E-08 -7.64658171E-03 -3.09047447E-06 -5.47659627E-01  2.03395132E-05
 -2.02087233E-08  1.44979555E-02  5.97099926E-06  1.48874379E-06 -1.90960544E-03
  6.28714122E-06  1.01056350E-05 -2.20698500E-08  4.11747824E-01 -1.25789067E-03
  2.38827715E-02  8.45050714E-02 -6.60347388E-01  9.28910201E-01 -9.83851701E-01
 -1.27053377E-01  2.17938595E-01 -4.11704463E-06  1.94137389E-01 -3.26892491E-01
 -1.55185926E-05 -1.52500015E-01  2.62566772E-01 -1.53221904E-06  9.89069422E-03
 -9.09283752E-07  7.42678127E-07 -3.99368143E-03 -7.76741082E-03 -7.09993814E-02
 -5.55929919E-06  1.00329256E-05 -5.71131373E-02 -1.04547454E-01  4.40957381E-05
  1.37060151E-01 -2.39175285E-01  1.17887228E-05  2.99214352E-05  1.19740061E-01
 -1.18835134E-03  2.38832583E-02  8.45068895E-02 -6.60358047E-01  9.28898439E-01
 -9.83871571E-01 -1.27503528E-01 -2.17683384E-01 -4.11718804E-06  1.94811018E-01
  3.26482191E-01 -1.55196699E-05 -1.53038926E-01 -2.62257420E-01 -1.53306072E-06
  9.89084017E-03 -9.10869103E-07 -7.41343216E-07 -3.95981769E-03  7.78215738E-03
 -7.10027231E-02 -5.57932667E-06 -1.00218630E-05 -5.66794993E-02  1.04783990E-01
  4.40974758E-05  1.37551409E-01  2.38906657E-01  1.16686869E-05 -2.99706108E-05
  1.19754695E-01  4.58948282E-04  2.40611030E-02  8.51763464E-02 -6.64363924E-01
  9.25024240E-01 -9.90913405E-01  2.54776086E-01 -2.55785870E-04  3.82763589E-06
 -3.77496311E-01  3.70129149E-04 -2.79955908E-05  3.04937853E-01 -3.07550073E-04
  7.65797507E-06  9.96214786E-03  9.88236585E-07 -1.12848746E-09  7.87188056E-03
 -1.48590059E-05 -7.22338860E-02  1.93631659E-05 -1.98337583E-08  1.19374637E-01
 -2.34412795E-04  2.34779417E-05 -2.79857927E-01  2.86687257E-04 -1.41248677E-05
  2.97014073E-08  1.23176804E-01 -3.78564401E-04  5.42524427E-05  2.01202549E-04
 -3.01886114E-03  1.06520688E-02 -1.90719134E-02  1.10513250E-01  1.58510543E-04
  2.44430132E-06 -1.43419829E-01 -2.05226307E-04 -3.73834705E-06  7.46856499E-01
  1.07141181E-03  1.61892204E-05 -6.45389314E-03 -7.61448966E-06  7.96483661E-08
 -9.06047329E-01  4.06855453E-03  4.55430418E-03  3.27574393E-05 -1.24575986E-07
  1.70334847E+00 -7.64821870E-03 -1.30953833E-05 -2.56504752E-01 -3.68504660E-04
 -6.35026678E-05  3.25591019E-07 -3.76897434E-03  1.41788975E-05 -7.64015542E-03
 -2.94203757E-02  1.88741588E-01  1.01445960E-01  2.93787696E-01 -8.06363617E-02
 -1.73865402E-01 -2.94977833E-07  5.60512812E-01  2.42031022E-01  2.58670362E-05
 -8.95754084E-02 -1.10096503E-01  7.62657363E-06 -6.06665876E-03  1.05148646E-05
 -3.63166867E-06  2.68926130E-02 -5.78101984E-02  5.51722096E-02  1.59645025E-05
  1.94709647E-06  3.28620254E-01 -1.61285381E-01 -2.95341781E-05 -1.56956459E-01
  1.06621256E-01  3.18369361E-05 -5.44481494E-05 -1.40267755E-01 -9.35350304E-02
 -7.70362904E-03 -2.96653353E-02  1.90304338E-01  1.02379076E-01  2.96223649E-01
 -7.94356300E-02  1.74606967E-01 -2.66038419E-07  5.58845386E-01 -2.41770518E-01
  2.59639462E-05 -8.88205760E-02  1.10446132E-01  7.71880353E-06 -6.11766596E-03
  1.05302840E-05  3.67592334E-06  2.68443148E-02  5.78977106E-02  5.56380419E-02
  1.59014163E-05 -1.96940029E-06  3.28481021E-01  1.59249427E-01 -2.97416913E-05
 -1.57690434E-01 -1.07662815E-01  3.18082300E-05  5.44819133E-05 -1.40882185E-01
  9.41288901E-02  1.47321050E-02  5.69118449E-02 -3.62018183E-01 -2.27047773E-01
 -5.65367308E-01  2.15182102E-01 -6.62173586E-04  1.75492250E-06  1.50334122E-01
  1.56102869E-03 -2.50271749E-05  9.42580528E-02 -4.70889770E-04 -1.71395160E-05
  1.19034680E-02  1.20069737E-05  5.06152734E-09 -7.35653484E-02  1.79313311E-06
 -1.08949019E-01  6.55531388E-06  6.54692382E-09  4.79546867E-02 -1.12953001E-03
  2.52512300E-05 -3.35891988E-01  1.08013611E-04 -3.51861310E-05 -5.67290011E-08
  2.78476414E-01 -5.84777345E-04  2.56195560E-07  9.55875000E-07 -1.36833514E-05
  4.90030919E-05 -9.27095709E-05  1.58568704E-04 -1.10415463E-01  6.35068396E-09
 -2.04736215E-04  1.42346030E-01 -1.08813447E-08  1.07154824E-03 -7.46110488E-01
  4.14183408E-08 -3.13402766E-05 -4.68688282E-08 -2.98992381E-05 -4.06856679E-03
 -9.06072368E-01  2.29207099E-05  1.16341072E-07  3.79783160E-05  7.64831710E-03
  1.70313794E+00 -3.23976621E-08 -3.68381068E-04  2.56833894E-01 -3.20726708E-07
 -8.03413741E-05 -2.00466621E-05 -4.38367115E-04 -1.29448274E-02 -4.99689471E-02
  3.18771231E-01  1.91051578E-01  4.96532796E-01  1.71996475E-01 -1.18510622E-01
  5.94404335E-06 -2.37815602E-01 -2.84466899E-01  1.95633118E-05  1.07613377E-01
 -3.44477794E-02  1.87345687E-05 -1.04384914E-02  1.63221548E-06 -1.34151501E-05
 -5.79387040E-02 -4.02097585E-02  9.50638233E-02 -1.21312318E-05 -1.83039214E-06
 -1.60015764E-01  1.41984113E-01 -4.23033877E-05 -1.05199862E-01  2.77826520E-01
 -5.10841496E-05 -3.33035863E-05 -2.42260552E-01  5.45347198E-02  1.29062215E-02
  4.98205383E-02 -3.17814569E-01 -1.90584504E-01 -4.95047239E-01 -1.72623861E-01
 -1.17295693E-01 -5.94506697E-06  2.39973319E-01 -2.86151505E-01 -1.94362948E-05
 -1.08114384E-01 -3.36774141E-02 -1.86971195E-05  1.04080438E-02 -1.60765426E-06
 -1.33938896E-05  5.79067293E-02 -4.01619065E-02 -9.47890983E-02  1.22055787E-05
 -1.86524326E-06  1.62208552E-01  1.42110192E-01  4.21561974E-05  1.04987310E-01
  2.77077008E-01  5.11046669E-05 -3.32429858E-05  2.41896198E-01  5.35157044E-02
  3.56365575E-05  1.37846180E-04 -8.74334231E-04 -5.76654333E-04 -1.36586034E-03
  7.06503039E-04  1.80518193E-01  4.06604117E-09 -3.34875945E-04 -6.98610350E-01
 -5.99569785E-08  3.80153428E-04  1.52695271E-01 -4.20050076E-08  2.90194287E-05
  2.22361238E-08 -7.08257601E-06 -5.81369138E-05  6.02512499E-02 -2.65886615E-04
  9.34444513E-09 -5.43497876E-06  9.72311771E-04  4.20675121E-01  6.12657340E-08
 -7.21110030E-04  9.54051135E-02  2.06804771E-08  5.24067659E-05  3.50561309E-04
 -1.08245472E-01  2.90727503E-09  9.01010937E-09 -1.59939417E-07  5.09218625E-07
 -6.01096147E-07 -1.45535878E-05 -8.47529755E-09  1.17056516E-04  4.45090614E-05
  2.57875818E-08 -6.85087762E-04 -2.72735637E-04 -1.56285794E-07 -9.04609709E-05
 -3.76392596E-05 -1.04175184E+00 -5.93714396E-04 -3.78572492E-05  2.04590985E-07
  4.82266742E-05  1.33740987E+00  7.61919952E-04  1.61038804E-04 -6.69595228E-07
  5.89019051E-04 -8.64837695E-05 -1.16089650E-07  6.45216786E-01 -2.33883717E-03
 -1.65421998E-05  7.66535072E-08  1.16373067E-07  9.77257967E-07 -1.85639003E-05
  7.59362346E-05 -1.47608832E-04 -1.37566645E-05 -1.75458010E-05 -5.14353184E-02
  5.60934466E-05  3.31882364E-05  2.78040376E-01  2.29895838E-05  6.16542951E-05
  5.80909232E-02  3.18854381E-06 -5.11347396E-02 -2.11942703E-02  2.74138563E-05
 -1.01369542E-05  2.08912307E-05  8.44064169E-02 -2.51618711E-01  3.31599408E-05
 -1.48111028E-05 -4.13843640E-02 -3.73464827E-05 -3.38861482E-05 -1.17937805E-01
  7.12688813E-02  8.16878828E-06 -4.43051980E-05  1.17095811E-07  9.82948527E-07
 -1.86685634E-05  7.63568667E-05 -1.48425709E-04 -1.36598872E-05  1.75904081E-05
 -5.17188461E-02  5.58896921E-05 -3.32274496E-05  2.79572399E-01  2.26604822E-05
 -6.18514197E-05  5.84111979E-02  3.21875865E-06 -5.10239618E-02  2.12137477E-02
  2.74201247E-05  9.98169091E-06  2.10178553E-05  8.57199719E-02  2.52639116E-01
  3.31401796E-05  1.46143091E-05 -4.16127115E-02 -3.71423777E-05  3.39871297E-05
 -1.17999972E-01 -7.06735267E-02  8.46334420E-06  4.41736256E-05 -2.57454667E-07
 -2.04520992E-06  3.79224373E-05 -1.53291774E-04  2.96815312E-04  1.32483183E-05
 -5.27885588E-08  1.03065910E-01  1.63051769E-05  1.10871480E-07 -5.56746991E-01
 -8.07888768E-05  1.77260413E-07 -1.16380200E-01 -1.06103313E-05 -1.42785142E-02
 -8.59156387E-05  8.45449216E-06 -6.65027749E-08 -1.69379059E-05  5.21000894E-01
 -6.26779933E-04 -1.05915161E-05 -4.95683507E-08  8.30917556E-02  2.35814172E-05
 -1.05111391E-07  5.07615006E-03  2.41326503E-04 -1.08197991E-05  1.04290694E-07
 -8.14528950E-12 -2.04792493E-11  2.88406569E-10 -8.68627862E-10  1.14529759E-09
  8.12371058E-09 -1.45302766E-05 -5.39113144E-07 -2.50223912E-08  4.46204939E-05
  3.29048356E-06  1.54564104E-07 -2.72416738E-04  3.53206981E-07  5.99135635E-08
  5.93518256E-04 -1.04143949E+00  2.26790848E-07  8.11978197E-05 -7.70168835E-08
 -7.62642187E-04  1.33767326E+00 -6.99559722E-07 -2.16789312E-04 -2.72660257E-06
  6.61838942E-09 -1.28895002E-04 -2.34096389E-03 -6.45789956E-01  7.66928346E-08
  1.64204459E-05 -2.13821556E-07 -1.73899695E-06  3.26157273E-05 -1.32636785E-04
  2.56830214E-04 -1.93382398E-05  5.43916528E-06  8.93614561E-02  4.30133386E-05
  2.36497370E-05 -4.83170206E-01  6.37847399E-05 -4.75301073E-05 -1.00913107E-01
 -9.50431557E-06 -2.11460951E-02 -2.65591607E-02  1.08917916E-05 -1.36665752E-05
 -4.00366871E-05 -2.51801378E-01  3.76703372E-01  2.51314717E-05 -1.96487483E-05
  7.20785153E-02 -4.22768415E-05  7.77402092E-06 -7.08844150E-02  3.59932502E-02
 -7.44581793E-06 -2.53481356E-05  2.13483745E-07  1.73600785E-06 -3.25574626E-05
  1.32394997E-04 -2.56361109E-04  1.93928858E-05  5.34332287E-06 -8.91974329E-02
 -4.31440691E-05  2.38438385E-05  4.82282004E-01 -6.39534788E-05 -4.72043722E-05
  1.00727883E-01  9.49418405E-06  2.12542037E-02 -2.66694102E-02 -1.10345653E-05
 -1.36540449E-05  3.99696892E-05  2.52295852E-01  3.75387332E-01 -2.53176229E-05
 -1.95929768E-05 -7.19466469E-02  4.24112909E-05  7.58044821E-06  7.14057664E-02
  3.59288125E-02  7.26441085E-06 -2.55338645E-05  3.91376862E-10  3.17824280E-09
 -5.97523075E-08  2.43586702E-07 -4.70557233E-07 -4.66842790E-08 -2.49290194E-05
 -1.63660310E-04  5.64581694E-08  8.09742293E-05  8.84138920E-04  1.88887428E-07
  5.96241472E-05  1.84724281E-04  1.68469594E-08 -4.17895099E-05 -6.32675144E-02
 -7.66564368E-08 -3.11029005E-05  2.70518912E-08 -8.88882626E-04 -6.04895713E-02
 -7.53634634E-08 -4.52064284E-05 -1.32278891E-04 -8.92739136E-08 -5.11978509E-05
  3.15347871E-04  1.58842721E-01  1.54161088E-07  4.49886919E-05  3.64104124E-05
  1.15946981E-04 -1.31802410E-03  2.14928506E-04  1.09807359E-03 -7.39279008E-01
 -8.24442222E-04 -1.53151585E-05  6.03695528E+00  6.73463279E-03  1.25249078E-04
  1.07196874E+00  1.19570122E-03  2.21755456E-05  5.43970636E-04  5.79603824E-05
  8.25544678E-08 -2.02026109E-01  8.42311831E-04 -7.33002655E-04 -2.71609645E-04
 -6.19464978E-07  3.57637708E+00 -1.49161343E-02 -4.91317710E-05 -9.66779349E-01
 -1.07851891E-03 -1.41315030E-04  7.24680924E-07  3.24576186E-04 -4.32126229E-07
 -1.03829820E-03  1.22505422E-02 -5.38368768E-01  2.27763757E+00  8.72464927E-01
 -8.28045690E-02  5.90287494E-02 -3.28622177E-06  1.19497626E+00 -1.42425192E+00
  8.86288273E-05  4.11300011E-02 -3.09685950E-01  1.64870797E-05  8.04566856E-02
  1.65924911E-05  2.21022525E-05  9.99910827E-02  3.36785516E-02 -3.37416740E-01
  4.68593089E-05 -3.97167315E-05 -1.79836090E-01 -6.55444360E-01  5.07326974E-06
 -2.84835622E-01 -1.65382841E-01  9.19529028E-05 -4.95900320E-05  9.92388484E-02
 -1.59131360E-01 -1.04595740E-03  1.23416396E-02 -5.42365675E-01  2.29453725E+00
  8.78941738E-01 -8.31788032E-02 -5.95070239E-02 -3.30321987E-06  1.20398751E+00
  1.43397371E+00  8.92292395E-05  4.30884516E-02  3.11310998E-01  1.66304751E-05
  8.10533990E-02  1.64373681E-05 -2.21797017E-05  9.99975590E-02 -3.46816747E-02
 -3.39921380E-01  4.70843279E-05  3.99981654E-05 -1.79964618E-01  6.60188439E-01
  5.25386882E-06 -2.83790368E-01  1.65562737E-01  9.19309272E-05  4.91258890E-05
  1.00948401E-01  1.58129305E-01  2.06022756E-03 -2.47021565E-02  1.08198247E+00
 -4.57217158E+00 -1.75276277E+00 -1.86228939E-01  8.56553934E-05 -6.71095588E-07
  3.67586364E+00 -2.94566269E-03 -5.20382887E-05  5.80394388E-01 -8.83705044E-04
 -1.93226912E-05 -1.61474607E-01 -1.06736548E-05  7.06087722E-08  1.59416880E-01
 -4.95799582E-04  6.77853045E-01  3.23703308E-05  8.14527861E-09 -1.31998631E+00
  2.26251185E-03 -3.90368078E-05  2.40885564E-03 -8.11535671E-04 -1.29823738E-05
 -1.69343771E-07 -2.00511241E-01  1.00384146E-03 -1.74982431E-07 -5.19379204E-07
  3.09634526E-06  1.22517072E-05 -3.93130518E-06  8.24478764E-04 -7.39221100E-01
  3.26699343E-08 -6.73750316E-03  6.04274664E+00 -2.68194892E-07 -1.19516743E-03
  1.07182659E+00 -4.72173201E-08 -3.05347714E-06 -5.59331331E-08  6.62455128E-05
  8.41299078E-04  2.01686921E-01  1.13336801E-06  1.51911725E-07 -4.20134905E-04
 -1.49228208E-02 -3.57873746E+00  1.05091051E-07  1.07850596E-03 -9.67292741E-01
  7.18816315E-07  2.04828497E-04  2.06483049E-07  1.75516951E-04  1.79908201E-03
 -2.13705208E-02  9.38220096E-01 -3.96865527E+00 -1.52005433E+00  5.94289923E-02
 -1.51820583E-01  3.99506662E-06 -1.43061404E+00  2.85699532E+00 -1.41044878E-04
 -3.10440407E-01  4.02094986E-01 -3.36509050E-05 -1.40092610E-01  2.57129656E-05
 -1.03685476E-05 -3.47064910E-02 -1.39605569E-01  5.87981738E-01 -3.37554636E-05
  8.85674281E-05  6.60565370E-01  9.40592316E-01 -4.24144795E-05 -1.65104255E-01
 -9.27906230E-02  5.17356920E-05 -2.07609256E-05 -1.73805043E-01 -9.07081666E-02
 -1.79458874E-03  2.13182116E-02 -9.35913610E-01  3.95888361E+00  1.51631654E+00
 -5.93841381E-02 -1.51447471E-01 -3.98106152E-06  1.43130030E+00  2.84797444E+00
  1.40664907E-04  3.11076926E-01  4.00136883E-01  3.35801291E-05  1.39747593E-01
 -2.58043598E-05 -1.02215987E-05  3.37112383E-02 -1.39599089E-01 -5.86535453E-01
  3.37350441E-05  8.83284582E-05 -6.55965847E-01  9.40464544E-01  4.23921472E-05
  1.66127791E-01 -9.38340189E-02 -5.22123664E-05 -2.07600725E-05  1.72819574E-01
 -9.24437682E-02 -4.38181517E-06  5.27655624E-05 -2.30970365E-03  9.75961587E-03
  3.74053744E-03  3.47934336E-04 -4.87578474E-02  1.40714152E-09 -7.46509806E-03
  3.74135865E-01  1.11198029E-07 -1.37823626E-03 -1.37057759E-01  4.12163141E-08
  3.44643219E-04  5.13400254E-08  2.80282099E-05 -5.03613351E-04 -8.02362323E-02
 -1.44685788E-03 -4.95826464E-08  1.92644143E-05  2.41032706E-03 -1.99818316E-01
  8.34651388E-08 -3.91955839E-04 -3.79726094E-01 -1.59734044E-07 -9.20898530E-05
  9.87469501E-04  1.83208575E-01  1.89056337E-12  7.78037260E-12 -2.54867294E-10
  8.05833055E-10  1.79854383E-10  9.44323158E-10  1.85127921E-07 -7.34574517E-11
 -7.47789519E-09 -1.46360513E-06 -1.47860494E-08 -1.60770548E-09 -3.05779413E-07
  3.00039526E-09 -2.59138484E-11 -1.28428477E-06 -2.17520074E-04  9.10286642E-11
 -3.17321373E-08 -1.40864850E-10  1.43477238E-06  2.38202070E-04 -1.68942150E-09
  8.18654107E-07 -7.16267134E-09  1.11028409E-09  2.10347209E-07  3.68644569E-07
 -1.35622037E-04  5.84048443E-09  1.88290793E-06 -4.47557345E-11  5.92521771E-09
 -2.28285669E-07  9.43147689E-07  4.05971967E-07  2.26725871E-06  1.35711526E-06
  1.86485797E-05 -1.98089627E-06 -2.03346093E-06 -9.16767806E-05 -3.86854661E-07
 -3.74623134E-07 -1.58467240E-05  9.83605688E-07  2.65502137E-02  1.53044780E-02
 -1.06872496E-05  5.60068853E-06 -6.19756164E-07 -1.31527372E-02 -7.48636008E-03
  2.72651682E-06 -1.58728286E-06  9.87509835E-05  6.09617437E-05  1.62309110E-05
  4.98992101E-01 -2.89457625E-01 -1.24440350E-05  6.26690812E-05  4.59022246E-11
 -5.95426119E-09  2.29479914E-07 -9.48006621E-07 -4.08214037E-07 -2.26433459E-06
  1.36190676E-06 -1.87414212E-05  1.97429800E-06 -2.04073759E-06  9.21840812E-05
  3.85999503E-07 -3.76221802E-07  1.59432839E-05 -9.83766203E-07 -2.65190224E-02
  1.53585484E-02  1.07097992E-05  5.55724299E-06  6.20567798E-07  1.31376380E-02
 -7.51270606E-03 -2.73245256E-06 -1.57756245E-06 -9.90982077E-05 -6.09277339E-05
  1.63545443E-05 -5.00167670E-01 -2.87423492E-01  1.28264429E-05  6.25918134E-05
 -1.89792784E-12  2.16678249E-11 -9.78039088E-10  4.17456676E-09  1.87783777E-09
 -2.49398206E-09 -2.62913263E-06  8.53685068E-08 -7.68121915E-10  2.62003179E-06
 -4.99450651E-07  9.51382195E-13  5.91204735E-07 -9.10243669E-08  1.44001311E-10
 -3.12229003E-05 -3.06368865E-02 -2.27083245E-08 -1.10763630E-05 -6.44249475E-10
  1.58593553E-05  1.51218299E-02  6.80720363E-09  2.73880970E-06  6.33729445E-07
 -3.29076458E-08 -3.23462589E-05  1.17599893E-03  5.77069093E-01  1.24399774E-07
  4.06328373E-05  2.62694887E-02  1.02543177E-01 -3.26921159E+00  1.03049891E+01
  2.16832289E+00  2.85775863E-04  1.10218198E-08  3.23640988E-05 -6.72990283E-03
  1.92459822E-05 -3.37196507E-04 -3.89781911E-04  1.28642703E-06 -7.03291856E-05
  1.09694063E-01 -3.91859413E-06  3.91525702E-09 -5.31485829E-04 -1.20141679E-06
 -2.32992246E+00  8.38983055E-05 -8.60802887E-08 -2.10313107E-03  1.45036689E-06
  9.96911781E-05  8.20613019E-04 -2.15461393E-06  3.49877306E-05 -7.10523657E-08
  1.37527734E+00 -4.20148467E-03 -1.81996748E-04 -2.39162401E-02  8.75096880E-01
 -2.87364997E+00 -1.51055246E+00  8.10676996E-02 -1.40843788E-01  1.05518149E-05
 -1.23038710E+00  2.13621966E+00 -1.48945559E-04 -3.03241953E-01  5.26364913E-01
 -2.83559567E-05 -8.73972881E-02  5.93643024E-06 -1.39799000E-05 -1.27092533E-01
 -2.19139414E-01  6.25456786E-01 -6.21507591E-05  1.03358703E-04  4.80477273E-01
  8.28277331E-01 -2.30495876E-05 -3.09785726E-02  5.39834520E-02  1.33865671E-05
  2.31243506E-05 -8.05955243E-02  2.29281609E-04 -1.82033106E-04 -2.39163703E-02
  8.75095153E-01 -2.87363433E+00 -1.51054581E+00  8.13544584E-02  1.40678956E-01
  1.05518675E-05 -1.23472864E+00 -2.13369988E+00 -1.48944892E-04 -3.04311980E-01
 -5.25744076E-01 -2.83558114E-05 -8.73974621E-02  5.96485184E-06  1.39677210E-05
 -1.26198669E-01  2.19654831E-01  6.25454758E-01 -6.23608937E-05 -1.03231550E-04
  4.77098482E-01 -8.30224224E-01 -2.30502212E-05 -3.10886575E-02 -5.39211426E-02
  1.32924447E-05 -2.31790495E-05 -8.05958242E-02  2.63131843E-04 -1.86995051E-04
 -2.39132000E-02  8.73742629E-01 -2.86627814E+00 -1.50836208E+00 -1.62486095E-01
  1.65655734E-04  5.50228022E-06  2.45977914E+00 -2.50585850E-03 -7.21441882E-05
  6.06623106E-01 -6.17872182E-04 -9.44617400E-06 -8.72849257E-02 -2.45807130E-06
  2.52685101E-09  2.53124238E-01 -5.15652745E-04  6.24465405E-01  5.70195341E-05
 -5.80698698E-08 -9.55802312E-01  1.94749332E-03 -1.80171411E-05  6.22970065E-02
 -6.38682535E-05 -3.26795023E-05  6.64260393E-08 -8.06961429E-02  2.46454926E-04
  3.05312017E-09  1.11185233E-08 -3.23236354E-07  1.00488698E-06  1.94119178E-07
  2.20332967E-06  3.26056466E-04  4.09542672E-11 -1.76348245E-05 -2.63522011E-03
 -3.73778957E-10 -2.77025205E-06 -3.60735183E-04 -5.06677423E-11  1.74150701E-08
  6.47272090E-09  7.94120949E-07  5.53594235E-07 -1.72296793E-04 -2.29950879E-07
 -6.72262315E-09 -7.48967235E-07 -6.27334034E-06  1.79139056E-03  1.32273500E-10
  3.29561123E-06  5.11380943E-04 -1.50932158E-09  2.29475335E-07 -6.66742706E-07
 -2.58281483E-04 -3.94500268E-06  2.69984074E-08 -3.61925872E-04  1.80442147E-03
  5.27714989E-04 -1.15422465E-03 -6.40501451E-04 -8.33384754E-08 -1.77459055E-03
 -2.62097916E-03  3.57598626E-07  1.34468679E-02  7.53682571E-03  2.75340423E-07
  1.02059896E-04  1.66093410E-06  6.68650859E-07  1.78622846E-02 -1.02686102E-02
 -2.64875480E-04 -1.49626452E-08 -3.66396748E-07 -1.34079516E-03  1.90344981E-04
 -1.90354219E-05 -4.86703029E-01 -2.80402259E-01  4.68300854E-05 -9.87805225E-06
  4.12742194E-04  1.33188161E-01  3.96579640E-06 -4.52768914E-08  3.64523299E-04
 -1.81664142E-03 -5.31946192E-04  1.15341390E-03 -6.42833717E-04  8.38372579E-08
  1.76240343E-03 -2.63173380E-03 -3.60900198E-07 -1.34318189E-02  7.56272428E-03
 -2.75306445E-07 -1.02667452E-04 -1.65673766E-06  6.71513876E-07 -1.79048789E-02
 -1.01956511E-02  2.66722176E-04  1.29391898E-08 -3.68790091E-07  1.34222036E-03
  1.81212646E-04  1.89886588E-05  4.86129380E-01 -2.81392065E-01 -4.68457989E-05
 -9.71068923E-06  4.00581283E-04  1.33185961E-01 -2.17902430E-08  8.32370053E-09
 -2.32235225E-06  1.13497842E-05  3.82392716E-06  1.61633143E-06  1.38676728E-03
 -4.94325426E-10 -6.37264104E-06  2.46820284E-03  2.94943877E-09 -1.69189327E-05
 -1.53624337E-02 -5.71462229E-11  5.82425861E-07  4.10498230E-11 -8.10026997E-07
  4.17229875E-05  2.07184737E-02 -1.66735860E-06 -2.25911166E-09  1.67364399E-07
  1.09935257E-06 -1.04762037E-03  4.73511136E-08  5.71594035E-04  5.61318814E-01
  7.74578358E-08  2.18185527E-05  4.06116311E-04  1.32805159E-01  9.61698556E-11
  5.05623879E-10 -1.90531946E-08  6.19546531E-08  1.47705099E-08  1.23215884E-08
 -2.17479159E-05 -2.14045749E-07 -9.60390522E-08  1.69633670E-04 -4.01738885E-06
 -4.06630126E-08  7.17535787E-05  7.04201191E-07 -3.68592280E-09 -4.51577677E-05
  7.99240452E-02 -4.34137388E-09 -2.64580667E-06 -8.30710193E-09  5.19920068E-05
 -9.20149806E-02 -3.02876069E-07 -8.19747245E-05 -3.03766810E-06  1.55063113E-08
 -2.12595852E-05  1.15711637E-04  3.19592633E-02  3.40838287E-09 -8.06273138E-07
  1.61136677E-07 -2.53484350E-07  2.24411664E-05 -9.77691615E-05 -7.86862832E-05
  3.44165799E-06 -3.83248973E-06 -5.95335754E-03 -4.44493323E-05  7.76879211E-05
  3.36660867E-02 -1.79221491E-05  1.67321171E-05 -1.19970766E-03 -4.84497089E-06
  5.22401397E-03  1.45118370E-02 -5.90455260E-06 -2.86013776E-06  1.94683363E-05
  1.46363189E-02 -2.38669054E-02  1.64303189E-05  2.82920953E-05  5.75880146E-01
 -6.25641535E-05  1.37278182E-05 -1.67610856E-01 -3.68160339E-01  2.23310848E-05
  1.17693956E-05 -1.60960864E-07  2.52413565E-07 -2.23877135E-05  9.75544788E-05
  7.85229769E-05 -3.44749141E-06 -3.81208167E-06  5.94182668E-03  4.45049894E-05
  7.74316354E-05 -3.36047261E-02  1.79645122E-05  1.66325302E-05  1.19944423E-03
  4.83353113E-06 -5.25633663E-03  1.45445295E-02  5.90555797E-06 -2.86556291E-06
 -1.94258180E-05 -1.46636117E-02 -2.37918148E-02 -1.62828545E-05  2.82954993E-05
 -5.74770179E-01  6.25615128E-05  1.35128197E-05  1.65521557E-01 -3.68254892E-01
 -2.22071816E-05  1.19115737E-05 -3.52752357E-10  1.62741816E-10 -3.48242943E-08
  1.60749064E-07  1.34138687E-07  9.13747741E-09  1.88855435E-06  1.05514992E-05
 -1.44498263E-07  1.66064922E-06 -6.15755590E-05 -5.34265667E-08 -1.39799957E-05
  3.14447977E-06  8.41086443E-09  2.67618979E-06  2.35897173E-02  4.81584241E-09
  6.38157535E-06 -2.91940974E-08  5.33523077E-05  1.53978868E-03  5.05835621E-08
 -1.06097911E-06 -1.02213064E-03 -7.80173413E-08 -4.18160168E-05 -8.64878965E-04
 -7.98670503E-02 -3.44099491E-08 -6.91776422E-06 -2.95373310E-08 -1.43913443E-07
  5.22429081E-06 -1.68690114E-05 -3.95577800E-06 -2.16476044E-05 -1.22320593E-08
  4.87479110E-05  1.68600858E-04  9.52594237E-08  8.94321983E-04  7.15881428E-05
  4.03761278E-08 -1.47770626E-04  2.63511944E-06  7.97836591E-02  4.50954083E-05
 -6.41752619E-07 -2.88337775E-09  4.17532365E-07 -9.18061635E-02 -5.18713980E-05
  8.51976354E-05 -3.02494493E-07  6.78680631E-04 -2.32353371E-05 -9.79984785E-09
 -3.18453340E-02  1.15289384E-04 -1.19654934E-06  2.39219477E-09 -7.88723843E-08
  2.19949243E-07 -1.44745891E-05  6.07029597E-05  4.77332297E-05 -2.72850743E-07
  3.66534078E-06  3.49273946E-03  2.91584730E-05 -4.70955219E-05 -1.93016871E-02
 -3.39073414E-06 -1.86387102E-05  4.77233541E-04  3.63421635E-06  2.02126979E-02
  5.85536075E-03 -4.14000413E-06  5.70360879E-06 -1.20608245E-05 -6.78643176E-03
  1.44495910E-02 -9.16620763E-06 -1.80884148E-05 -3.37789460E-01  8.42441437E-06
 -2.73322452E-05  1.79589222E-01  1.71982674E-01 -1.53216971E-05  2.28262843E-06
 -7.93813802E-08  2.20741758E-07 -1.45451199E-05  6.10101503E-05  4.79811736E-05
 -2.91356839E-07 -3.67670840E-06  3.51153970E-03  2.93942724E-05  4.72802162E-05
 -1.94079322E-02 -3.29418910E-06  1.86969991E-05  4.81079830E-04  3.64948507E-06
  2.01842227E-02 -5.85053586E-03 -4.14203511E-06 -5.69429485E-06 -1.21220845E-05
 -6.86220815E-03 -1.45109417E-02 -9.14389402E-06  1.82147266E-05 -3.39611801E-01
  8.60935279E-06  2.73979175E-05  1.79413347E-01 -1.73879621E-01 -1.54059399E-05
 -2.17023300E-06  1.97955100E-07 -2.16731388E-07  2.40853623E-05 -1.07138940E-04
 -8.78428665E-05 -5.16049349E-06  8.15820433E-09 -6.78586016E-03  9.72285295E-05
 -9.66490893E-08  3.87627929E-02  2.59702863E-05 -4.74445270E-08 -1.61649270E-03
 -5.30818675E-06  1.21862526E-02  2.49543138E-05  5.38873600E-06 -2.32247199E-09
  1.95874951E-05 -3.23460922E-02  3.53582302E-05 -3.50257817E-05  6.97749895E-08
  6.57658976E-01  2.29424038E-05 -1.29064616E-07  4.56980851E-01 -1.05756283E-03
  8.84871907E-06 -4.74141733E-08  1.37317487E-06  6.94498760E-06 -2.53826533E-04
  8.16585806E-04  1.98774801E-04 -2.61514337E-07  1.27550954E-09 -3.50333063E-03
  3.30799273E-06 -1.02211156E-08 -4.83707316E-02  1.02659435E-06 -4.45201609E-09
  7.39882276E-03  1.26957393E-05  1.42748296E-03 -5.57332282E-06 -4.92343017E-08
  9.24755098E-11 -1.80664438E-04 -1.66528546E-03  6.49313692E-06  1.25589007E-06
  8.82214384E-10 -3.96630141E-02  1.69373248E-06 -8.94207545E-10 -5.72521837E-04
 -5.10464632E-07  9.56801235E-05 -2.92263968E-07 -7.52565074E-07 -3.93035697E-06
  8.15527312E-05 -2.35138935E-04 -1.29321081E-04  1.10584446E-05 -1.90060837E-05
 -3.91310698E-03 -1.01737982E-04  1.76762385E-04 -2.42280837E-03 -2.54873765E-05
  4.33571913E-05  1.29592317E-02  4.36249808E-07  2.05613612E-02 -3.49908403E-02
 -5.62446834E-06 -8.01869741E-06  4.70255279E-05 -4.58606790E-03  8.01506262E-03
  3.64788018E-05  6.25289612E-05  3.80657102E-01 -3.84329659E-05  8.20823528E-06
 -2.11010219E-01 -3.66217678E-01  2.82996761E-05  9.35940796E-06 -7.52552016E-07
 -3.93038502E-06  8.15546009E-05 -2.35146538E-04 -1.29328125E-04  1.10974619E-05
  1.89839141E-05 -3.91368235E-03 -1.02101406E-04 -1.76561176E-04 -2.41938399E-03
 -2.55772198E-05 -4.33066478E-05  1.29592008E-02  4.35800291E-07  2.06330616E-02
  3.49474389E-02 -5.59226144E-06  8.04175384E-06  4.70271948E-05 -4.60083297E-03
 -8.00321252E-03  3.62251939E-05 -6.26793932E-05  3.80713499E-01 -3.84574967E-05
 -8.13026563E-06 -2.09533053E-01  3.67110699E-01  2.82442691E-05 -9.53392107E-06
 -7.48152314E-07 -3.93654816E-06  8.20873221E-05 -2.37373638E-04 -1.31445274E-04
 -2.20035945E-05  2.23188682E-08 -4.08998400E-03  2.06155156E-04 -2.10045659E-07
 -1.38757533E-03  5.05097076E-05 -5.07303835E-08  1.29446623E-02 -1.88341105E-06
 -4.02803791E-02  3.98793742E-05  1.11339401E-05 -2.30631488E-08  4.79658428E-05
  8.35580015E-03 -8.60732213E-06 -7.34627444E-05  1.49708366E-07  3.97702129E-01
  1.87037501E-05 -1.79610089E-08  4.34677866E-01 -8.81666192E-04  1.24600227E-05
 -3.78776171E-08  1.28534479E-05  3.40824427E-05  1.67328093E-05 -1.57568883E-03
 -2.51090489E-05 -2.73129026E-01 -1.47229477E-03 -5.65396727E-06  2.16926527E+00
  1.17061516E-02  4.50343653E-05  7.71799747E-02  4.16451334E-04  1.60061243E-06
  1.68847405E-04 -2.04743052E-05 -6.82947005E-08 -1.58156397E-01  1.33479975E-03
  1.84242755E-04 -6.21209960E-05 -7.39927513E-07  1.52255501E+00 -1.28634990E-02
 -2.19351026E-05 -4.31545924E-01 -2.32701723E-03 -3.33844078E-05  4.63509699E-07
 -1.79023153E-04  1.38321396E-06 -1.55088953E-03  1.07013184E-03 -1.84819394E-01
  9.07797867E-01  1.17885628E-01 -3.74347912E-02 -1.59888486E-02 -1.61333515E-06
  5.00666060E-01 -4.66205768E-01  4.33004694E-05  3.66673944E-02 -3.39931830E-02
  6.85044581E-07  5.27001705E-02  1.06853592E-05  1.93337862E-05  9.14221674E-02
 -3.53172381E-03 -1.24990426E-01  2.25282630E-05 -2.27026693E-05 -2.65429035E-02
 -2.62820647E-01  2.68273028E-05  5.18601976E-01  2.82742585E-01  2.10830639E-05
 -1.47353122E-05  1.37715989E-02 -2.91967950E-01 -1.58556653E-03  1.09462594E-03
 -1.88972976E-01  9.28186721E-01  1.20532693E-01 -3.71997041E-02  1.58204506E-02
 -1.62806217E-06  5.07687783E-01  4.78638737E-01  4.41652777E-05  3.71788754E-02
  3.49009598E-02  6.92499000E-07  5.38830558E-02  1.03528795E-05 -1.95318249E-05
  9.13974393E-02  2.02977640E-03 -1.27797100E-01  2.28294730E-05  2.32438557E-05
 -2.88606453E-02  2.67212704E-01  2.66558510E-05  5.14420558E-01 -2.81349367E-01
  2.12973019E-05  1.39975972E-05  1.58752111E-02  2.89727445E-01  3.12050972E-03
 -2.21794112E-03  3.74007862E-01 -1.83471682E+00 -2.38069975E-01 -9.98327970E-03
 -2.87560834E-04  1.49841219E-06  1.32167429E+00  1.35488488E-04 -3.91122100E-05
  9.63907806E-02  1.09923624E-05  2.16344502E-06 -1.06538907E-01 -1.75866070E-05
  1.45113003E-07  8.65579148E-02 -7.71903192E-04  2.52657328E-01  2.97974204E-05
  8.25807194E-09 -4.86516061E-01  1.88554877E-04  3.87065995E-07  2.83629541E-02
  4.32747328E-03  4.00229859E-05 -4.03306459E-07 -2.96572432E-02  2.24340754E-03
 -1.13283933E-07 -2.80595673E-07 -1.91049997E-06  2.09483208E-05  1.01867329E-06
  1.47221146E-03 -2.73239489E-01  3.62236431E-08 -1.16951623E-02  2.17293973E+00
 -2.89127784E-07 -4.15696191E-04  7.72366282E-02 -1.02694178E-08 -1.64605124E-06
  1.17050664E-07 -1.39154894E-05  1.33526095E-03  1.58038789E-01 -2.97785692E-06
  2.70608296E-07 -1.25406184E-04 -1.28639058E-02 -1.52412740E+00  1.40698613E-07
  2.32613829E-03 -4.31875143E-01  3.39838582E-07  6.17515281E-05  2.62423581E-06
  1.02576712E-04  2.71513507E-03 -1.92334725E-03  3.25483460E-01 -1.59776620E+00
 -2.07397424E-01 -1.55850966E-02 -1.89656170E-02  1.16146553E-06 -4.75329702E-01
  1.05432010E+00 -6.78012991E-05 -3.46098874E-02  7.69971588E-02 -5.88384036E-07
 -9.26681476E-02  2.27737465E-05 -1.39291625E-05  2.03855148E-03 -8.81221398E-02
  2.19916822E-01 -1.99621921E-05  4.60202944E-05  2.66039811E-01  3.35230946E-01
  1.32312149E-05  2.78532869E-01  1.88823088E-01 -1.23830939E-05 -5.07222320E-05
 -2.60391050E-02 -1.65879818E-01 -2.69502107E-03  1.90949729E-03 -3.23086391E-01
  1.58598887E+00  2.05867274E-01  1.60243932E-02 -1.92016868E-02 -1.14069168E-06
  4.71004034E-01  1.04729447E+00  6.72402594E-05  3.42922311E-02  7.64846315E-02
  5.79475676E-07  9.19848769E-02 -2.29366027E-05 -1.36335583E-05 -3.56898246E-03
 -8.81461607E-02 -2.18295449E-01  1.97647219E-05  4.56851255E-05 -2.64322890E-01
  3.32912294E-01 -1.35738104E-05 -2.84762963E-01  1.93011380E-01  1.19045609E-05
 -5.09559618E-05  2.48244919E-02 -1.69762274E-01 -1.99754863E-05  1.42851188E-05
 -2.39749361E-03  1.17596548E-02  1.52504156E-03  1.68984524E-05 -4.64663287E-02
 -9.62215886E-09 -8.23554933E-03  2.31270516E-01  2.50689760E-07 -6.00100552E-04
  1.70565260E-02 -1.38754170E-08  6.82759860E-04  1.32884180E-07  1.98548460E-05
 -7.43776089E-04 -9.29538221E-02 -1.61920034E-03 -1.84815725E-07  6.02856336E-06
  2.86285795E-03 -1.25273343E-01 -2.66798396E-09  5.10164712E-04  6.79647759E-01
 -3.58788940E-07 -5.02045275E-05  1.21603872E-03  3.35895140E-01 -1.07428840E-07
 -2.53568155E-07 -4.63883274E-06  3.17068813E-05  5.35230269E-07  5.56824014E-04
 -4.14079217E-01  2.19998416E-08 -5.70362721E-03  4.24246020E+00 -2.12185217E-07
  3.79804075E-04 -2.82258037E-01  1.48279772E-08 -9.44570380E-07 -9.86449491E-07
  7.84504126E-04  1.76365726E-03  4.00750924E-01 -5.18556543E-06 -1.60213595E-06
  1.02186878E-03 -1.22799054E-02 -2.79108247E+00  3.74683003E-08  3.84214031E-04
 -2.85895699E-01  4.92726712E-06  1.13912522E-03  3.31914823E-06  2.23848524E-04
 -1.12051412E-02 -4.96161320E-02  9.28370237E-01 -3.40434168E+00  8.98908160E-02
  6.96106850E-02 -1.55866763E-01  2.77538443E-04 -9.97284451E-01  2.08944326E+00
 -6.87750027E-04  3.62784043E-02  2.21702622E-02 -1.48531762E-05 -1.81916501E-01
 -8.69535506E-04  7.27122023E-04  3.07682416E-02  7.58586733E-02  3.74987234E-01
  7.78330193E-06 -2.54961642E-05  4.72437604E-01  5.58286837E-01  9.60938444E-04
 -2.17951881E-01  4.02434846E-01 -1.19312069E-03  1.80787398E-03  4.08245134E-01
  1.18786395E-01  1.11745765E-02  4.94807811E-02 -9.25836256E-01  3.39504442E+00
 -8.96484364E-02 -6.95712085E-02 -1.55395989E-01 -2.76789827E-04  9.97107384E-01
  2.08268876E+00  6.85863764E-04 -3.65375026E-02  2.24150313E-02  1.48050823E-05
  1.81420523E-01  8.72382623E-04  7.21262181E-04 -3.02681796E-02  7.58386331E-02
 -3.73963058E-01 -7.76134640E-06 -2.54740279E-05 -4.70097113E-01  5.57975505E-01
 -9.58373598E-04  2.18061132E-01  4.00961251E-01  1.21555027E-03  1.80870727E-03
 -4.06396983E-01  1.22260689E-01  3.05325666E-05  1.35172623E-04 -2.52786553E-03
  9.26471477E-03 -2.47075406E-04  4.26807664E-04 -3.51862443E-02 -7.31653640E-07
 -5.91659202E-03  3.58995946E-01  1.66434117E-06  8.49073463E-05  8.52522022E-02
  4.14136811E-08  4.95604025E-04 -3.68517303E-06 -7.97326540E-04  2.67598695E-04
  2.27916183E-02 -1.02053152E-03  1.51981438E-07 -2.24932808E-05  1.43397531E-03
 -2.58097295E-01 -2.67085765E-06 -1.22264787E-03  2.42011535E-02  1.06024405E-05
  3.92627127E-03 -1.84782877E-03 -2.40901230E-01  2.31845578E-05  5.86952736E-05
  3.59187974E-04 -4.12181133E-03  1.76543402E-04 -4.14072725E-01 -5.57173172E-04
 -8.89327321E-06  4.23866506E+00  5.70484985E-03  8.87078458E-05 -2.81283948E-01
 -3.78350377E-04 -6.09024510E-06  2.00550915E-04  7.67497980E-04  1.10291112E-06
 -4.01256535E-01  1.76533563E-03  5.68340167E-04  1.13721958E-03  1.30452365E-06
  2.79081668E+00 -1.22814712E-02 -1.51955627E-05 -2.85614295E-01 -3.84612329E-04
 -1.11840710E-03  5.00853305E-06 -2.80918134E-04  1.92639701E-06  6.43262259E-03
  2.84849699E-02 -5.33058809E-01  1.95468324E+00 -5.11678018E-02 -7.52165823E-02
  6.91999167E-02 -1.59939969E-04  9.31934096E-01 -9.92832846E-01  4.02085983E-04
  6.42925177E-02  3.61586878E-02  1.03991915E-05  1.04481927E-01 -2.98349166E-04
 -8.75918401E-04 -4.02935393E-02 -3.04392215E-02 -2.15353285E-01 -1.62638093E-05
  1.58416019E-06 -1.35421040E-02 -4.70063157E-01 -5.49704235E-04  1.49242166E-01
 -2.17157728E-01 -3.23573814E-03  1.24215354E-03 -2.33629755E-01  2.09172586E-01
  6.48547673E-03  2.87190531E-02 -5.37439491E-01  1.97074525E+00 -5.15885069E-02
 -7.56867399E-02 -6.97818493E-02 -1.61269620E-04  9.38674170E-01  1.00078625E+00
  4.05373696E-04  6.40474417E-02 -3.61835373E-02  1.04715699E-05  1.05341010E-01
 -2.92375238E-04  8.79996385E-04 -4.03129234E-02  3.09616446E-02 -2.17123068E-01
 -1.63059508E-05 -1.67798030E-06 -1.38501635E-02  4.72756078E-01 -5.54318853E-04
  1.50716784E-01  2.18751374E-01 -3.23496882E-03 -1.22028688E-03 -2.36827197E-01
 -2.07166766E-01 -1.29114723E-02 -5.71774227E-02  1.06974162E+00 -3.92100305E+00
  1.03039127E-01 -1.95754028E-01  1.15908127E-04  3.14073119E-04  2.65911755E+00
 -1.85880954E-03 -7.13731357E-04  1.28673613E-03  1.99679251E-04 -1.80583788E-05
 -2.09820322E-01  1.23433233E-03 -3.17333842E-06 -9.34546916E-02  2.43613648E-04
  4.32080823E-01 -7.57177102E-05  2.28545718E-08 -8.29578904E-01  1.07953851E-03
  1.14766079E-03  5.27760775E-01 -4.80326888E-04 -1.11946155E-03  1.17047730E-05
  4.70441307E-01 -2.00581935E-03  3.98116527E-10  9.05280900E-10  2.22796238E-08
 -1.38975911E-07 -4.14085867E-09  1.07789981E-07  2.20356852E-03  2.39906150E-07
 -1.08443255E-06 -2.26332542E-02 -4.12497001E-07  6.52634358E-08  1.54924804E-03
  1.16856502E-07 -1.88324842E-09  1.31798832E-06  1.46702343E-01 -6.40721767E-06
 -2.13389868E-03  1.55033960E-08  2.18747319E-06  2.23958419E-01  4.45496992E-05
  1.48169761E-02  3.93396938E-07  8.58136436E-08  1.43096474E-03  5.98692561E-04
  1.96511486E-01 -3.57449449E-08 -6.17783249E-06  6.27793791E-05  2.73404297E-04
 -5.00803016E-03  1.82051178E-02 -5.57246969E-04 -3.93105483E-04  8.54871504E-04
  4.76677434E-02  5.34098718E-03 -1.11438948E-02 -9.94765640E-02 -2.11673094E-04
 -9.16561128E-05 -4.07508150E-03  9.48420879E-04 -1.65083037E-01  1.31081248E-01
 -1.68230749E-04 -4.60481627E-04 -1.98633631E-03  7.25327694E-03 -1.82986125E-02
 -2.50177446E-03 -2.95701946E-03  1.87222516E-01  1.13560819E-03 -2.14491076E-03
 -2.24938815E-01  3.34810911E-01 -2.21156344E-03 -6.94349139E-04 -6.27087904E-05
 -2.73097046E-04  5.00240077E-03 -1.81846336E-02  5.56626624E-04  3.94065661E-04
  8.53304506E-04 -4.76122222E-02 -5.35400655E-03 -1.11225740E-02  9.93608365E-02
  2.12143138E-04 -9.24960531E-05  4.07036326E-03 -9.47348491E-04  1.65470361E-01
  1.30411063E-01  1.65841873E-04 -4.60826009E-04  1.98410281E-03 -7.27037143E-03
 -1.82688371E-02  2.48955625E-03 -2.96233060E-03 -1.87005093E-01 -1.13834916E-03
 -2.14034657E-03  2.27503627E-01  3.34346462E-01  2.20476128E-03 -7.10192657E-04
 -7.04410169E-08 -3.06405754E-07  5.60160632E-06 -2.03423555E-05  6.43128933E-07
 -8.70212832E-07  1.74579718E-04 -5.55191980E-05  1.18520687E-05 -1.87536269E-03
  1.15883102E-04 -5.04076670E-07 -4.58706345E-04  4.71253212E-06 -1.07440915E-06
 -3.86504523E-04 -1.55425191E-01 -8.61243479E-07 -1.58375390E-04  2.21854228E-06
  1.68067221E-05 -5.68891949E-03 -1.48428531E-06  1.36225788E-03 -2.18272841E-04
  2.61953328E-06 -1.31722491E-04  1.68504837E-03  7.26134538E-01  6.65681442E-06
  1.36828370E-03  1.22831915E-07  3.08666213E-07  2.01971557E-06 -2.22541026E-05
  9.17294536E-07 -2.20090260E-03 -6.29109698E-08  5.76899047E-05  2.25863458E-02
  6.24571410E-07 -1.21934530E-04 -1.54208635E-03 -3.46214707E-08  4.60563856E-05
 -4.22361199E-06 -1.46797459E-01  1.35817671E-06 -2.12794307E-03  6.56927553E-06
 -4.93132173E-06 -2.24131547E-01  1.89993498E-06  1.48072782E-02 -4.56506117E-05
  1.25295922E-04 -1.41478496E-03 -5.69498448E-08  1.96378122E-01 -5.97991612E-04
 -6.45456119E-06  2.88583552E-08  3.61136177E-05  1.57277208E-04 -2.88115620E-03
  1.04730571E-02 -3.18128038E-04 -4.01012007E-04  3.91165529E-04  2.74619836E-02
  4.94895676E-03 -5.33061024E-03 -5.73194651E-02  3.36051259E-04  2.10209431E-04
 -2.36662242E-03  5.51302563E-04  6.04029353E-02  1.65132087E-01 -2.60627118E-04
 -1.73697227E-04 -1.14272650E-03  9.88267499E-03 -7.25382651E-03 -7.96866553E-05
 -2.48991619E-03  1.07812773E-01  8.31938513E-04 -1.15825329E-03  5.95390248E-01
 -2.27483314E-01 -1.28619465E-03  1.20756780E-03  3.62443367E-05  1.57847035E-04
 -2.89160528E-03  1.05110423E-02 -3.19266534E-04 -4.02629026E-04 -3.92130404E-04
  2.75581710E-02  4.97098267E-03  5.34376728E-03 -5.75203344E-02  3.35184781E-04
 -2.10695919E-04 -2.37493658E-03  5.53287277E-04  5.97323056E-02 -1.65518317E-01
 -2.60265269E-04  1.75715547E-04 -1.14687538E-03  9.91194308E-03  7.27039040E-03
 -7.47525074E-05  2.49641269E-03  1.08190873E-01  8.36679890E-04  1.16103424E-03
  5.95853964E-01  2.24381042E-01 -1.29815834E-03 -1.19821496E-03 -7.23147913E-05
 -3.14954307E-04  5.76846430E-03 -2.09600518E-02  6.38914499E-04 -1.07803953E-03
  9.13396667E-07 -5.50304472E-02  1.41859246E-02 -1.24813165E-05  1.14902333E-01
 -3.02798223E-05  5.07377183E-07  4.72116935E-03 -1.10843356E-03 -2.26270669E-01
  3.87336817E-04 -5.51031646E-04  1.28328812E-06  2.28898286E-03  2.23662855E-02
 -1.70510798E-05 -4.39266473E-03  7.52188313E-06 -2.16304622E-01  2.83513944E-03
 -2.75007532E-06  2.04412045E-01 -1.14870287E-03  2.54893551E-03 -9.20998483E-06
  4.21550842E-03  3.36340363E-02 -1.17662617E+00  3.57239998E+00  5.47884030E-01
 -1.54106267E-04  3.22579117E-07 -5.24231138E-06  6.44880348E-04  1.15871472E-06
 -2.91370373E-05 -8.33002880E-04  2.26001794E-06 -7.26010076E-05  1.41200702E-03
 -1.74776783E-07  4.10909480E-10 -1.85167010E-04  2.19039272E-07 -1.01073236E+00
  3.63614487E-05 -3.73297840E-08  4.64394640E-04 -2.04595428E-06 -2.56850299E-05
 -2.97299339E-04  5.65280792E-07 -6.23487387E-07  1.41719456E-09 -2.60375075E-02
  7.95462829E-05 -1.56154423E-02 -5.31440615E-02  6.10642948E-01 -1.40202135E+00
 -3.08470040E-01  1.03602260E-01 -1.79749802E-01  2.58886308E-05 -5.10474590E-01
  8.86081804E-01 -9.81636874E-05 -4.48837373E-02  7.82357028E-02  1.46216991E-05
  2.12323281E-01 -3.93418187E-05  5.43125154E-05 -1.09084845E-02 -1.83677526E-02
  1.51530464E-01 -1.85475058E-05  3.09667732E-05  1.14573489E-01  1.97410803E-01
  1.18663724E-04  1.96277568E-01 -3.40328369E-01  1.30475359E-05  6.11591473E-05
 -3.74743444E-01  1.46558201E-03 -1.56154520E-02 -5.31440744E-02  6.10642685E-01
 -1.40201798E+00 -3.08467055E-01  1.03968248E-01  1.79538406E-01  2.58886362E-05
 -5.12277280E-01 -8.85038245E-01 -9.81635874E-05 -4.50423180E-02 -7.81436181E-02
  1.46217245E-05  2.12323414E-01 -3.94523300E-05 -5.42322297E-05 -1.08336630E-02
  1.84114019E-02  1.51530177E-01 -1.86105752E-05 -3.09289861E-05  1.13768232E-01
 -1.97875551E-01  1.18663845E-04  1.96971029E-01  3.39928517E-01  1.27984468E-05
 -6.12120440E-05 -3.74744805E-01  8.23196072E-04 -1.56232370E-02 -5.31696171E-02
  6.11036021E-01 -1.40290541E+00 -3.07248320E-01 -2.07538069E-01  2.11224581E-04
  1.94380216E-05  1.02315356E+00 -1.04164254E-03 -6.63950318E-05  8.99196187E-02
 -9.19025495E-05  1.74379190E-05  2.12375851E-01  5.58689691E-05 -5.68795400E-08
  2.12785041E-02 -4.37981360E-05  1.51647659E-01  2.08925668E-05 -2.12729498E-08
 -2.28544004E-01  4.65484538E-04  8.87092228E-05 -3.93203111E-01  4.00070022E-04
 -5.44203808E-05  1.10893118E-07 -3.74614657E-01  1.14531745E-03 -7.08121241E-08
 -9.87790506E-08 -3.10227371E-06  1.61891246E-05  9.76179073E-07  3.00031056E-05
 -2.23626556E-01  5.09907460E-09 -2.63312380E-04  1.96266040E+00 -4.66033120E-08
  1.20218777E-04 -8.90606720E-01  2.07642797E-08 -9.43269723E-07  2.19426543E-08
 -8.14068493E-05  7.26942780E-04  2.27978069E-01 -3.27077940E-06 -1.52477005E-08
 -7.21780303E-05 -1.67305520E-03 -5.24909360E-01  2.73011880E-08  6.44270645E-05
 -4.78982454E-01  3.73653756E-07  1.28492553E-04  1.60907051E-06  2.22190509E-04
 -4.11949419E-03 -1.73125519E-02  3.73279723E-01 -1.30156889E+00  5.45644334E-01
  6.86664064E-02 -8.22985246E-03 -4.45498871E-06 -5.23024633E-01  6.42049751E-01
 -2.64125189E-05  1.47377050E-01 -5.77735184E-03  1.82007307E-05  9.06622766E-02
  9.17078686E-06 -6.89162148E-05 -2.95488386E-01 -3.86461964E-03  1.48174666E-01
 -1.63867382E-05  3.44053810E-05  1.99759484E-01  2.78692672E-01 -1.73529070E-05
  1.83486065E-01 -1.06080715E-01 -9.73258202E-05 -2.47564507E-05 -1.40456970E-01
  2.74816741E-01  4.11395282E-03  1.72893174E-02 -3.72779805E-01  1.29982629E+00
 -5.44919950E-01 -6.88469665E-02 -7.93058371E-03  4.44404158E-06  5.24242508E-01
  6.39769099E-01  2.63888977E-05 -1.47768833E-01 -5.13751185E-03 -1.81881219E-05
 -9.05398410E-02 -9.19050000E-06 -6.88415135E-05  2.96250004E-01 -4.38703382E-03
 -1.47976568E-01  1.64263535E-05  3.43270509E-05 -1.98509650E-01  2.79042783E-01
  1.73063657E-05 -1.83945784E-01 -1.05281209E-01  9.73806396E-05 -2.49374979E-05
  1.41948146E-01  2.75052978E-01  5.44467411E-06  2.29035877E-05 -4.94495916E-04
  1.72479840E-03 -7.27383597E-04  1.67615347E-04  1.11016944E-01  9.11396513E-09
 -1.35340899E-03 -2.66001703E-01 -2.40203615E-09  3.59785039E-04  2.50025855E-01
 -1.77999516E-08 -1.20068810E-04  6.58070260E-08 -2.61249685E-05  8.33757459E-04
  5.08395803E-01 -1.96370368E-04 -2.55685775E-08  8.76345326E-07  3.18267867E-04
 -6.60024024E-02  4.85544882E-08  4.59851125E-04  2.12552795E-01  9.22102694E-08
  9.57686913E-05 -1.49375268E-03 -5.50410859E-01  1.67747517E-05  1.52370595E-05
  9.36871976E-04 -4.29708839E-03 -2.53506181E-04 -2.23838462E-01 -3.03680574E-05
 -4.58160154E-06  1.96391720E+00  2.66396082E-04  4.06366120E-05 -8.90820076E-01
 -1.20083831E-04 -1.83219343E-05  2.44965452E-04 -9.08857743E-05 -1.27771140E-09
 -2.28598249E-01  7.29549459E-04  9.04588683E-04 -5.05209005E-05 -3.20041837E-08
  5.26236944E-01 -1.68009645E-03 -2.41354026E-05 -4.78969766E-01 -6.47548537E-05
 -9.73193424E-05  3.46702192E-07 -1.26260403E-04  1.40103149E-06  2.38764774E-03
  1.00251518E-02 -2.15743696E-01  7.51694848E-01 -3.13992000E-01  7.13291557E-02
  6.88631634E-02  4.82500667E-06  3.61348670E-02 -5.24216662E-01  9.86323719E-06
  1.65324934E-01  1.47344282E-01 -5.34747041E-06 -5.24079986E-02 -5.24022002E-05
  2.45689764E-05 -3.37515613E-01  2.96616391E-01 -8.55264017E-02  1.30607055E-05
 -1.93620448E-05 -4.91214939E-02 -1.99211665E-01  2.06528726E-05  1.06807210E-01
  1.83594498E-01 -6.75316900E-05  9.39297636E-05  8.27272691E-02  4.76616705E-01
  2.39716955E-03  1.00651697E-02 -2.16605853E-01  7.54699708E-01 -3.15249439E-01
  7.10299875E-02 -6.90272117E-02  4.83525138E-06  3.84129768E-02  5.25622325E-01
  9.92424436E-06  1.64683716E-01 -1.47692772E-01 -5.38945778E-06 -5.26163312E-02
 -5.24736210E-05 -2.46210543E-05 -3.38038514E-01 -2.95249709E-01 -8.58685973E-02
  1.31380928E-05  1.94146284E-05 -4.87689049E-02  2.00054909E-01  2.06931289E-05
  1.06009634E-01 -1.84054135E-01 -6.76890945E-05 -9.37118304E-05  8.01403869E-02
 -4.76481215E-01 -4.74911535E-03 -1.99695816E-02  4.30660245E-01 -1.50148353E+00
  6.29962484E-01 -4.77557986E-02  1.76644562E-04 -7.82093665E-06  9.42941694E-01
 -1.26681010E-03  1.77890945E-06 -9.08486634E-02  3.80969107E-04  1.55477260E-05
  1.04150575E-01 -7.98635395E-05  5.12510549E-08  1.74867655E-01  2.30368515E-04
  1.71015996E-01  2.30139985E-05 -2.24491713E-08 -3.93872312E-01  7.25938361E-04
 -4.18121245E-05 -2.11112153E-01  4.60243067E-04  8.89982681E-05 -7.06926686E-08
 -1.62579996E-01 -1.38772094E-04 -1.15779275E-06  1.50684073E-07 -6.41953831E-05
  2.36796676E-04  2.64704419E-05 -2.59646307E-06  2.17857858E-09  1.30797006E-01
  1.10533458E-05 -8.22912277E-09 -5.68577251E-01 -6.95636341E-06  3.95970423E-09
  3.70145468E-01 -5.59303359E-06 -1.03465101E-04  8.93078820E-07  1.05706585E-07
  1.82779332E-10  1.12237500E-05 -7.79751830E-04  3.95653536E-06 -1.96707404E-07
 -5.78094195E-10  6.42526011E-01 -3.23483432E-05  3.13227045E-08 -1.62502251E-03
 -3.33493931E-06 -1.90391979E-05  5.83297305E-08 -3.88399105E-07 -1.55336825E-06
  2.72109767E-05 -6.00899510E-05 -2.97229802E-05  8.27324341E-06 -1.15939596E-05
 -7.93589170E-02 -4.16523255E-05  6.28015448E-05  2.70534198E-01 -1.41929874E-06
  7.79192523E-06 -1.56899134E-01  2.04403369E-04  2.25892939E-01 -3.95043838E-01
 -2.87359421E-05 -3.42214815E-05 -6.41006345E-05 -1.01315408E-02  1.88659743E-02
  2.74467445E-05  4.68738187E-05 -3.18956529E-01  5.39385897E-05 -8.16502488E-05
 -1.39611583E-01 -2.39487691E-01  1.45806298E-06  5.83551540E-06 -3.88366999E-07
 -1.55326885E-06  2.72094359E-05 -6.00849205E-05 -2.97279977E-05  8.29668523E-06
  1.15771483E-05 -7.93606700E-02 -4.17787858E-05 -6.27150514E-05  2.70540066E-01
 -1.43636657E-06 -7.78959849E-06 -1.56900403E-01  2.04400694E-04  2.26698114E-01
  3.94597133E-01 -2.85931466E-05  3.43363824E-05 -6.40993777E-05 -1.01684747E-02
 -1.88480964E-02  2.72540849E-05 -4.69838414E-05 -3.18961322E-01  5.41044114E-05
  8.15413296E-05 -1.38641829E-01  2.40060533E-01  1.42385550E-06 -5.84332129E-06
 -3.81753609E-07 -1.53294286E-06  2.68945697E-05 -5.90609503E-05 -3.07032884E-05
 -1.16896231E-05  1.21010791E-08 -7.97285888E-02  6.63350686E-05 -6.80642034E-08
  2.71755192E-01  1.25589145E-05 -1.20173611E-08 -1.57170778E-01  1.79209425E-04
 -4.57732455E-01  4.72322467E-04  5.76168133E-05 -1.15504129E-07 -6.26733241E-05
  2.17699529E-02 -2.48521903E-05 -5.45997496E-05  1.10645750E-07 -3.19918110E-01
 -5.97743600E-05  6.15500308E-08  2.79024669E-01 -5.71215786E-04 -8.89757110E-06
  2.61056174E-08 -6.98055688E-09 -9.52342714E-09  1.76407342E-08  1.38656645E-07
  1.38780693E-07 -1.62875878E-05 -1.55906410E-09  3.93620600E-04  1.03067609E-04
  1.00093445E-08 -1.78521482E-03 -8.10134216E-05 -8.08352116E-09  1.19268642E-03
  9.82962538E-07  2.86074406E-02  2.70349532E-06 -1.21496144E-05  3.69175642E-08
  8.76434676E-06  2.37588825E-01  2.32105951E-05  6.07674029E-05 -2.02415575E-07
  2.03704079E-03 -5.05987477E-05 -2.83126532E-08  3.20684783E-01 -1.01114354E-03
 -8.19253472E-06  3.42416355E-08  2.83712274E-07  9.45083741E-07 -1.54124447E-05
  5.21651330E-05 -3.83750772E-05  1.91815271E-06  1.11892784E-06 -3.23544785E-02
  9.40918968E-06 -1.85566224E-05  1.18393531E-01  9.28047905E-06  1.39114456E-05
 -3.67582108E-02 -4.85923033E-05  6.60812159E-01  7.01165066E-02 -5.52301157E-05
  9.65949726E-05  2.82483198E-05 -2.91592897E-01 -1.04253866E-01  2.21934893E-05
 -5.01192679E-05 -6.72574721E-02  3.06252758E-05 -4.72563122E-06  7.35868704E-03
 -1.41850199E-01  9.97678050E-06  2.69119495E-05  2.84808870E-07  9.48742387E-07
 -1.54721808E-05  5.23669346E-05 -3.85236204E-05  1.91590417E-06 -1.12302883E-06
 -3.24788889E-02  9.47919956E-06  1.86120612E-05  1.18848702E-01  9.22391025E-06
 -1.39471908E-05 -3.68985701E-02 -4.88807227E-05  6.60510341E-01 -7.01732467E-02
 -5.54011613E-05 -9.65567673E-05  2.84076494E-05 -2.91147476E-01  1.04466281E-01
  2.22758565E-05  5.01357902E-05 -6.75144213E-02  3.06372655E-05  4.73420222E-06
  7.62147361E-03  1.42166261E-01  9.85909060E-06 -2.69514089E-05 -5.63663319E-07
 -1.88247601E-06  3.08328465E-05 -1.04285148E-04  7.65363413E-05 -2.07143686E-06
  4.24884849E-09  6.41179155E-02  4.91559020E-05 -4.88702244E-08 -2.34614656E-01
 -1.70194280E-05  3.58386764E-08  7.21043942E-02  1.66264073E-04  5.34752741E-01
  2.37894180E-04  1.17725960E-04 -1.46354227E-07 -8.24124396E-05 -1.10348871E-01
 -2.80040457E-04 -7.26352697E-05  1.04374167E-07  1.31957515E-01  1.19872523E-05
  1.45713045E-08 -2.36015182E-01  3.80913822E-04 -1.40636168E-05  1.53200407E-08
  3.59087445E-11  4.72140139E-11 -9.92854103E-11 -6.47904134E-10 -1.04726397E-09
  1.63574082E-09 -1.62181042E-05 -1.98410067E-06 -1.01387723E-08  1.02640734E-04
  8.89581223E-06  7.78420444E-09 -8.04900289E-05 -6.01316370E-06 -8.91429829E-10
 -2.86711975E-06  2.84838019E-02  3.58685122E-08  1.09387414E-05 -1.07477158E-08
 -2.31824483E-05  2.37584285E-01 -2.11813233E-07 -7.06464082E-05 -1.02189513E-05
 -1.59614176E-08 -7.13445186E-05 -1.00880184E-03 -3.20037214E-01  3.42207458E-08
  8.15525435E-06 -4.86450077E-07 -1.62387640E-06  2.66007664E-05 -9.01341226E-05
  6.60403728E-05 -5.50309187E-08 -6.51741403E-08  5.57287959E-02 -1.42559842E-05
  3.34169666E-05 -2.03989591E-01  1.24651917E-05 -7.51575319E-06  6.29621748E-02
  1.29420756E-04  7.09838660E-02  5.77007840E-01 -9.97238184E-05 -8.38791988E-05
 -7.15417270E-05 -1.04113964E-01 -1.70528197E-01  5.46772423E-05  4.79477780E-05
  1.14902112E-01 -1.15291290E-06  3.17902336E-05  1.41204670E-01  1.54926303E-01
 -2.09093190E-05  9.44585535E-06  4.85807248E-07  1.62174786E-06 -2.65663420E-05
  9.00171309E-05 -6.59539824E-05  5.05913714E-08 -6.29815499E-08 -5.56546475E-02
  1.43030565E-05  3.33472180E-05  2.03718147E-01 -1.25007595E-05 -7.45923385E-06
 -6.28758722E-02 -1.29318098E-04 -7.12898606E-02  5.77299846E-01  9.95058089E-05
 -8.40707936E-05  7.14808967E-05  1.04417787E-01 -1.70973033E-01 -5.45321282E-05
  4.80595425E-05 -1.14744765E-01  1.14838156E-06  3.17755026E-05 -1.40585915E-01
  1.55178705E-01  2.09442178E-05  9.37780077E-06  6.15091881E-10  2.06145711E-09
 -3.40555882E-08  1.15424390E-07 -8.40369326E-08  4.18247807E-09  1.84914445E-06
 -7.05521166E-05 -5.34734496E-08  1.31020639E-06  2.58302022E-04  3.52364587E-08
  1.63900098E-05 -7.84666437E-05 -1.88542268E-07  1.24721646E-04  7.02353098E-01
  3.73309467E-08  8.34246764E-05  9.33841843E-08 -2.36056170E-04 -3.52357516E-01
  2.31283439E-09 -3.90497500E-05 -1.43182337E-04  1.14293221E-08  2.38876394E-05
  7.84305103E-05 -8.89271125E-02 -5.93634720E-08 -2.45062687E-05 -7.84147426E-13
 -1.52248098E-12  3.47759943E-11 -9.82486056E-11  1.41623797E-11 -1.06076289E-10
 -1.98524621E-09  1.17165591E-09  4.31217952E-10 -2.33518377E-08 -9.20188966E-09
 -3.01090608E-10 -4.53788185E-09  1.55703377E-10  7.83621309E-13  3.51320251E-07
  5.29107108E-05 -1.38118235E-10  1.72395111E-09  4.10329811E-11 -2.01343415E-07
 -2.78576116E-04  3.97659210E-10  4.36517659E-08  6.30546907E-09 -7.29108541E-11
  3.58438702E-08  1.17905846E-06  1.56728201E-04  1.74518695E-08  5.71643433E-06
  1.07865531E-11  2.03873690E-10 -5.31022989E-09  1.62475828E-08  9.95431042E-09
  1.85784781E-07  1.06654632E-07 -4.88868659E-05  6.22587357E-07  3.50411345E-07
  1.81497050E-04  1.46125577E-06  8.33612688E-07 -6.76698410E-05 -2.11026114E-05
 -5.84298574E-01 -3.37055842E-01  7.11513687E-06  9.99384502E-06  1.10416538E-05
  3.05606613E-01  1.76171506E-01 -1.38674750E-06 -6.58185998E-06 -4.55953986E-05
  1.59214029E-07 -8.78108718E-07  2.50844191E-02 -1.46747386E-02 -6.51147412E-07
 -4.09380820E-06 -7.24708493E-12 -1.93489689E-10  5.15737041E-09 -1.56964503E-08
 -1.02568503E-08 -1.85554860E-07  1.07013153E-07  4.88068068E-05 -6.21744159E-07
  3.51908442E-07 -1.81188122E-04 -1.45946986E-06  8.36455741E-07  6.76074202E-05
  2.11026142E-05  5.83611444E-01 -3.38244691E-01 -7.07453235E-06  1.00224522E-05
 -1.10416581E-05 -3.05247115E-01  1.76793480E-01  1.35997809E-06 -6.58727415E-06
  4.52392497E-05 -1.60788044E-07 -8.77737353E-07 -2.51435453E-02 -1.45714797E-02
  6.26241343E-07 -4.09795215E-06 -1.31454356E-12 -3.82557650E-12  8.64712091E-11
 -4.01287793E-10  2.77304862E-10 -2.05275339E-10 -2.07942639E-07  8.19220711E-08
 -5.65626216E-10 -7.40578906E-07 -3.05750259E-07 -1.76539624E-09 -1.67183615E-06
  6.65856957E-08  1.17868272E-10  6.86365113E-04  6.73333212E-01 -4.03670188E-08
 -1.99054938E-05 -5.56669924E-11 -3.58584463E-04 -3.52081615E-01  2.65848404E-08
  1.31164771E-05  3.59068060E-07  1.83422844E-09  1.71646117E-06  5.84828039E-05
  2.90039688E-02 -1.59886507E-08 -5.20817862E-06  1.81817576E-02  3.93974851E-02
 -5.80254723E-01  1.24749718E+00 -5.40270947E-01  9.90189538E-05 -1.08275545E-07
  3.76538019E-05 -8.53949205E-04  2.21154090E-06 -1.68017673E-04  5.68410259E-04
 -2.66053320E-06  1.22864960E-04  2.06984678E-01 -1.31325018E-05  4.33537947E-08
  3.79761675E-05 -8.28660410E-07 -5.88443528E-01  2.25999891E-05 -3.03669181E-08
 -8.46575448E-05  1.63847475E-06  1.72641715E-04  1.68385746E-04 -1.10007195E-06
 -1.72387851E-05 -4.03844853E-08 -1.11711195E-01  3.41309522E-04 -8.15340760E-03
 -2.35040598E-02  2.60214765E-01 -6.91463466E-01  2.96331448E-01  2.66237458E-02
 -4.62799607E-02 -1.17881638E-05 -1.62957065E-01  2.83132153E-01  3.52382706E-05
  5.80989324E-02 -1.01112052E-01 -4.15785537E-05 -5.73213558E-01  9.79175780E-05
 -9.87817955E-05  1.40813173E-01  2.42570581E-01  3.85393540E-01 -3.86580758E-05
  2.07328722E-05 -7.60612087E-02 -1.31172010E-01 -5.87887896E-05  3.98225000E-02
 -6.91959203E-02 -4.69441148E-05 -5.24425220E-05 -2.09399582E-01  4.88600648E-04
 -8.15339765E-03 -2.35040170E-02  2.60214240E-01 -6.91462267E-01  2.96328905E-01
  2.67176786E-02  4.62256371E-02 -1.17945535E-05 -1.63532257E-01 -2.82799735E-01
  3.52672224E-05  5.83039596E-02  1.00993609E-01 -4.15834796E-05 -5.73209759E-01
  9.82253668E-05  9.86144423E-05  1.39823352E-01 -2.43139245E-01  3.85390779E-01
 -3.87466135E-05 -2.06328485E-05 -7.55255537E-02  1.31479444E-01 -5.88380951E-05
  3.99623969E-02  6.91133786E-02 -4.68080501E-05  5.26787637E-05 -2.09398030E-01
  7.91089803E-04 -8.14838960E-03 -2.34858145E-02  2.59928459E-01 -6.90368551E-01
  2.95549892E-01 -5.33657053E-02  5.45716649E-05 -1.44972696E-05  3.26162445E-01
 -3.33146253E-04  5.01480826E-05 -1.16470459E-01  1.19308842E-04 -4.60027583E-05
 -5.73122808E-01 -1.25704592E-04  5.16594461E-08 -2.80586366E-01  5.72311313E-04
  3.85205745E-01  2.20088921E-05  2.84599812E-08  1.51772707E-01 -3.09051096E-04
 -7.29824904E-05 -7.97284088E-02  8.13740555E-05  7.77813285E-05 -2.03422087E-07
 -2.09263141E-01  6.38978278E-04  4.39457962E-07  9.47988889E-07 -1.38201126E-05
  2.93670850E-05 -1.30001911E-05 -7.95522031E-05 -2.56757792E-08  7.48317879E-05
  3.93851013E-04  1.27278120E-07 -5.27564476E-04 -2.16681665E-04 -7.09537770E-08
  3.54081139E-04  1.35974599E-05  2.38401119E-01  7.72463295E-05 -1.34256469E-04
  4.40061515E-07 -1.61419822E-05 -5.87481314E-02 -1.91072989E-05  3.47556683E-04
 -1.17035756E-06  6.11618305E-04 -1.79326169E-05 -5.86159363E-08  5.97872531E-01
 -2.02059552E-03 -1.80078027E-05  7.58208514E-08  1.21724616E-06  3.56035181E-06
 -5.61896809E-05  2.28704589E-04 -1.39401405E-04 -3.49039821E-06 -5.90019748E-07
 -1.45557697E-02  8.49983053E-05 -6.81362735E-05  6.62478688E-02  7.59469212E-06
  5.33805581E-05 -1.14055024E-02 -1.07453335E-04 -3.58199987E-01 -4.23003815E-01
  4.09600091E-05  1.12506312E-04  6.75569490E-05  2.95592901E-01  1.84267243E-01
 -1.81669915E-05 -8.52742962E-05 -1.11994757E-01  8.06602568E-05 -4.52004113E-05
  1.78143822E-01 -3.09057290E-01  1.19176882E-05  6.44485343E-05  1.22383582E-06
  3.57958593E-06 -5.64806014E-05  2.29846582E-04 -1.40085597E-04 -3.48926998E-06
  5.83603682E-07 -1.46233803E-02  8.53322043E-05  6.84375473E-05  6.65555284E-02
  7.33633401E-06 -5.35535848E-05 -1.14579866E-02 -1.07788617E-04 -3.56202438E-01
  4.24084138E-01  4.07404635E-05 -1.13064047E-04  6.77609385E-05  2.94722428E-01
 -1.84647750E-01 -1.80191691E-05  8.56131357E-05 -1.12515758E-01  8.08411412E-05
  4.53379846E-05  1.78572444E-01  3.08808729E-01  1.16444874E-05 -6.44451126E-05
 -3.02880846E-06 -8.83154292E-06  1.31319024E-04 -5.07806824E-04  3.00951572E-04
 -7.22078190E-06  1.89939192E-09  2.90072987E-02  2.30741823E-04 -1.72225611E-07
 -1.32016880E-01 -9.43520650E-05  1.47444237E-07  2.24083111E-02  1.62032554E-04
  3.74837250E-01 -1.19059470E-03  1.85605230E-04 -3.25396670E-07 -8.73536498E-05
 -2.41668133E-02  5.64288333E-04 -1.41802528E-04  2.30677906E-07  2.23735946E-01
  1.01074460E-04 -5.29031038E-08 -3.56060752E-01  2.46494498E-04 -3.87916524E-05
  4.26552921E-08  2.87483853E-09  6.20838501E-09 -9.05925929E-08  1.92857364E-07
 -8.52116713E-08 -2.61709191E-08  7.98693605E-05  5.09475074E-07  1.29555350E-07
 -3.95792030E-04 -3.05831328E-06 -6.91080520E-08  2.15728685E-04  2.25342175E-06
  4.44036502E-08  7.75710158E-05 -2.38610351E-01 -4.36428829E-07 -1.25015112E-04
 -9.47373516E-08 -1.89712707E-05  5.85520739E-02  1.17941741E-06  3.47511349E-04
  3.59329550E-06  3.43043180E-08  5.68875768E-05  2.02081298E-03  5.97965908E-01
 -8.54594306E-08 -1.52838222E-05  2.45673849E-06  7.17177268E-06 -1.08692511E-04
  4.27651966E-04 -2.54145180E-04  6.55882600E-08  5.06909393E-06 -2.52252296E-02
  7.27727901E-05 -1.78280180E-04  1.14867855E-01 -5.52687277E-05  5.89102982E-05
 -1.96651778E-02 -1.26931556E-04  4.22484108E-01 -1.32980975E-01  9.02361671E-05
  1.47343548E-04  7.71987868E-05 -1.84012285E-01 -8.14559003E-02 -7.54267703E-05
 -9.97379529E-05 -1.94188022E-01  3.34821920E-05 -1.13185138E-04 -3.08858162E-01
 -1.78023018E-01  4.46885909E-05 -2.80381529E-05 -2.45549335E-06 -7.16803484E-06
  1.08605303E-04 -4.27203283E-04  2.53845649E-04 -5.84267463E-08  5.08263108E-06
  2.51854374E-02 -7.29436377E-05 -1.78017392E-04 -1.14686731E-01  5.54221252E-05
  5.86803984E-05  1.96327295E-02  1.26496872E-04 -4.23708078E-01 -1.30977151E-01
 -8.94882868E-05  1.47344000E-04 -7.69192092E-05  1.84636949E-01 -8.23271508E-02
  7.49521249E-05 -9.97793350E-05  1.93884075E-01 -3.34848798E-05 -1.12976066E-04
  3.08609444E-01 -1.78449012E-01 -4.48807760E-05 -2.79368828E-05 -5.09120251E-09
 -1.48093225E-08  2.09319146E-07 -7.71568707E-07  4.40034800E-07 -1.19894700E-08
  4.27592376E-06  3.87240613E-05  3.03968680E-07 -4.77947842E-05 -1.76412406E-04
 -1.79629494E-07 -3.77176058E-05  2.94700543E-05  1.49925042E-07  1.11450843E-03
  6.01305812E-01  1.38765357E-07 -3.85461239E-05 -7.14321797E-08 -4.41270942E-04
 -4.01332390E-01 -8.47844585E-08  4.35590097E-05  2.99348049E-04  8.90987822E-08
 -3.71194147E-05  2.48684957E-04  3.56415900E-01  9.32058841E-08  5.61246068E-05
  5.35755042E-06  2.88791926E-06  3.32009829E-04 -1.59473343E-03 -6.98010743E-05
 -1.10109027E-01 -6.42649118E-06 -2.31911887E-06  5.86383455E-01  3.38960586E-05
  1.24353126E-05  4.21115768E-01  2.47581304E-05  8.57901894E-06  6.08066042E-05
 -6.29696092E-05  1.05789765E-08 -3.06125420E-01  9.53501523E-04  1.97043750E-04
 -4.54985912E-05 -4.24115242E-08  8.87399836E-01 -2.76367080E-03  6.88261320E-06
  1.40603059E-01  8.53012836E-06 -2.41146263E-04  7.39638630E-07 -2.65441955E-04
  1.23081798E-06  5.38556442E-04  1.76158993E-03 -5.67233585E-02  3.41165068E-01
  1.32669795E-01 -4.43573196E-02 -2.47101381E-02  8.26668360E-06  3.25109236E-01
 -6.11594266E-02 -2.41944077E-05 -1.06706343E-01 -8.33272460E-02  1.39882145E-05
 -3.37435527E-01  6.48847680E-06  1.03004344E-04  2.78093060E-01  1.73112829E-01
  1.94480800E-01 -2.78263476E-05 -2.72171116E-05 -5.99133997E-02 -2.04389575E-01
  6.14605780E-05  4.02231096E-02 -1.22865406E-01 -2.63862222E-05  1.10203110E-04
 -2.09514046E-02 -4.67274211E-02  5.40565715E-04  1.76815519E-03 -5.69349591E-02
  3.42438640E-01  1.33164805E-01 -4.42535699E-02  2.47665776E-02  8.30193863E-06
  3.25364693E-01  6.13491602E-02 -2.43064516E-05 -1.06357019E-01  8.35219878E-02
  1.40521199E-05 -3.38698608E-01  6.11980887E-06 -1.03310048E-04  2.77760836E-01
 -1.75277425E-01  1.95209004E-01 -2.77576580E-05  2.73023692E-05 -5.95216933E-02
  2.05270562E-01  6.16949642E-05  4.07389792E-02  1.23176409E-01 -2.66159833E-05
 -1.10322583E-04 -2.07432309E-02  4.67965412E-02 -1.07784920E-03 -3.52127995E-03
  1.13367203E-01 -6.82236405E-01 -2.65441191E-01 -1.40958923E-03 -6.17430610E-05
 -1.83660087E-05  4.30363407E-01 -1.25976140E-04  7.06205519E-05  3.77884314E-02
 -2.05331800E-04 -3.14617307E-05  6.76351957E-01 -1.95656387E-04  2.43535438E-07
  5.79668952E-01 -1.37251422E-03 -3.89942801E-01  2.56267125E-05 -6.19470146E-08
 -4.14147316E-01  7.80993883E-04 -1.05861256E-04  2.53525129E-01 -2.91087441E-04
  1.53899315E-04 -2.18439590E-07  4.14091549E-02 -6.84031092E-05 -2.55901701E-08
 -1.08897596E-07  3.90098294E-06 -1.32595270E-05  1.50002485E-06 -6.80552777E-06
  1.10374661E-01 -2.79873434E-09  3.66439450E-05 -5.89054265E-01  1.51958632E-08
  2.55579275E-05 -4.20640309E-01  8.16809291E-09 -2.49189353E-07 -1.72053357E-08
  5.09001912E-05 -9.53905287E-04 -3.06210062E-01  3.14620115E-06  3.46662587E-08
  8.23655993E-05  2.76850244E-03  8.88590590E-01  5.75981297E-09  8.30684934E-06
 -1.40327150E-01 -7.38025744E-07 -2.33392478E-04 -1.51209697E-06 -1.74458995E-04
  9.40461474E-04  3.07814381E-03 -9.88003709E-02  5.93673550E-01  2.29746955E-01
  2.46744425E-02  1.57117715E-02  1.64855052E-05  6.15708067E-02 -3.96679978E-01
 -5.25579156E-05  8.31195472E-02  1.01708749E-02  2.98074944E-05 -5.85997231E-01
 -7.55290682E-05  1.37005656E-04  1.75677668E-01  4.78804609E-01  3.37700733E-01
  6.95748025E-06 -1.31321547E-05 -2.05740752E-01 -2.96118998E-01  1.09698944E-04
  1.22913940E-01 -1.82793154E-01  1.03271397E-04  1.06331363E-04 -3.59911815E-02
  2.71203771E-02 -9.39225641E-04 -3.07409851E-03  9.86741747E-02 -5.92923811E-01
 -2.29461333E-01 -2.47382267E-02  1.58148177E-02 -1.64672343E-05 -6.16732494E-02
 -3.96415697E-01  5.25040341E-05 -8.33283276E-02  1.05198756E-02 -2.97761652E-05
  5.85272033E-01  7.58218375E-05  1.36623171E-04 -1.73127898E-01  4.79141196E-01
 -3.37283846E-01 -7.04563681E-06 -1.30571333E-05  2.04404372E-01 -2.96511958E-01
 -1.09563902E-04 -1.23198545E-01 -1.82277642E-01 -1.02895723E-04  1.06509861E-04
  3.61119530E-02  2.70009946E-02 -1.14188516E-06 -3.73945576E-06  1.21622045E-04
 -7.34627230E-04 -2.86611761E-04  5.83011944E-05  5.85775252E-02 -1.97999533E-08
  1.68442252E-04 -2.89747613E-01  7.62530334E-08  1.98333410E-04  1.54650764E-01
 -3.36352081E-08  7.31279710E-04 -2.55894308E-07 -4.33212788E-05  9.88091423E-04
  1.77819875E-01 -4.21871167E-04  6.31490129E-08  3.48081811E-05 -3.28538182E-04
  5.81792833E-02 -1.14489622E-07  3.04822859E-04  3.04939160E-02 -1.58521601E-08
 -8.97453562E-05 -1.19659918E-04 -5.39054307E-02  6.48138897E-09  1.15361054E-08
 -8.07170147E-08  3.73646007E-08  3.35142825E-08 -5.50934814E-08  5.50452297E-06
  1.46698963E-12  3.73636955E-06  4.39939210E-04  6.30844227E-11  3.19117156E-08
  1.55159119E-04 -5.10486848E-13  6.03907575E-08 -3.62314242E-11  2.23962630E-09
  2.55434216E-07  2.67243480E-04 -6.15065865E-08 -6.47012507E-13 -3.06442304E-08
  4.90926223E-07 -6.04101019E-04 -1.11737853E-12  2.23777843E-08  1.51527055E-04
 -7.58671164E-09 -3.67577393E-06 -4.47528805E-04 -1.46479016E-01  3.01297228E-07
  3.32470870E-07  3.93326056E-05 -3.61001071E-04 -8.34079327E-05  5.73241969E-03
  3.31041903E-03  1.17749352E-07  3.80648334E-03  2.44347662E-03  7.94764968E-08
 -1.54779686E-01 -8.91224239E-02 -3.22234600E-06  1.92738257E-04  6.87358405E-06
 -1.02443012E-05  5.89007766E-01 -3.42009292E-01 -1.36160021E-04 -8.73809632E-06
  5.44720527E-06 -4.35653486E-01  2.52972203E-01  2.64953629E-06  5.27551109E-02
  3.05720955E-02 -9.53837056E-06  7.76219825E-06  5.56872155E-04  1.67851439E-01
 -2.93263718E-07 -2.95342784E-07 -4.01074872E-05  3.63780524E-04  8.33198086E-05
 -5.72573062E-03  3.32195274E-03 -1.17769055E-07 -3.80046741E-03  2.45284227E-03
 -7.93411890E-08  1.54597777E-01 -8.94374139E-02  3.22238446E-06 -1.93241435E-04
 -6.89455686E-06 -1.02305310E-05 -5.90395844E-01 -3.39607713E-01  1.36185819E-04
  8.74926919E-06  5.42963682E-06  4.36679729E-01  2.51196367E-01 -2.64954722E-06
 -5.26926171E-02  3.06795081E-02  9.56978239E-06  7.72324633E-06  4.68255650E-04
  1.67851387E-01 -9.60025757E-09 -4.03493446E-08  7.90897881E-07 -2.84450524E-06
  8.14403626E-08 -6.93549341E-06 -6.66203230E-03  1.59606162E-11 -2.44431169E-06
 -4.28949588E-03 -7.42278641E-11  1.81757546E-04  1.78483411E-01 -4.11901188E-11
  4.49885266E-07  2.03660327E-08  2.02902542E-05  1.38764074E-03  6.81088199E-01
 -8.42688073E-10 -1.07512739E-08 -1.07806726E-05 -1.02713035E-03 -5.03857863E-01
  1.14723328E-11 -6.19958343E-05 -6.09801937E-02 -5.61171723E-09 -2.74952019E-06
  5.13053294E-04  1.67839348E-01  1.35464035E-07 -1.25146855E-06  7.54414112E-05
 -2.49570032E-04 -4.65956493E-05  2.82740740E-06 -1.15671084E-09 -1.64701251E-01
 -1.63961218E-05 -5.70801292E-09  1.14465574E+00 -2.86360357E-06  6.99529003E-09
  7.04343143E-02 -1.34802347E-05  2.02012447E-03 -8.30456244E-06  4.31270944E-07
  7.56337523E-10 -3.11704715E-05  1.51868676E-02 -6.33530080E-05  2.03980947E-06
  3.92615618E-09 -6.42701869E-01  3.01128306E-05 -2.08679254E-08  9.77982473E-03
  1.04114182E-05  2.56004337E-05 -7.89714955E-08  8.16338576E-07  2.73115203E-06
 -4.13701684E-05  9.43984029E-05  2.76721786E-05 -9.55298494E-06  1.33772884E-05
  9.62844837E-02  4.91858432E-05 -7.43425428E-05 -3.25446015E-01  9.13627700E-06
 -1.20064414E-05 -9.93061300E-02  3.54248486E-05  2.63959447E-01 -4.52880099E-01
  7.42295511E-06  3.11255554E-05 -7.04032092E-05 -3.38965224E-01  5.84124223E-01
 -1.95560297E-05 -5.67693309E-05  3.19221182E-01 -4.67243068E-05  7.39978728E-05
  1.78298979E-01  3.07187473E-01 -1.33473346E-05 -7.05892352E-06  8.16211891E-07
  2.73061486E-06 -4.13601467E-05  9.43683531E-05  2.76786942E-05 -9.57936338E-06
 -1.33568303E-05  9.62965077E-02  4.93281648E-05  7.42274074E-05 -3.25492800E-01
  9.16245421E-06  1.19895348E-05 -9.93166765E-02  3.54344086E-05  2.64921525E-01
  4.52391804E-01  7.29838347E-06 -3.11601565E-05 -7.04094592E-05 -3.40204427E-01
 -5.83503840E-01 -1.93244153E-05  5.68471710E-05  3.19256622E-01 -4.68765706E-05
 -7.39080187E-05  1.77071496E-01 -3.07954541E-01 -1.33064392E-05  7.13891623E-06
  7.79975262E-07  2.57735881E-06 -3.85026781E-05  8.57420108E-05  2.97156591E-05
  1.29062489E-05 -1.36033066E-08  9.96059053E-02 -7.34949804E-05  7.60376581E-08
 -3.38388404E-01 -1.25321477E-05  1.23072143E-08 -1.02214019E-01  8.77663290E-06
 -5.41667935E-01  5.41933611E-04 -1.53797104E-05  3.24401244E-08 -3.43455507E-05
  6.99299355E-01 -7.04303195E-04  3.68915731E-05 -7.74173740E-08  3.29054889E-01
  4.57832548E-05 -4.80415002E-08 -3.69095895E-01  7.52046867E-04  4.69585434E-08
  2.37054652E-09  3.31231978E-09  3.10137535E-08 -1.21381667E-06  3.62596776E-06
  7.10776218E-07 -5.26990341E-05 -3.70289673E-08  2.66079381E-03  5.83110350E-04
  4.09365126E-07 -1.93487821E-02 -1.10388950E-04 -7.76448616E-08 -9.63552939E-04
  5.33942690E-06  1.40593970E-01  9.86377329E-05  3.29976919E-05 -1.34003090E-07
  3.47465144E-05  9.49864260E-01  6.66153817E-04  1.85305212E-04 -7.64410313E-07
  1.07396494E-02 -1.83802676E-04 -1.96757238E-07  6.08078320E-01 -2.28449477E-03
 -1.58737484E-05  7.51387549E-08  9.18244951E-07  4.00758424E-06 -7.69209275E-05
  2.41715595E-04 -6.37640710E-05  4.59025958E-06  1.33274828E-05 -7.07210953E-02
  4.65957057E-05 -1.33207686E-04  2.78716569E-01 -4.79476202E-06  2.61246019E-05
  6.08418306E-02 -5.89507527E-05 -3.71421989E-02  3.93907534E-01  1.41504600E-06
 -5.40086966E-05  3.19214101E-05  1.36383947E-01 -5.04373134E-01 -4.78780368E-05
  1.80943251E-05 -2.10388563E-01  4.01879987E-05 -1.36746727E-05 -1.42526810E-01
 -2.57575743E-01  1.18926143E-05  5.35281462E-05  9.23813442E-07  4.03180901E-06
 -7.73848093E-05  2.43169832E-04 -6.41432885E-05  4.52492586E-06 -1.33804825E-05
 -7.11339133E-02  4.72974462E-05  1.33831240E-04  2.80348144E-01 -4.94506704E-06
 -2.62302235E-05  6.11959847E-02 -5.93405793E-05 -3.92786501E-02 -3.95484461E-01
  1.50634342E-06  5.42154068E-05  3.21384093E-05  1.39118505E-01  5.06515346E-01
 -4.79633818E-05 -1.78197260E-05 -2.11613780E-01  4.02639665E-05  1.37736760E-05
 -1.42345258E-01  2.59642051E-01  1.16351917E-05 -5.35445614E-05 -1.88001969E-06
 -8.16533683E-06  1.56166325E-04 -4.88836886E-04  1.26626432E-04 -2.36149726E-05
  4.26387921E-08  1.36959859E-01  2.99036820E-04 -3.46419303E-07 -5.42099144E-01
 -4.58735440E-05  6.64743295E-08 -1.17318231E-01  8.92466632E-05 -6.96340291E-01
  1.03516728E-03 -6.31914344E-05  7.49280116E-08 -1.61500401E-05  9.79330986E-01
 -1.26223495E-03 -5.49015585E-05  2.02436171E-07  4.05912360E-01  2.58663017E-07
  5.29311239E-08 -5.72340476E-01  1.15407792E-03 -1.27424968E-06 -8.91971922E-08
 -1.76030789E-11 -1.58809847E-10  6.11252926E-09 -1.81670752E-08 -3.43601222E-09
  3.67149671E-08 -5.22863750E-05 -1.29293926E-05 -4.07341760E-07  5.80473903E-04
  9.43100994E-05  7.66397184E-08 -1.09908794E-04  4.59163889E-06 -1.01333279E-08
 -9.87459096E-05  1.41045659E-01 -1.35832224E-07 -3.88535228E-05 -6.16201563E-08
 -6.65562053E-04  9.50265262E-01 -7.70899843E-07 -2.23500588E-04 -5.23341343E-05
  8.98579253E-08 -2.22721355E-04 -2.28496271E-03 -6.08542356E-01  7.58169495E-08
  1.54414990E-05 -1.61235181E-06 -7.01151172E-06  1.34221582E-04 -4.20521710E-04
  1.09372380E-04  1.10139498E-05 -1.26653550E-05  1.20210818E-01 -1.24057823E-04
  2.08056597E-04 -4.75303279E-01  2.79104030E-05 -3.32966078E-05 -1.03082167E-01
  1.12956548E-04  3.86852354E-01 -4.82107345E-01  3.74216425E-05  6.13989382E-05
 -6.31343516E-05 -4.95401585E-01  7.06088804E-01  3.55838784E-06  2.28759483E-05
  3.56790163E-01 -1.40799185E-05  5.27343198E-05  2.54679026E-01  4.32307924E-01
 -2.03596875E-05  1.60984666E-05  1.60928459E-06  6.99804600E-06 -1.33962019E-04
  4.19702509E-04 -1.09151901E-04 -1.10563943E-05 -1.25985339E-05 -1.19956623E-01
  1.24326103E-04  2.07354550E-04  4.74305874E-01 -2.79607679E-05 -3.31494563E-05
  1.02862582E-01 -1.12750538E-04 -3.87674046E-01 -4.79916264E-01 -3.71761318E-05
  6.13627476E-05  6.30169371E-05  4.96327367E-01  7.03279604E-01 -3.30257756E-06
  2.29577628E-05 -3.56030674E-01  1.40440601E-05  5.26504474E-05 -2.52409042E-01
  4.32418464E-01  2.04160100E-05  1.61585965E-05  3.25571359E-09  1.40928503E-08
 -2.68852486E-07  8.38999617E-07 -2.14231541E-07  5.20667267E-08  1.07837133E-05
 -2.30363525E-04 -5.39343963E-07 -2.43857998E-05  9.14683632E-04  8.90164321E-08
  1.14593294E-05  1.96716811E-04 -1.52018561E-07  1.36287850E-03  1.89582351E-01
  4.35960080E-08 -3.10607060E-05  2.59285450E-08 -1.80505888E-03 -1.54027681E-01
  2.02868140E-07  5.25395177E-05 -6.81059896E-04  3.31734014E-08  3.08665902E-05
  9.51316652E-04 -6.83880199E-03 -1.62624884E-07 -5.40159801E-05 -3.31432048E-05
 -6.73269843E-05  8.32887257E-05  2.12890809E-03 -1.32445325E-04  4.48399537E-01
  3.09530870E-04  9.38915500E-06 -3.51742173E+00 -2.42764651E-03 -7.38130271E-05
  7.15285984E-01  4.93370366E-04  1.48162768E-05 -2.14817874E-04  2.85738091E-05
  3.03166929E-08 -1.48752772E-01  5.57087079E-04 -2.53287953E-04  2.24455477E-04
  2.76960213E-07 -1.71724135E+00  6.43205131E-03  3.56268720E-05  6.92779356E-01
  4.78138612E-04  1.31390670E-04 -5.70037501E-07 -2.62549983E-04  1.11657828E-06
 -4.81270302E-03 -2.36663021E-02  5.11879186E-01 -1.84617408E+00  6.32622100E-01
  3.96278622E-03 -6.04534987E-02 -4.38934259E-06 -5.59004612E-01  9.24074875E-01
 -2.86439860E-05  9.25329398E-02 -2.66814381E-01  2.29323759E-05  2.99297340E-01
  3.24365285E-06  9.73396034E-05  2.92961154E-02  3.51097633E-01 -1.24624749E-02
 -1.54038760E-05 -6.28635303E-05  1.58752194E-01  7.31927503E-02 -1.25735977E-05
 -1.40178598E-02 -8.08652788E-02 -1.64095926E-06 -2.35908306E-05  6.57323148E-02
 -5.98588961E-02 -4.84124965E-03 -2.38067407E-02  5.14917091E-01 -1.85712899E+00
  6.36377577E-01  4.29322929E-03  6.06980244E-02 -4.41131657E-06 -5.64055565E-01
 -9.28502612E-01 -2.88115992E-05  9.39915461E-02  2.67998817E-01  2.30758076E-05
  3.01074869E-01  2.69830669E-06 -9.76863475E-05  2.90662080E-02 -3.52705702E-01
 -1.25374404E-02 -1.50480941E-05  6.30653203E-05  1.58702419E-01 -7.46729562E-02
 -1.26291657E-05 -1.35760395E-02  8.11652227E-02 -1.62812282E-06  2.36953395E-05
  6.64886004E-02  5.93368746E-02  9.64462465E-03  4.74531496E-02 -1.02646982E+00
  3.70091623E+00 -1.26910135E+00  1.09015381E-01 -1.63686037E-04  1.10361549E-05
 -2.16458866E+00  2.15881403E-03 -1.00546506E-05  5.56673195E-01 -6.71328551E-04
 -3.04518103E-05 -6.00653400E-01 -1.07433065E-04  2.27027907E-07  6.39283909E-01
 -1.00485072E-03  2.53658643E-02  9.65164838E-05 -1.98447242E-07  2.86288048E-01
 -7.81280938E-04  2.96178659E-05  1.26312768E-01 -2.32021488E-04 -5.34683458E-05
  9.73137840E-08 -1.32605342E-01  5.22600372E-04 -1.76031079E-07 -3.60748327E-07
  7.04919914E-07  1.02544516E-05 -7.30717288E-07  3.09493177E-04 -4.48224628E-01
  1.63453953E-08 -2.42960631E-03  3.51811385E+00 -1.29152895E-07  4.94111318E-04
 -7.15049195E-01  2.52915917E-08 -1.13372153E-06  1.33629864E-08 -3.47027508E-05
 -5.58680540E-04 -1.49149058E-01 -1.10326798E-06  8.17579669E-08 -2.95041080E-04
 -6.43086613E-03 -1.71708338E+00  6.23730158E-08  4.78411107E-04 -6.92733943E-01
  5.82752701E-07  1.76404453E-04 -1.91724765E-06 -1.95504672E-04 -8.34885155E-03
 -4.10967435E-02  8.89557663E-01 -3.20936056E+00  1.10012796E+00  6.04388989E-02
 -7.40086112E-02 -6.33864316E-06 -9.25505046E-01  1.63289281E+00 -4.95317172E-05
  2.67179175E-01 -4.02912599E-01  4.19194966E-05  5.20618924E-01 -1.00951419E-04
  9.95632207E-05  3.53192541E-01  4.35736876E-01 -2.19583050E-02  6.60249868E-05
 -4.95375986E-05  7.41631588E-02  2.43841206E-01 -1.59503732E-05  8.08432012E-02
 -7.97821487E-02 -2.42208985E-05 -2.82495021E-05  1.14770457E-01  3.41445688E-02
  8.33236575E-03  4.10156773E-02 -8.87803201E-01  3.20302646E+00 -1.09795946E+00
 -6.05754494E-02 -7.36786638E-02  6.32335574E-06  9.26905377E-01  1.62783805E+00
  4.94341265E-05 -2.67679694E-01 -4.01454609E-01 -4.18407322E-05 -5.19593686E-01
  1.01162849E-04  9.90237740E-05 -3.51318247E-01  4.35969920E-01  2.19162561E-02
 -6.61765000E-05 -4.91869274E-05 -7.26266426E-02  2.43887027E-01  1.59066194E-05
 -8.10520665E-02 -7.93402007E-02  2.40996580E-05 -2.82665372E-05 -1.14334291E-01
  3.50480934E-02  1.64476868E-05  8.09965915E-05 -1.75320839E-03  6.32256031E-03
 -2.16887768E-03  2.17331405E-04  3.08523347E-02  1.84319298E-08 -3.67067616E-03
  2.65857410E-02 -1.55890925E-08  1.01368456E-03  6.10740008E-02 -5.16872857E-08
 -1.02659230E-03 -2.51426627E-07 -6.86442445E-05  7.38887265E-04 -1.74014306E-01
  4.36871000E-05  2.21522051E-07  5.84680018E-05  7.24762198E-04  1.16079416E-01
  4.92579018E-08  2.77193068E-04  6.04650843E-02 -7.58673966E-08  6.75605866E-06
 -4.36430770E-04 -6.86892289E-02 -5.53117660E-07 -7.50691380E-07 -1.30480538E-05
  6.97629496E-05  5.55765574E-06 -1.89944582E-05  4.32615435E-02 -1.27319604E-09
 -5.31326649E-04  1.20989021E+00 -3.97982562E-08 -4.65319698E-04  1.06122517E+00
 -3.19576221E-08 -4.76508918E-06 -1.41561274E-08 -2.30596366E-06 -8.87231309E-04
 -2.53896003E-01 -1.29918671E-05  1.44011597E-07 -1.23709993E-04  5.16324127E-03
  1.47776884E+00  1.67554326E-08  9.30358828E-05 -2.11769160E-01 -1.98190027E-07
 -5.09765693E-05  5.97079030E-06 -3.69910758E-04 -5.37036219E-03 -1.74462476E-02
  1.57633692E-01  3.04401147E-01 -1.32100150E+00  1.68771454E-01 -7.73522954E-02
 -6.50788918E-06 -4.75025302E-01 -2.35283813E-02  4.20051983E-05 -3.53131031E-01
  3.36729778E-01 -3.41056492E-05 -1.88773415E-01  7.39519018E-06  4.37008126E-05
  2.64430851E-01 -3.51106506E-01  2.77999346E-01 -1.67652201E-05 -4.31820047E-05
 -4.17082038E-01  5.00192713E-01  2.63448659E-05  1.65422448E-01 -1.61372977E-01
 -7.75496315E-06  1.86843866E-05  7.76550520E-03  2.79808763E-01  5.36105610E-03
  1.74158167E-02 -1.57349175E-01 -3.03938276E-01  1.31876891E+00 -1.69269789E-01
 -7.65108049E-02  6.48408894E-06  4.76627587E-01 -2.59178863E-02 -4.18849934E-05
  3.54023067E-01  3.34975364E-01  3.40645400E-05  1.88454797E-01 -7.46677928E-06
  4.36856839E-05 -2.67778176E-01 -3.50797925E-01 -2.77521182E-01  1.68690060E-05
 -4.31866774E-05  4.21993593E-01  4.99692839E-01 -2.63186015E-05 -1.65835187E-01
 -1.60547866E-01  7.86138179E-06  1.86795341E-05 -6.03366521E-03  2.81266282E-01
  8.89303010E-06  2.87957752E-05 -2.55581389E-04 -5.35235732E-04  2.21438182E-03
  4.71296958E-04  2.15712944E-01  2.20836197E-08 -1.20898152E-03 -8.48168857E-01
 -9.48854372E-08 -1.06572928E-03 -2.76417649E-01  2.85462174E-08  3.16624904E-04
 -6.94543402E-08  2.57275984E-05 -1.94112554E-03 -8.11820349E-01 -4.62025458E-04
  7.89117525E-08 -2.48977859E-05  2.86547267E-03  1.22594668E+00 -1.11491977E-08
  4.99039920E-04  1.25747770E-01 -2.12133300E-08 -7.69056442E-06 -1.72150277E-03
 -5.60585261E-01 -6.22162470E-05 -7.04562125E-05 -2.15082877E-03  1.00518232E-02
  4.67264279E-04 -4.28721853E-02 -1.88025606E-05 -8.70502834E-07 -1.21340332E+00
 -5.30922087E-04 -2.56676988E-05 -1.06067596E+00 -4.65486105E-04 -2.19549295E-05
 -5.83003925E-04 -8.19497638E-06  1.16798412E-08 -2.53688990E-01  8.86055379E-04
 -2.00289931E-03  1.85147119E-04 -8.18603062E-09  1.47709662E+00 -5.16058504E-03
  1.09665801E-05  2.12209139E-01  9.28839789E-05 -6.48625837E-05  2.06410480E-07
  1.02721021E-03 -1.57886171E-06 -3.11208609E-03 -1.01282029E-02  9.23948452E-02
  1.70305329E-01 -7.60392040E-01 -1.18477038E-01 -1.69151631E-01 -8.20250970E-06
  5.73687228E-01  4.78470764E-01  4.15962922E-05  7.30316571E-02  3.53048925E-01
 -1.39246829E-05 -1.08531976E-01 -5.51015821E-05  1.03675803E-05 -6.57916422E-01
  2.67962881E-01  1.60696480E-01  6.60109576E-05 -1.04579761E-05  9.84716889E-01
 -4.21147776E-01  8.80339483E-06 -3.04565690E-02 -1.65658267E-01  1.03148368E-05
 -9.46744854E-06  2.96066371E-03 -4.86267735E-01 -3.12773262E-03 -1.01790289E-02
  9.28544595E-02  1.71187949E-01 -7.64236527E-01 -1.17639220E-01  1.69616091E-01
 -8.22140135E-06  5.71321937E-01 -4.79565168E-01  4.17182463E-05  7.12811425E-02
 -3.54174225E-01 -1.40239836E-05 -1.09081409E-01 -5.51009789E-05 -1.03825534E-05
 -6.58225046E-01 -2.64259630E-01  1.61505855E-01  6.59830437E-05  1.04492489E-05
  9.85197294E-01  4.15677526E-01  8.88013734E-06 -2.96358604E-02  1.66188057E-01
  1.03303882E-05  9.37089250E-06  5.94910292E-03  4.85421832E-01  6.18594759E-03
  2.00825171E-02 -1.81045276E-01 -3.52528549E-01  1.52278044E+00  1.74261289E-01
 -4.91781520E-04  1.51472866E-05 -2.48645063E-01  1.48895241E-03 -6.49468951E-05
 -5.39673709E-01  9.52246908E-04  1.96630011E-05  2.17707561E-01 -6.56200588E-05
  2.93542151E-08 -1.97635077E-01  1.58534348E-03 -3.20165932E-01  7.14083898E-05
 -3.64726301E-08  2.57411688E-01 -2.31035261E-03 -7.68834466E-06  2.56193291E-01
 -4.44072102E-04 -3.77153125E-06  1.89163564E-08 -7.73056676E-03  8.40210364E-04
 -8.97829119E-02 -1.29683479E-01 -1.71586984E+00  9.90816157E+00  1.00463225E+00
 -7.10287642E-04  3.15913509E-06 -5.50147271E-06 -5.37411544E-03  1.53893515E-05
 -3.85808222E-04  5.45070501E-04 -4.65516451E-06  3.94741317E-06 -7.28665141E-01
  2.62366811E-05 -2.70202394E-08 -7.86079384E-04 -2.27807567E-07 -1.74439848E+00
  6.27169581E-05 -6.39288590E-08 -2.48307505E-03 -6.62512258E-06  1.08898988E-04
  1.90494092E-04  3.04647736E-07  2.18736866E-05 -4.42305589E-08  8.59402838E-01
 -2.62537890E-03 -2.29890110E-02 -8.35211166E-02  1.34534559E+00 -3.24706097E+00
 -1.04324126E+00  2.17138960E-01 -3.76769722E-01  1.98596561E-05 -1.35974331E+00
  2.35986779E+00 -1.35048296E-04 -2.51608650E-01  4.36350626E-01 -3.88821921E-05
 -2.50406933E-01  2.62615735E-05 -4.02449346E-05 -1.43853304E-01 -2.49014452E-01
  8.48129661E-01 -7.50725682E-05  1.22103821E-04  6.23328855E-01  1.07598655E+00
  5.45381836E-05  2.26671829E-01 -3.93264648E-01  2.79372897E-05  5.37707228E-05
  4.60129523E-01 -1.02310638E-03 -2.29889816E-02 -8.35209488E-02  1.34534006E+00
 -3.24703378E+00 -1.04324580E+00  2.17906434E-01  3.76325823E-01  1.98594759E-05
 -1.36454109E+00 -2.35707677E+00 -1.35046769E-04 -2.52498427E-01 -4.35837474E-01
 -3.88823086E-05 -2.50407909E-01  2.63435404E-05  4.01908246E-05 -1.42834679E-01
  2.49600817E-01  8.48127714E-01 -7.53208520E-05 -1.21949446E-04  6.18933247E-01
 -1.07851453E+00  5.45381219E-05  2.27472910E-01  3.92801748E-01  2.77176053E-05
 -5.38838692E-05  4.60124016E-01 -1.79102687E-03 -2.29663867E-02 -8.34237158E-02
  1.34318656E+00 -3.23902071E+00 -1.04268002E+00 -4.34394926E-01  4.41428517E-04
  6.30370238E-06  2.71774024E+00 -2.76411712E-03 -5.01353056E-05  5.03271729E-01
 -5.11191662E-04 -2.32152726E-05 -2.50414541E-01 -2.54812403E-05  2.57817548E-08
  2.87380748E-01 -5.81268471E-04  8.47034655E-01  5.87358667E-05 -5.96332575E-08
 -1.24126420E+00  2.52253758E-03  1.99158220E-05 -4.53470863E-01  4.61086463E-04
 -2.06013412E-05  4.19109246E-08  4.59156376E-01 -1.40010942E-03 -2.70555777E-02
  2.75221186E-02 -2.27511132E+00  7.29356510E+00 -1.67926185E-01  1.19803828E-04
 -4.81740042E-07  2.18276982E-05 -1.26662905E-02  5.29368390E-05 -2.69533445E-04
  6.54874860E-04 -3.13637774E-06  2.20083785E-05 -3.32704726E-01  1.20537678E-05
 -1.27988565E-08 -1.32157469E-03 -1.53124942E-06 -1.64204469E+00  5.92810289E-05
 -6.22270019E-08 -6.73294919E-03 -8.25238212E-06  1.14996182E-04  1.23775242E-03
 -5.17738239E-06  3.45051666E-05 -6.92604428E-08  1.34974858E+00 -4.12313240E-03
 -1.73962770E-03 -2.38532894E-02  8.10581816E-01 -2.66002480E+00 -1.34513087E-01
  5.15716882E-02 -8.92744694E-02  4.16978542E-06 -9.70670392E-01  1.68368234E+00
 -1.07095010E-04 -8.95233924E-03  1.50158240E-02 -1.16746833E-05  1.85297304E-01
 -1.68603659E-05  3.74258856E-05  2.72507142E-01  4.68782252E-01  3.44258883E-01
 -3.34416347E-05  4.90230544E-05  1.75944430E-01  3.05259846E-01  1.62568798E-05
  7.39523999E-02 -1.28122220E-01  1.74693155E-05  2.78384435E-05  2.45716046E-01
 -2.06244475E-04 -1.73948148E-03 -2.38526289E-02  8.10565330E-01 -2.65996099E+00
 -1.34510652E-01  5.17523180E-02  8.91664587E-02  4.16957351E-06 -9.74076638E-01
 -1.68166096E+00 -1.07092323E-04 -8.98279255E-03 -1.49954606E-02 -1.16746875E-05
  1.85295829E-01 -1.69361814E-05 -3.73916311E-05  2.70597154E-01 -4.69887362E-01
  3.44251771E-01 -3.35410408E-05 -4.89531374E-05  1.74688453E-01 -3.05961526E-01
  1.62566430E-05  7.42123325E-02  1.27969029E-01  1.73552620E-05 -2.79090099E-05
  2.45706582E-01 -1.29682477E-03 -1.69770786E-03 -2.36652241E-02  8.06033033E-01
 -2.64278036E+00 -1.33632460E-01 -1.02238074E-01  1.03698157E-04  9.28271444E-07
  1.93095221E+00 -1.96414978E-03 -4.63067362E-05  1.68987071E-02 -1.62187807E-05
 -1.11360374E-05  1.84911864E-01  1.40262896E-05 -1.45921665E-08 -5.42319223E-01
  1.10670399E-03  3.42294700E-01  2.94426196E-05 -2.96303765E-08 -3.47803003E-01
  7.05217032E-04  4.96471395E-06 -1.47234832E-01  1.49647309E-04 -1.61437442E-05
  3.28078262E-08  2.44007602E-01 -7.44173854E-04  1.33107437E-08  2.28165113E-10
  8.13032338E-07 -2.94386540E-06 -3.13893873E-08  2.87657391E-06  6.70393023E-04
  4.08036366E-11 -1.42443764E-04 -3.68398779E-02 -2.07344064E-09  2.86874445E-06
  6.64034393E-04  3.75798145E-11  1.32615890E-07  1.15579090E-09  3.94752850E-07
 -2.05889726E-06  2.95746463E-03  6.38888579E-07  4.36721652E-09  1.69083538E-06
 -1.31929441E-05  1.79527967E-02  5.17105517E-10  1.46777845E-05  3.71196966E-03
  7.10360198E-08  3.42994515E-05  4.21214297E-03  1.37890998E+00  1.20442646E-04
  4.68996081E-04 -8.60243192E-03  2.66660536E-02  3.95288515E-03 -6.35756457E-02
 -3.38330527E-02 -1.44072218E-06  3.36255854E-01  1.69682120E-01  7.92071235E-06
 -1.39441911E-02 -1.05121217E-02 -2.35315566E-07  2.98898768E-04  2.58345667E-06
 -3.27010713E-07  8.34358427E-02 -4.64014618E-02 -4.22071343E-03  3.25713462E-05
  8.97183889E-06  3.60688156E-01 -2.19562572E-01 -7.00308971E-06 -1.34340715E-01
 -7.53039141E-02  6.61645693E-05 -5.04099502E-05 -4.97785656E-03 -6.56334527E-01
 -1.20815549E-04 -4.70464898E-04  8.62974186E-03 -2.67511982E-02 -3.96505791E-03
  6.35110553E-02 -3.39562668E-02  1.44121171E-06 -3.35946868E-01  1.70311421E-01
 -7.92457122E-06  1.39164036E-02 -1.05445487E-02  2.35036684E-07 -2.99637781E-04
 -2.58280412E-06 -3.21941102E-07 -8.36216041E-02 -4.60537523E-02  4.23402531E-03
 -3.25557689E-05  9.03624882E-06 -3.61571425E-01 -2.18119904E-01  7.00389447E-06
  1.34190348E-01 -7.55726206E-02 -6.63691061E-05 -5.01413070E-05  9.77478687E-04
 -6.56354675E-01  3.82349930E-07  1.51390268E-06 -2.83707710E-05  8.83036382E-05
  1.25269271E-05  8.13924023E-05  7.22700072E-02 -2.46742284E-10 -4.53603830E-04
 -3.77866597E-01  1.77459515E-09  9.76231658E-06  1.62817628E-02  2.46473080E-11
  6.81871500E-07  1.47293118E-09  1.26161328E-06  1.85780784E-04  9.35912426E-02
 -1.38427101E-05 -2.17439501E-08 -2.00199536E-05  8.94211229E-04  4.24709977E-01
 -3.58604783E-10  1.63008106E-04  1.54200252E-01  1.02607238E-07  5.00982082E-05
 -2.01790324E-03 -6.57190329E-01  1.99563296E-07 -8.28446793E-07  3.10526613E-05
 -7.26619533E-05 -5.67294762E-06  1.93011371E-04 -1.45620169E-01  6.68326913E-09
 -1.07212328E-02  8.11366598E+00 -3.91158482E-07  7.86392799E-05 -5.93641246E-02
  2.86218443E-09  3.21723543E-06  4.33071204E-08 -8.77036473E-05 -3.26803292E-03
 -7.46862233E-01  1.80153310E-05  1.11866662E-07 -3.81153366E-04 -1.76460685E-02
 -4.03203882E+00  9.47725958E-08  1.06807354E-03 -8.08151785E-01  6.10475881E-07
  1.67982607E-04  4.13044054E-06  6.26637514E-03 -2.64097037E-02 -1.03795699E-01
  1.91631007E+00 -5.94102466E+00 -9.41377812E-01  2.51501493E-01 -4.78619761E-01
  3.18340201E-05 -2.17848391E+00  4.11731965E+00 -2.54610390E-04 -1.88003945E-01
  4.54613133E-01 -1.75703801E-05 -5.78142121E-02 -1.36518019E-05 -3.88424092E-05
 -2.66528425E-01 -2.63557278E-01  9.39684916E-01 -5.86637642E-05  1.90266375E-04
  1.17792772E+00  1.63233955E+00  4.88594030E-05  1.84980678E-01 -3.62434356E-01
  5.57488712E-05  5.60193626E-05  7.02252586E-01 -8.86657610E-02  2.63386418E-02
  1.03516561E-01 -1.91115970E+00  5.92504154E+00  9.38849929E-01 -2.51602245E-01
 -4.76933439E-01 -3.17442902E-05  2.17942440E+00  4.10271504E+00  2.53893095E-04
  1.87821306E-01  4.53355530E-01  1.75109280E-05  5.76580507E-02  1.37945575E-05
 -3.88924195E-05  2.65661271E-01 -2.63389838E-01 -9.37160554E-01  5.85236178E-05
  1.89803903E-04 -1.16998273E+00  1.63164578E+00 -4.87184738E-05 -1.85031197E-01
 -3.61193301E-01 -5.55137028E-05  5.59968446E-05 -7.00894929E-01 -8.50610451E-02
  7.13645972E-05  2.80538086E-04 -5.18061643E-03  1.60508467E-02  2.54533921E-03
  1.41832227E-03 -4.11677349E-02 -4.15974032E-08 -1.22416337E-02  3.31236847E-01
  3.04787336E-07 -1.18723025E-03  1.28682795E-01  9.71041785E-09  1.55940000E-04
 -9.56144567E-09 -4.70977411E-05 -5.69244747E-04  1.98687921E-01 -2.54081652E-03
 -1.65734966E-07  6.23316125E-05  4.60467476E-03 -3.95962131E-01 -5.08076922E-08
  1.05876387E-03 -3.93222531E-02  3.65015877E-08 -2.32355090E-05 -1.39451605E-03
  1.65090407E-01 -4.46024218E-05  1.36897563E-04 -5.82474450E-03  1.44055562E-02
  1.03870247E-03 -1.46531910E-01 -1.93084707E-04 -2.96935879E-06  8.10981468E+00
  1.07184909E-02  1.67652599E-04 -5.90710139E-02 -7.80125712E-05 -1.21389462E-06
 -6.44665228E-04 -5.66638322E-05 -1.47378670E-07  7.46206514E-01 -3.26640388E-03
 -3.50044168E-03 -2.13690400E-04 -6.73862165E-07  4.03160994E+00 -1.76451829E-02
 -4.08055174E-05 -8.08190956E-01 -1.06794485E-03 -1.14775463E-04  6.27256767E-07
  2.79381906E-03  2.28482351E-05  1.51471217E-02  5.95097481E-02 -1.09822057E+00
  3.40502254E+00  5.39449809E-01 -1.85865274E-01  2.50430409E-01 -1.91231352E-05
  1.58235169E+00 -2.16756101E+00  1.52849120E-04  2.36211136E-01 -1.86644217E-01
  1.27122394E-05  3.32932762E-02 -4.74495069E-05 -4.76907422E-06 -4.43361189E-02
  2.66439040E-01 -5.38445582E-01  1.12535751E-04 -7.31473472E-05 -2.77492578E-01
 -1.16692459E+00 -3.00516367E-05 -1.46286468E-01  1.84445005E-01 -1.55024579E-06
 -5.31705978E-05 -4.03100574E-01 -1.44699796E-01  1.52705521E-02  5.99947995E-02
 -1.10717458E+00  3.43277492E+00  5.43849652E-01 -1.87552724E-01 -2.52287004E-01
 -1.92718728E-05  1.59696636E+00  2.18355619E+00  1.54038333E-04  2.37472646E-01
  1.88286173E-01  1.27943534E-05  3.35640828E-02 -4.73757640E-05  4.68358385E-06
 -4.41796876E-02 -2.67493215E-01 -5.42836587E-01  1.12958674E-04  7.38072308E-05
 -2.78224635E-01  1.17568670E+00 -3.02797645E-05 -1.47525914E-01 -1.85840587E-01
 -1.59500155E-06  5.34378715E-05 -4.05493107E-01  1.46747035E-01 -3.04787246E-02
 -1.19781295E-01  2.21130001E+00 -6.85148297E+00 -1.08660515E+00 -6.23516584E-01
  5.39478166E-04  1.77756862E-05  5.36957237E+00 -4.69774112E-03 -1.30135347E-04
  5.62874823E-01 -2.72086143E-04 -4.12767089E-06 -6.68366141E-02 -1.64536009E-05
 -9.33734340E-08  4.16925125E-01 -3.83248482E-04  1.08448633E+00  9.78861080E-05
  4.58553090E-08 -2.31067966E+00  3.78499663E-03  2.17043939E-05 -4.68987399E-01
  3.87551322E-04 -3.57831712E-05  1.91734130E-08  8.10635415E-01 -2.09835744E-03
 -1.39197813E+00  1.73885623E+00 -1.36326127E+00  2.67720266E-01 -4.83362817E-01
  6.05714449E-07 -1.31897812E-08  5.45262810E-06  2.07624797E-03 -8.87808751E-06
  3.67738939E-05 -1.41862051E-04  6.20466184E-07  1.43995782E-06  1.09550516E-01
 -3.94558166E-06  4.07115004E-09  9.79060508E-05  2.02859723E-07  1.23991405E-01
 -4.50770648E-06  4.91368373E-09  1.02258334E-03  1.19823403E-06 -1.00923061E-05
 -1.76491743E-04  7.54305284E-07 -2.73900353E-06  5.46413389E-09 -1.06968002E-01
  3.26787557E-04  1.74476612E-02 -9.84423044E-03 -1.38177732E-01  2.60622004E-01
  1.50525464E-01 -3.22254603E-02  5.59289719E-02 -3.15997737E-06  1.44661388E-01
 -2.50987279E-01  1.41695579E-05  9.26616536E-03 -1.59891077E-02  7.77022808E-07
  1.06346971E-02 -9.24627055E-07  1.75743220E-06  1.14524073E-02  1.97674425E-02
 -1.02925778E-01  8.89134221E-06 -1.56501940E-05 -9.27398456E-02 -1.60037863E-01
 -9.50373202E-06 -3.67986778E-02  6.38761648E-02 -6.46093626E-06 -1.08735292E-05
 -1.01418188E-01  2.88091897E-04  1.74474625E-02 -9.84412607E-03 -1.38174884E-01
  2.60611764E-01  1.50524812E-01 -3.23390061E-02 -5.58627042E-02 -3.15993626E-06
  1.45168498E-01  2.50685263E-01  1.41691142E-05  9.29868467E-03  1.59698064E-02
  7.77033604E-07  1.06347761E-02 -9.28219228E-07 -1.75554134E-06  1.13717723E-02
 -1.98139369E-02 -1.02924330E-01  8.92308743E-06  1.56317563E-05 -9.20855599E-02
  1.60411759E-01 -9.50366836E-06 -3.69284831E-02 -6.38007269E-02 -6.41653135E-06
  1.08996782E-05 -1.01417328E-01  3.31554528E-04  1.73968068E-02 -9.81768367E-03
 -1.37433422E-01  2.57912962E-01  1.50355309E-01  6.43950453E-02 -6.55717563E-05
 -1.14618259E-06 -2.87627300E-01  2.92720062E-04  5.10401825E-06 -1.83852440E-02
  1.85463970E-05  2.06185192E-07  1.06567309E-02  7.00317385E-07 -7.01590706E-10
 -2.28430407E-02  4.65013185E-05 -1.02551211E-01 -6.66293013E-06  6.74600465E-09
  1.84174695E-01 -3.74951607E-04 -3.87996570E-06  7.36136356E-02 -7.49676643E-05
  5.14703622E-06 -1.04731088E-08 -1.01229510E-01  3.09274052E-04  3.44836946E-02
 -5.42035696E-02 -4.63368350E-01  2.06240810E+00 -7.98803734E-01 -4.83333490E-04
  2.31777254E-06  2.62863581E-06  9.08044843E-03 -4.43751815E-05 -7.98463032E-05
 -7.24018668E-03  3.49457176E-05  4.14297887E-05 -6.16858620E-02  2.17257514E-06
 -2.00445357E-09  2.94534663E-04  5.68055972E-07 -3.86573207E-01  1.36899875E-05
 -1.24490787E-08  4.62701045E-03  7.74312639E-06  1.34142201E-05 -6.49222012E-04
  3.16258588E-06  2.36414521E-06 -5.22044478E-09  9.57224634E-02 -2.92433358E-04
  8.01702149E-01 -9.93533932E-01  1.09703443E+00 -1.46678142E+00  4.59277219E-01
  4.33286131E-02 -7.52032909E-02  3.61005373E-06 -2.70934336E-01  4.70808725E-01
 -2.60911624E-05  3.73341509E-02 -6.26225377E-02 -7.41440372E-06 -2.26376363E-02
  1.97404881E-06 -2.54258804E-06 -6.53257302E-03 -1.11862345E-02  1.52783857E-01
 -1.30141396E-05  1.95211797E-05  8.74660813E-02  1.50258074E-01  4.89058823E-06
  2.19710431E-02 -3.81123347E-02  1.46753579E-06  3.82371982E-06  2.62747467E-02
 -6.61259013E-05  8.01753963E-01 -9.93598156E-01  1.09710732E+00 -1.46689584E+00
  4.59347312E-01  4.34838768E-02  7.51185512E-02  3.61038571E-06 -2.71911329E-01
 -4.70289939E-01 -2.60935928E-05  3.74745700E-02  6.25592159E-02 -7.41262743E-06
 -2.26375800E-02  1.97911544E-06  2.53868022E-06 -6.48765158E-03  1.12136656E-02
  1.52789553E-01 -1.30541162E-05 -1.94960427E-05  8.68612372E-02 -1.50624751E-01
  4.89082848E-06  2.20494252E-02  3.80687732E-02  1.45225987E-06 -3.82995832E-06
  2.62778773E-02 -9.45098092E-05  8.13406339E-01 -1.00804163E+00  1.11350792E+00
 -1.49270315E+00  4.75226522E-01 -8.77534251E-02  8.93010483E-05  9.56913190E-07
  5.51988490E-01 -5.62972282E-04 -9.49064485E-06 -7.69134761E-02  7.35452839E-05
 -9.44085793E-06 -2.26240790E-02 -1.57217705E-06  1.72635199E-09  1.32131982E-02
 -2.70601120E-05  1.54068062E-01  9.92535746E-06 -1.04919004E-08 -1.77053317E-01
  3.61674010E-04  1.56684998E-06 -4.43270781E-02  4.50761697E-05 -9.29153883E-07
  1.99499992E-09  2.70088309E-02 -8.24252787E-05  2.86959611E-04 -4.62003734E-04
 -2.96476430E-03  1.46801570E-02 -5.81990887E-03  6.07002150E-02  1.97457877E-04
  1.27154658E-06 -1.40705601E+00 -4.58501793E-03 -2.97522090E-05  1.06614644E+00
  3.47227728E-03  2.23939919E-05 -4.49068243E-04  6.46874443E-06  2.97465780E-08
 -4.92561934E-02  3.11063018E-04 -2.70466437E-03  3.21035040E-05  2.23731252E-07
 -6.74153904E-01  4.25638800E-03  4.89391868E-06  9.46192453E-02  3.08134917E-04
  9.12908513E-06 -8.40751442E-08  5.98214873E-04 -1.78363282E-06  5.71328590E-01
 -7.08650424E-01  8.12379127E-01 -1.29817894E+00  7.77321821E-01  2.16211036E-02
 -4.31214724E-02  3.67337022E-06 -2.46045722E-01  3.77563330E-01 -2.87469713E-05
 -4.24510088E-02 -2.48476978E-01  1.56512328E-05  6.01646241E-04  3.92026088E-06
  1.50919452E-06 -2.02872148E-03 -1.29931572E-02  6.68157262E-02 -1.96553050E-05
  7.51728559E-06  5.17604250E-02  1.55007950E-01  2.58888630E-06  6.54240282E-03
 -1.57964940E-02 -3.12572642E-07  5.45485998E-06  3.58677802E-02 -3.97534564E-03
  5.79772191E-01 -7.19123516E-01  8.24388987E-01 -1.31739888E+00  7.88871596E-01
  2.20762822E-02  4.36846395E-02  3.72881113E-06 -2.50044130E-01 -3.82885295E-01
 -2.91644533E-05 -3.98121300E-02  2.50666501E-01  1.59427544E-05  6.13000259E-04
  3.89918151E-06 -1.49790389E-06 -2.08655484E-03  1.31470405E-02  6.77968965E-02
 -1.97150874E-05 -7.71661663E-06  5.24503320E-02 -1.57192112E-01  2.62893499E-06
  6.70843894E-03  1.59926735E-02 -2.82659087E-07 -5.50214905E-06  3.64241624E-02
  3.73530236E-03 -1.13459295E+00  1.40730339E+00 -1.61400577E+00  2.58434513E+00
 -1.55621679E+00  9.52214587E-02 -1.10705409E-04 -4.46506444E-06 -8.94919879E-01
  7.89645631E-04  2.86225801E-05  3.89600392E-01 -1.18854132E-03 -2.53768673E-05
 -1.68599898E-03  4.00538065E-07  2.04751842E-08 -2.44205457E-02  2.62777030E-05
 -1.31403824E-01 -1.42092780E-05 -4.97810858E-08  3.18802361E-01 -4.86833724E-04
 -2.77632863E-06  3.32430589E-02 -4.47461540E-05  4.78512980E-06  7.84953310E-09
 -7.17660444E-02  2.38281169E-04 -2.30636237E-06  3.70962155E-06  2.41626224E-05
 -1.18914987E-04  4.72035206E-05 -1.97656512E-04  6.05993405E-02 -5.48417753E-09
  4.58400459E-03 -1.40781808E+00  1.29457599E-07 -3.47312957E-03  1.06608339E+00
 -9.68900362E-08  3.62336334E-06 -1.90680348E-08  8.49937236E-06  3.11092431E-04
  4.93044709E-02  2.19708985E-05 -7.66007502E-08  5.99874186E-05  4.25644153E-03
  6.74431359E-01 -2.12620117E-08 -3.08203936E-04  9.45957557E-02 -7.02834495E-08
 -1.53145829E-05 -4.86939276E-06  3.41482558E-06 -9.89857550E-01  1.22778093E+00
 -1.40798938E+00  2.25350030E+00 -1.35409535E+00 -4.29138138E-02  7.12928841E-02
 -6.49958151E-06  3.77486379E-01 -6.83585921E-01  4.89568438E-05 -2.48712281E-01
  2.47585501E-01 -3.41604088E-05 -1.33186198E-03  2.09234784E-06  2.24266287E-06
  1.30318936E-02  1.70443162E-02 -1.15044641E-01  5.23656421E-06 -2.80403053E-05
 -1.55744936E-01 -2.30987414E-01 -4.69445647E-06 -1.56326945E-02  2.46034846E-02
 -6.11893677E-06 -5.68277927E-06 -6.24717677E-02 -2.03529062E-03  9.84893608E-01
 -1.22162387E+00  1.40093264E+00 -2.24223553E+00  1.34737267E+00  4.28693960E-02
  7.08303795E-02  6.46773451E-06 -3.76738041E-01 -6.79539850E-01 -4.87077040E-05
  2.49563471E-01  2.44940443E-01  3.40256748E-05  1.32785503E-03 -2.12130317E-06
  2.25967692E-06 -1.29446461E-02  1.69848456E-02  1.14460832E-01 -5.12453090E-06
 -2.79635328E-05  1.54355146E-01 -2.30275774E-01  4.67188083E-06  1.56247976E-02
  2.44337272E-02  6.09831015E-06 -5.66060063E-06  6.21476086E-02 -2.44895109E-03
  4.82992776E-03 -5.99086713E-03  6.87197426E-03 -1.10113049E-02  6.64159649E-03
 -4.08111370E-04 -3.21150457E-03  1.90669327E-08  3.78329290E-03 -2.84816316E-02
 -1.22141989E-07 -1.85243394E-03 -1.85182851E-01  1.08762355E-07  7.81782390E-06
  3.30453869E-09  4.88458078E-06  9.28826220E-05 -5.48842912E-03  5.57827371E-04
  4.51910477E-08 -1.50291216E-05 -1.28117256E-03  3.80143511E-02  1.18270353E-08
 -1.43555873E-04 -2.54556363E-03 -1.20529448E-08  4.11640636E-06  3.19770838E-04
  4.44705102E-03
Orthonormal basis                          R   N=       15376
  2.28244511E-02  5.22571806E-02  1.27126088E-01  1.59947899E-01  1.52858351E-01
 -1.04960361E-05  3.38498125E-08 -3.37893225E-06 -1.32306399E-05  3.36061673E-08
 -6.42342417E-06 -7.23889767E-06  8.25640235E-09 -5.88477124E-06 -1.26302481E-02
  4.54191232E-07 -4.64605691E-10 -1.43262386E-06 -8.15704369E-09 -2.45841003E-02
  8.83748823E-07 -9.02058456E-10  2.09921348E-06 -9.27462040E-09  1.68653582E-06
  2.13178966E-06 -6.54800338E-09  3.78966188E-07 -7.70104791E-10  1.49167426E-02
 -4.55707381E-05  8.13022554E-03  1.86940731E-02  4.66033189E-02  6.84174791E-02
  8.97285796E-02  1.28546009E-02 -2.23186374E-02  7.30536327E-07  3.29985546E-02
 -5.72935338E-02  1.77454577E-06  5.26395564E-02 -9.13929495E-02  2.49138477E-06
 -4.71404995E-03  2.76468314E-07 -4.40647060E-07 -3.54837798E-03 -6.11639335E-03
 -1.80066784E-02  9.62698528E-07 -1.50195097E-06 -1.32867703E-02 -2.29018585E-02
 -4.19534497E-07 -2.34936970E-03  4.07902956E-03 -2.33520325E-07 -4.59107887E-07
 -4.78687536E-03  1.50399720E-05  8.13021310E-03  1.86940445E-02  4.66032499E-02
  6.84173905E-02  8.97284987E-02  1.29000115E-02  2.22923878E-02  7.30534593E-07
  3.31151378E-02  5.72261685E-02  1.77454242E-06  5.28255628E-02  9.12855452E-02
  2.49138214E-06 -4.71404281E-03  2.77364396E-07  4.40081968E-07 -3.52343209E-03
  6.13078630E-03 -1.80066618E-02  9.65753401E-07  1.49998453E-06 -1.31933742E-02
  2.29557687E-02 -4.19533382E-07 -2.35766771E-03 -4.07422998E-03 -2.31647828E-07
  4.60053938E-07 -4.78687063E-03  1.42044718E-05  8.12644602E-03  1.86853789E-02
  4.65822722E-02  6.83900074E-02  8.97027709E-02 -2.57474163E-02  2.62238127E-05
 -7.05791281E-08 -6.61011609E-02  6.73243485E-05 -2.81872107E-07 -1.05463238E-01
  1.07412005E-04 -7.88883793E-07 -4.71198968E-03 -4.58762366E-08  4.67177716E-11
  7.06852162E-03 -1.43990750E-05 -1.80016156E-02  1.16389276E-08 -1.18916120E-11
  2.64722236E-02 -5.39261496E-05 -6.08521013E-08  4.70500749E-03 -4.79221903E-06
  1.00362110E-07 -2.04430729E-10 -4.78514929E-03  1.46220684E-05  2.92522356E-06
  5.85345351E-06  1.13498234E-05  1.37934169E-05  1.39127272E-05  9.97492394E-02
 -1.83446673E-05  2.06743951E-06  1.96953896E-01 -3.62220557E-05  4.08216413E-06
  2.09149709E-01 -3.84631686E-05  4.33486146E-06  1.99755880E-06 -2.95868270E-06
  3.67556572E-10  5.10908569E-03 -1.46566382E-05  2.97510796E-06 -7.12505038E-06
  8.07222755E-10  1.45522388E-02 -4.17653751E-05 -1.10959591E-06 -2.18458805E-02
  4.02140781E-06  3.03918040E-07  3.20201179E-10 -6.77186719E-07 -3.60357808E-08
 -1.50604163E-02 -3.03903787E-02 -6.17419112E-02 -7.41802782E-02 -6.67837796E-02
  2.04602244E-02  2.85979523E-02 -5.20494944E-07  5.14099576E-02  5.66943918E-02
 -7.13959826E-07  9.84976401E-02  5.68072742E-02  4.66519847E-07  2.69766840E-03
  2.37246402E-07  4.96111984E-07  1.33064383E-02 -3.54266797E-03  4.64998188E-03
  1.15523502E-06  9.91123725E-07  4.13179637E-02 -1.89299020E-02  2.29851904E-07
 -1.55431595E-03 -3.57513406E-03  6.60537813E-07 -4.16128583E-08  1.81406114E-03
 -1.00850597E-02 -1.51039976E-02 -3.04783214E-02 -6.19205834E-02 -7.43949657E-02
 -6.69770941E-02  2.03540966E-02 -2.86606101E-02 -5.24216699E-07  5.11995379E-02
 -5.68226353E-02 -7.21070556E-07  9.82867426E-02 -5.69531211E-02  4.59994474E-07
  2.70547835E-03  2.34880659E-07 -4.97914082E-07  1.33148500E-02  3.47298455E-03
  4.66346122E-03  1.14976348E-06 -9.96041894E-07  4.13631977E-02  1.87287566E-02
  2.31047877E-07 -1.54104852E-03  3.58259576E-03  6.60801020E-07  3.74029738E-08
  1.88095345E-03  1.00640410E-02  3.01611081E-02  6.08620591E-02  1.23651768E-01
  1.48572709E-01  1.33777171E-01 -2.91914160E-02  6.05478028E-05  1.28452341E-06
 -4.70442888E-02  1.18062488E-04  2.58525314E-06 -1.99402634E-04  1.09706991E-04
  3.14761468E-06 -5.40432129E-03 -5.84963876E-07  6.52382194E-10  7.23770652E-03
 -2.75368351E-05 -9.32382228E-03 -1.41764390E-06  1.59280678E-09  8.74712949E-03
 -6.13827693E-05 -3.81470997E-07  4.65147830E-03 -7.75184384E-06  4.87679520E-07
 -1.06972469E-09 -3.69676960E-03  2.09990601E-05 -4.34569136E-09 -8.60174477E-09
 -1.55830267E-08 -2.28721967E-08 -2.99677384E-08  1.83462693E-05  9.97512450E-02
 -1.72424986E-09  3.62237195E-05  1.96957183E-01 -3.40426230E-09  3.84685279E-05
  2.09152754E-01 -3.61427014E-09 -9.90644088E-09 -7.60895399E-10 -3.17083670E-06
 -1.47591006E-05 -5.13640421E-03 -1.18410512E-08 -1.92675010E-09 -7.72916403E-06
 -4.19431735E-05 -1.46034189E-02  9.27195873E-10 -4.01474629E-06 -2.18492877E-02
  2.05206266E-09  1.13044355E-06  1.28229917E-09 -6.15758030E-06  2.61417447E-02
  5.27505032E-02  1.07166512E-01  1.28752783E-01  1.15912481E-01  2.86006604E-02
 -1.27084902E-02  2.23170217E-06  5.66998362E-02 -1.43441035E-02  4.26239200E-06
  5.68278222E-02  3.26064460E-02  3.90903722E-06 -4.68171251E-03  8.09532660E-07
 -7.94060407E-07  3.47654846E-03 -9.26494235E-03 -8.06745523E-03  2.06128848E-06
 -1.54453122E-06  1.87515668E-02 -1.96189141E-02 -7.17218303E-07 -3.57455349E-03
  2.59126710E-03 -6.53238461E-08 -9.09628735E-07 -3.22021845E-03 -5.79780553E-03
 -2.61165547E-02 -5.26996732E-02 -1.07063256E-01 -1.28628764E-01 -1.15800887E-01
 -2.86604654E-02 -1.26024456E-02 -2.23082571E-06 -5.68144345E-02 -1.41339359E-02
 -4.26118815E-06 -5.69254297E-02  3.28169752E-02 -3.90980693E-06  4.67720643E-03
 -8.11538919E-07 -7.91578406E-07 -3.53645984E-03 -9.25650617E-03  8.05971926E-03
 -2.06634787E-06 -1.53866948E-06 -1.89002930E-02 -1.95736756E-02  7.16831936E-07
  3.58239534E-03  2.57801085E-03  6.05159549E-08 -9.09948447E-07  3.18160337E-03
 -5.83415546E-03 -2.51775908E-05 -5.08049810E-05 -1.03216238E-04 -1.24015211E-04
 -1.11662550E-04  6.19674371E-05  3.69189629E-02 -1.07177697E-09  1.24854632E-04
  8.40376237E-02 -2.15689282E-09  1.33783240E-04  1.31195012E-01 -2.62545135E-09
  4.51006648E-06  5.57291078E-10  6.79399228E-08 -3.72595304E-05 -1.53259503E-02
  7.77811864E-06  1.36483082E-09  1.78801324E-07 -1.13598322E-04 -5.21851345E-02
  3.18340236E-10 -7.55924366E-06 -3.61111628E-03 -5.93858233E-10 -9.17726284E-08
  3.86040456E-05  1.16244936E-02  2.66702564E-06  5.03410855E-06  9.15963587E-06
  9.37051368E-06  6.96452502E-06 -2.45382604E-06  2.50172565E-09  1.18308577E-01
 -4.57448349E-06  4.65952252E-09  2.20619335E-01 -4.89635786E-06  4.98454697E-09
  2.36189919E-01 -6.19051388E-06 -2.52502244E-05  9.88961316E-08 -6.67760153E-10
 -5.01092854E-12 -1.24623321E-05 -4.21420635E-05  1.57292121E-07 -5.22781311E-10
 -7.33720679E-12 -4.16155449E-02  2.11583432E-06 -2.16491622E-09 -1.17956990E-05
 -2.86943349E-08  2.81803734E-06 -8.60778230E-09 -4.88369883E-07 -9.24590868E-07
 -1.71957006E-06 -1.97445857E-06 -1.51716071E-06 -1.72120686E-06  9.78839934E-07
  5.58860710E-02 -3.53238040E-06  1.96964752E-06  1.15782179E-01 -4.31741470E-06
  1.70876960E-06  1.60928110E-01  1.59033637E-06  1.17569411E-02 -2.04136435E-02
  5.29390949E-08  9.33657960E-07  4.34754510E-06  3.39180204E-02 -5.88934578E-02
  6.51995395E-08  2.54264573E-06 -1.18853104E-02  1.18398589E-06 -1.79139656E-06
 -6.90817957E-03 -1.19068781E-02  6.25081908E-07  3.00564920E-07 -4.88367821E-07
 -9.24586959E-07 -1.71956288E-06 -1.97445096E-06 -1.51715522E-06 -1.72319037E-06
 -9.75328887E-07  5.58859618E-02 -3.53637348E-06 -1.96244474E-06  1.15781985E-01
 -4.32087732E-06 -1.69997245E-06  1.60927946E-01  1.59032922E-06  1.17984546E-02
  2.03896045E-02  4.91358706E-08 -9.33861847E-07  4.34753067E-06  3.40378136E-02
  5.88241568E-02  5.48443889E-08 -2.54288286E-06 -1.18852754E-02  1.18762627E-06
  1.78897345E-06 -6.85960777E-03  1.19348786E-02  6.23231570E-07 -3.04376702E-07
 -4.87803482E-07 -9.23519049E-07 -1.71762023E-06 -1.97240813E-06 -1.51571948E-06
 -3.13821007E-08  3.00553811E-11  5.58560293E-02 -1.31542973E-07  1.30053152E-10
  1.15728099E-01 -1.36862844E-06  1.38944579E-09  1.60881195E-01  3.20634935E-07
 -2.35399557E-02  2.39783748E-05 -1.01235064E-07  2.07080272E-10  6.85300994E-07
 -6.79268502E-02  6.91937897E-05 -1.18208298E-07  2.43534605E-10 -1.18758797E-02
 -5.59887485E-07  5.70280393E-10  1.37548268E-02 -2.80217641E-05  9.96329989E-08
 -3.04992939E-10 -1.18748506E-06 -2.04955644E-06 -5.42179810E-06 -7.49044761E-06
 -4.60184418E-06 -3.84803142E-02 -3.17931832E-06 -7.97093184E-07 -4.38592983E-02
 -3.62101604E-06 -9.07331593E-07 -1.68024208E-02 -1.37616862E-06 -3.45690418E-07
  2.04437926E-06  7.69533039E-06 -5.84416548E-09  1.41931031E-01 -4.45258764E-04
  1.90245363E-06  1.33468672E-05 -1.21064635E-08  2.89341659E-01 -9.07701873E-04
 -2.88261975E-08 -5.66047582E-04 -4.37816013E-08 -5.97492228E-06  1.87883170E-08
 -2.30864968E-05  2.10788686E-07 -2.99790421E-02 -4.96461708E-02 -7.25195022E-02
 -6.52371747E-02 -3.58650972E-02 -8.08712505E-02 -4.22760745E-02 -4.37560491E-06
 -1.27403512E-01 -8.81287356E-02 -6.36741375E-06 -9.68795244E-02 -1.00453671E-01
 -4.00896037E-06 -2.42677317E-03 -3.02054177E-06  9.65982978E-07 -3.76792837E-02
  3.11975371E-02 -1.35956830E-02 -5.47416368E-06  1.10795209E-06 -8.26662002E-02
  5.76725691E-02  7.31954317E-07  6.77106901E-03  5.87923306E-03 -1.27256164E-06
  2.39822353E-06  8.53754072E-03  3.23374385E-02 -3.00935624E-02 -4.98358200E-02
 -7.27965412E-02 -6.54864302E-02 -3.60021605E-02 -8.06918219E-02  4.23702684E-02
 -4.38398333E-06 -1.27029565E-01  8.83319179E-02 -6.37762784E-06 -9.64533514E-02
  1.00693378E-01 -4.01202725E-06 -2.43602484E-03 -3.02145514E-06 -9.65687765E-07
 -3.77374738E-02 -3.10400134E-02 -1.36475634E-02 -5.47173571E-06 -1.10520104E-06
 -8.27737650E-02 -5.72996863E-02  7.32780207E-07  6.74612278E-03 -5.89306118E-03
 -1.27718021E-06 -2.39368139E-06  8.37217262E-03 -3.23479430E-02  6.00710224E-02
  9.94794357E-02  1.45318766E-01  1.30744174E-01  7.18914290E-02 -7.48996647E-03
 -1.08090098E-04  5.25520441E-06  2.55588861E-02 -2.21993929E-04  8.00302776E-06
  7.75232392E-02 -2.49190122E-04  5.62581828E-06  4.85313003E-03 -2.72054579E-06
  1.68664216E-09  1.61927092E-02  2.82447333E-05  2.72136372E-02 -4.73007697E-06
  2.73787398E-09  1.68630242E-02  9.31642147E-05 -9.52736091E-07 -3.42748817E-03
  1.46605883E-05  1.47655210E-06 -1.90175373E-09 -1.69061719E-02  1.05864349E-05
  2.39016979E-08  3.91797188E-08  4.33311686E-08  1.22540422E-08 -1.66181522E-08
 -3.14448787E-06  3.84958820E-02 -8.77076446E-10 -3.58862594E-06  4.38999275E-02
 -9.94044857E-10 -1.39021054E-06  1.68715160E-02 -3.72122764E-10  2.41900325E-08
  6.62422279E-09 -1.81191298E-06  4.45243508E-04  1.41925193E-01  6.09995510E-08
  1.33126514E-08 -1.35219519E-06  9.07744581E-04  2.89349476E-01 -3.24169754E-11
 -4.92364594E-08  5.66176483E-04 -1.88118575E-08 -6.00938555E-06 -1.54152652E-07
 -2.98825777E-05 -5.20556214E-02 -8.62028835E-02 -1.25911327E-01 -1.13260817E-01
 -6.22524742E-02  4.22760557E-02  3.18288182E-02 -3.81429558E-06  8.81295085E-02
  2.51624864E-02 -4.64980082E-06  1.00468701E-01 -1.96699649E-02 -1.39704673E-06
 -4.21522217E-03  4.74970632E-07  2.66147412E-06  3.10795376E-02 -1.79956742E-03
 -2.36088310E-02  2.12164737E-06  3.81081971E-06  5.73715609E-02 -1.63804121E-02
  3.76098964E-07 -5.87857912E-03  4.98642846E-05  2.33231049E-06  2.96008273E-07
  1.46026939E-02 -1.86827519E-02  5.19894678E-02  8.60933351E-02  1.25751339E-01
  1.13116960E-01  6.21734374E-02 -4.23888425E-02  3.20082505E-02  3.80465178E-06
 -8.83578506E-02  2.55365912E-02  4.63577764E-06 -1.00721164E-01 -1.92435632E-02
  1.38823133E-06  4.20983602E-03 -4.76199413E-07  2.66031423E-06 -3.11697433E-02
 -1.74127969E-03  2.35787465E-02 -2.12592333E-06  3.81271390E-06 -5.76201781E-02
 -1.62727166E-02 -3.74488136E-07  5.89351619E-03  2.48995736E-05 -2.33389905E-06
  3.00237363E-07 -1.46981589E-02 -1.86644224E-02  6.60674696E-05  1.09406277E-04
  1.59810147E-04  1.43770651E-04  7.90250560E-05  9.89067446E-05  1.05214122E-01
  5.78563215E-09  2.09549364E-04  1.78166062E-01  8.81140132E-09  2.42911993E-04
  1.54787952E-01  6.19688666E-09  5.34075337E-06 -1.99015138E-09  9.86186768E-07
 -9.55565540E-05 -5.56641187E-02  2.99386249E-05 -3.28036653E-09  1.89160708E-06
 -2.17510387E-04 -1.15909609E-01 -1.04862228E-09 -1.41125770E-05 -1.01544154E-02
 -4.24770096E-10 -1.00639651E-06  9.54691893E-05  3.73362624E-02 -7.09997566E-02
 -1.09983354E-01 -1.36257115E-01 -6.99690485E-02  4.08268447E-02  1.53182103E-05
 -1.50396738E-08  5.07922006E-06 -2.92164907E-06  6.44144217E-08  2.48784176E-06
 -1.92597991E-06  1.00843375E-08 -5.35441515E-06 -4.08655345E-02  1.46075648E-06
 -1.47268499E-09 -7.37818912E-06  5.56010161E-08 -1.37740472E-01  4.93774049E-06
 -5.01305013E-09 -2.20142472E-05  7.13298870E-08 -5.52444846E-07  8.80058514E-06
 -4.41350547E-08  8.99845208E-07 -1.83968440E-09  3.55224348E-02 -1.08521278E-04
  7.67103320E-02  1.18737551E-01  1.55271742E-01  1.39429041E-01  1.03213235E-01
 -2.48630452E-02  4.31725411E-02  1.22631888E-06 -5.21030821E-02  9.04660730E-02
  4.51159459E-07 -4.85750757E-02  8.43267625E-02 -1.79967913E-06  2.58777045E-03
  1.00705148E-06 -1.20824225E-06  9.79198371E-03  1.68734622E-02  1.41580563E-02
  9.74221994E-07 -4.48842475E-07  2.96605303E-02  5.11221065E-02 -1.14802946E-06
  3.47445028E-04 -6.04835174E-04 -1.90783306E-07 -8.02012657E-07  1.17031312E-02
 -3.87226802E-05  7.67104218E-02  1.18737690E-01  1.55271943E-01  1.39429266E-01
  1.03213396E-01 -2.49509290E-02 -4.31217577E-02  1.22630043E-06 -5.22872212E-02
 -9.03596584E-02  4.51136851E-07 -4.87467798E-02 -8.42276578E-02 -1.79969382E-06
  2.58776752E-03  1.00950218E-06  1.20618151E-06  9.72312947E-03 -1.69131614E-02
  1.41580472E-02  9.75122998E-07  4.46852045E-07  2.94519610E-02 -5.12423908E-02
 -1.14802439E-06  3.48674297E-04  6.04116027E-04 -1.87515912E-07  8.02778302E-07
  1.17030958E-02 -3.27901854E-05  7.67212167E-02  1.18754437E-01  1.55299121E-01
  1.39466352E-01  1.03242533E-01  4.98027678E-02 -5.06812756E-05  2.76842838E-06
  1.04357992E-01 -1.06217301E-04  3.68796996E-06  9.73080123E-02 -9.90409988E-05
  1.22110975E-06  2.58444831E-03 -2.29139971E-06  2.33529363E-09 -1.94940628E-02
  3.96897062E-05  1.41481647E-02 -3.46992359E-06  3.53764297E-09 -5.90674705E-02
  1.20279600E-04 -1.19925934E-06 -6.93231624E-04  7.02408791E-07  1.26727719E-06
 -2.58299826E-09  1.16917754E-02 -3.57117550E-05  1.59495409E-11  2.36569870E-11
  2.43829037E-11  5.46035330E-12 -1.62943102E-11 -2.50695463E-08  1.24264196E-05
  2.42280043E-08 -2.99662512E-08  1.48545161E-05 -1.29298019E-07 -1.55516500E-08
  7.71239764E-06 -3.68002261E-07 -2.15447312E-08 -3.98521277E-04  1.97544805E-01
 -1.02725911E-08 -6.92811419E-06 -3.68640397E-08 -6.82633522E-04  3.38349531E-01
  2.09760364E-09 -7.98329354E-06 -9.52926806E-08  2.02059569E-08 -1.92129293E-05
 -4.72959235E-04 -9.32601546E-02  1.44153760E-08  2.36708692E-06 -6.03705464E-06
 -8.95622394E-06 -1.05846880E-05 -8.18327940E-06 -3.64543851E-06 -3.77035912E-06
  2.82914412E-06  1.41192019E-01 -4.04615219E-06  1.78677113E-06  2.07967120E-01
 -5.43112508E-07 -1.40448107E-06  1.46138413E-01  8.17430301E-06  5.11005042E-02
 -5.98457367E-02  1.69718853E-07  3.96092150E-06  1.34733003E-05  9.18079377E-02
 -9.52512537E-02 -9.06132026E-07  5.46557178E-06 -3.21580056E-02  5.01109948E-06
 -7.15055139E-06 -1.20495747E-02 -4.37532104E-02  2.72480955E-06  1.34886721E-06
  6.01589724E-06  8.92483609E-06  1.05475942E-05  8.15460173E-06  3.63265524E-06
  3.75462962E-06  2.81639577E-06 -1.40698079E-01  4.02200467E-06  1.78023496E-06
 -2.07239699E-01  5.20709480E-07 -1.39039388E-06 -1.45627603E-01 -8.15198737E-06
 -5.12184187E-02 -5.94309028E-02 -1.45729320E-07  3.94772729E-06 -1.34401476E-05
 -9.20695244E-02 -9.45058871E-02  9.44051362E-07  5.44429091E-06  3.20454419E-02
 -5.01772728E-06 -7.11505363E-06  1.16890866E-02 -4.37294008E-02 -2.70342895E-06
  1.36620989E-06  2.11075383E-08  3.13139173E-08  3.70087117E-08  2.86147987E-08
  1.27450215E-08  1.58765619E-09  1.36791851E-06 -4.94128490E-04  1.24186378E-08
  2.25234239E-06 -7.27927349E-04  2.21710985E-08  2.92051459E-06 -5.11765795E-04
 -1.24446766E-08  3.00130330E-04  2.89431714E-02  4.78744281E-09  6.68379258E-09
 -1.94601283E-08  5.14696420E-04  6.43042155E-02  3.92905165E-09  4.52994922E-07
  1.12502171E-04  1.32315593E-08  7.61418379E-08 -2.00715489E-04 -2.31573075E-02
 -4.26475059E-09  9.56050957E-08 -2.61607662E-09 -3.88151888E-09 -4.01673927E-09
 -8.67825684E-10  2.82639207E-09  1.24264427E-05  2.50718276E-08 -3.70378777E-07
  1.48549296E-05  2.99717495E-08  2.51321824E-05  7.71099775E-06  1.55614726E-08
  6.19767919E-05  7.09437133E-06  1.97529346E-01  3.98544730E-04 -1.26354527E-06
 -1.84603887E-08  1.21460140E-05  3.38358170E-01  6.82630939E-04 -6.04492819E-06
 -1.19307271E-08  1.44706640E-05 -1.30986920E-05 -4.49821579E-08  9.32071706E-02
 -4.72905100E-04 -2.36588298E-06  1.44048978E-08  3.46373824E-06  5.13846704E-06
  6.07252599E-06  4.69516316E-06  2.09276034E-06  3.52469063E-06 -8.33477599E-07
 -8.09336013E-02  4.56416380E-06  2.73972790E-07 -1.19205953E-01  3.22392502E-06
  2.48754269E-06 -8.37492153E-02 -3.64792589E-06 -3.61289237E-04  5.09781561E-02
 -1.30328367E-06 -2.26331311E-06 -5.41717876E-06  1.16477432E-02  9.16368803E-02
 -2.59702937E-06 -2.86321313E-06  1.84368604E-02 -1.27934910E-06  4.14195041E-06
  3.00198240E-02  1.16786197E-02 -2.14619553E-06  1.36983380E-07  3.50032992E-06
  5.19275096E-06  6.13667806E-06  4.74476302E-06  2.11485940E-06  3.54924048E-06
  8.43403472E-07 -8.17893738E-02  4.58810260E-06 -2.72472452E-07 -1.20466481E-01
  3.22207800E-06 -2.50259554E-06 -8.46350586E-02 -3.69748522E-06 -7.76153810E-04
 -5.13390392E-02 -1.29495794E-06  2.29260970E-06 -5.49888299E-06  1.09021450E-02
 -9.22358470E-02 -2.57965079E-06  2.90687729E-06  1.86317589E-02 -1.31827172E-06
 -4.18260559E-06  3.00434692E-02 -1.20665362E-02 -2.16344037E-06 -1.15572763E-07
 -6.95553602E-06 -1.03185659E-05 -1.21945938E-05 -9.42899037E-06 -4.20085540E-06
 -6.69823036E-08  4.21660260E-09  1.62753407E-01 -3.33965326E-06  1.02329449E-08
  2.39752824E-01 -6.32650496E-06  1.53052421E-08  1.68536264E-01  4.09943644E-06
 -8.91544038E-02  1.78685537E-04 -1.57153925E-06  3.22486220E-09  6.41020205E-06
 -1.47965517E-01  3.45946705E-04 -9.88214503E-07  3.39280884E-09 -3.70588310E-02
 -4.33305960E-06  4.64538308E-09  5.05784358E-02 -1.73341519E-04  1.50020901E-06
 -4.29628150E-09  4.12016317E-05  5.52959394E-05  4.32108709E-05 -1.35042279E-06
 -2.50185137E-05 -2.12787463E-01 -4.46083154E-06 -4.41463367E-06 -1.67209182E-01
 -3.53158985E-06 -3.46634045E-06  7.36471001E-02  1.54220323E-06  1.52991034E-06
  1.57203284E-05  1.45149918E-05  6.72811303E-09 -1.48942335E-01  4.58212696E-04
  5.66981731E-05  1.43586885E-05  5.84651614E-09 -1.28382877E-01  3.95002283E-04
  2.18658804E-06  4.30384611E-02  9.08232088E-07  9.09786011E-06 -3.09190509E-08
  2.16259174E-06  8.96452656E-08 -2.70447541E-02 -3.60632212E-02 -3.38078014E-02
 -3.49139423E-02 -4.83959424E-02  9.59042922E-02 -7.91500744E-02  3.97846075E-06
  1.18046369E-01 -9.67286816E-02  4.71625460E-06  7.84865187E-02 -4.07645717E-02
  2.38591769E-06 -1.65764413E-02  2.61987293E-06 -1.19431119E-06 -2.31104817E-02
 -3.10929330E-02 -1.73332122E-02  3.58032064E-06 -8.88484130E-07 -4.27164913E-02
 -3.20535332E-02 -1.38925788E-06 -5.96223936E-03  1.30469796E-02 -2.43090040E-07
 -2.09763919E-06 -2.29672163E-02  2.19896397E-03 -2.71423890E-02 -3.61934145E-02
 -3.39298561E-02 -3.50399467E-02 -4.85705259E-02  9.62305190E-02  7.93444033E-02
  3.98904778E-06  1.18445100E-01  9.69662354E-02  4.72860460E-06  7.86546111E-02
  4.08659689E-02  2.39040652E-06 -1.66362374E-02  2.62425288E-06  1.19804266E-06
 -2.30481539E-02  3.13098217E-02 -1.73957698E-02  3.58345528E-06  8.93159295E-07
 -4.26520522E-02  3.23935316E-02 -1.39455241E-06 -6.01601165E-03 -1.30785727E-02
 -2.39332537E-07  2.10396174E-06 -2.30630533E-02 -2.05572844E-03  5.42285677E-02
  7.23121991E-02  6.77912969E-02  6.99831818E-02  9.69596595E-02  2.33363923E-01
 -1.85332120E-04  8.53533928E-07  2.86065926E-01 -2.26498456E-04  1.38842100E-06
  1.49356525E-01 -9.49169594E-05  1.58036013E-06  3.32202971E-02  6.66153353E-07
  1.70574177E-09 -7.70768221E-02  1.62215952E-04  3.47601019E-02  9.43026679E-07
  3.42240165E-09 -9.84388657E-02  2.25460853E-04  7.22983148E-07 -2.86139621E-02
  3.07472866E-05 -7.37470874E-07  1.93463170E-10  4.59981187E-02 -1.43061968E-04
 -1.96020225E-07 -2.62939005E-07 -2.07287003E-07 -2.64783614E-09  1.10079238E-07
  4.56535203E-06 -2.12831563E-01  4.60243164E-09  3.56033081E-06 -1.67202264E-01
  3.60310948E-09 -1.58208803E-06  7.36757612E-02 -1.60207278E-09 -8.78439864E-08
  5.98330605E-09  2.06939616E-05  4.58196329E-04  1.48959301E-01 -2.82525421E-07
  5.12772920E-09  1.96789101E-05  3.94713705E-04  1.28334024E-01 -2.27590399E-09
 -9.17227149E-07  4.30394731E-02 -3.37415206E-08 -1.19224409E-05  9.36355990E-08
  2.76785213E-05  4.69581405E-02  6.26151103E-02  5.86948691E-02  6.06183036E-02
  8.40225341E-02 -7.92046291E-02  1.87768163E-01 -5.10104520E-06 -9.67908050E-02
  2.30301873E-01 -5.95003835E-06 -4.08033357E-02  1.25823968E-01 -2.16435394E-06
  2.87873055E-02 -9.37220747E-07  4.36777317E-06  3.13148975E-02  5.90755372E-02
  3.00989703E-02 -6.37957322E-07  5.75985928E-06  3.23741567E-02  7.98369340E-02
  2.55087570E-06  1.30539943E-02 -2.11022782E-02  2.31491256E-06  2.56895464E-06
  3.98834143E-02  1.12304256E-03 -4.69019229E-02 -6.25401494E-02 -5.86246055E-02
 -6.05456586E-02 -8.39217109E-02  7.93870039E-02  1.87441924E-01  5.09275895E-06
  9.70136689E-02  2.29903294E-01  5.94021620E-06  4.08961303E-02  1.25656093E-01
  2.15938085E-06 -2.87527985E-02  9.40668795E-07  4.36336733E-06 -3.10260868E-02
  5.91375444E-02 -3.00629700E-02  6.42255240E-07  5.75669672E-06 -3.19600396E-02
  7.99008800E-02 -2.54798039E-06 -1.30844607E-02 -2.10484971E-02 -2.30392773E-06
  2.57399304E-06 -3.98278549E-02  1.37098727E-03 -5.63737711E-05 -7.51704130E-05
 -7.04644382E-05 -7.27447164E-05 -1.00783203E-04 -1.91425831E-04  5.03173517E-02
 -8.82989016E-10 -2.33972238E-04  6.23433303E-02 -1.43828709E-09 -9.93141522E-05
  5.50203167E-02 -1.64337929E-09 -3.45598581E-05  1.63313387E-09  2.28993690E-06
  9.04012588E-05  5.06122434E-03 -3.61708058E-05  3.29756947E-09  4.20982689E-06
  1.51254574E-04  2.40596065E-02 -7.55010013E-10  3.13424915E-05  1.55040825E-03
 -1.78754146E-09 -1.25553766E-06 -5.52878843E-05 -2.45292207E-03  3.19684952E-11
  3.84191894E-11  2.35074211E-11 -7.85599478E-12 -2.50146534E-11 -1.88513564E-07
 -2.76860433E-05 -3.32642220E-12 -6.84025705E-08 -1.01311076E-05 -1.20565809E-12
  1.71133198E-07  2.25126655E-05  3.07163933E-12 -1.29911208E-11  1.74678583E-11
 -7.96720836E-10  1.53532446E-07 -1.00857983E-04  6.44876911E-12  3.63117487E-12
 -1.79265684E-09  8.00736437E-08 -3.87583862E-05  5.74436068E-12  1.38994330E-07
  2.53901592E-05  2.11775208E-08  1.04075425E-05  1.25189469E-03  4.09784671E-01
 -2.14105800E-05 -2.53705365E-05 -1.74849674E-05 -1.75588497E-05 -1.56270768E-05
 -1.51356925E-01 -8.72461410E-02 -3.13531140E-06 -1.66158376E-01 -9.57683334E-02
 -3.44228546E-06 -6.33861701E-02 -3.65485342E-02 -1.31381338E-06  1.11504070E-05
 -1.15999900E-05 -4.13616077E-06 -1.06298551E-01  6.16397669E-02  2.61752463E-05
 -1.39806721E-05 -5.58219358E-06 -1.03123920E-01  5.98096637E-02  8.97073737E-07
  1.76705179E-02  1.01740821E-02 -1.03097913E-05  7.82270294E-06  2.74123041E-04
  9.88826628E-02  2.15703071E-05  2.55607218E-05  1.76195471E-05  1.76471242E-05
  1.56576043E-05  1.51179139E-01 -8.75544793E-02  3.13531573E-06  1.65963429E-01
 -9.61069517E-02  3.44229339E-06  6.33121934E-02 -3.66780309E-02  1.31382484E-06
 -1.11975470E-05  1.15914895E-05 -4.15974563E-06  1.06548201E-01  6.12060641E-02
 -2.62522068E-05  1.39692187E-05 -5.61061844E-06  1.03366179E-01  5.93889794E-02
 -8.97075529E-07 -1.76497261E-02  1.02100054E-02  1.03415275E-05  7.78062051E-06
  3.30023017E-04  9.88822181E-02 -1.59622029E-07 -1.90059894E-07 -1.34499607E-07
 -8.82532628E-08 -3.05640403E-08  1.77850141E-04  1.74758329E-01 -2.10413643E-12
  1.95288824E-04  1.91901057E-01 -1.38733658E-12  7.45546929E-05  7.33260605E-02
 -1.58418673E-12  4.71419033E-08  8.44116648E-09  8.28319485E-06 -2.50100043E-04
 -1.22751630E-01  7.69750682E-08  1.13896275E-08  1.11793581E-05 -2.42738349E-04
 -1.19115737E-01  2.42818385E-12 -2.07754434E-05 -2.03803546E-02 -1.64294324E-08
 -8.06475344E-06  3.01929609E-04  9.88223342E-02 -3.55689536E-02 -4.13920743E-02
 -3.39472478E-02  3.44583017E-02  1.25074984E-01  9.52058904E-05 -3.74673613E-07
  2.36582076E-05  2.48114976E-05 -8.56589298E-08  2.24347000E-05 -6.15689521E-05
  2.48948485E-07  1.27654536E-05  3.42942758E-01 -1.23237282E-05  1.25719613E-08
 -6.49903761E-05  1.22258358E-08  3.73315500E-01 -1.34118186E-05  1.36689362E-08
 -8.41405821E-05 -5.70780216E-08 -1.48994572E-05 -1.18451355E-04  4.75070432E-07
 -2.28802424E-06  4.65129947E-09 -9.03768943E-02  2.76102127E-04 -1.87987634E-02
 -2.14336166E-02 -1.17129299E-02  2.00596514E-02  7.45092584E-02 -4.98868336E-02
  8.64777046E-02 -9.74008930E-06 -3.44610397E-02  5.96724909E-02 -7.51690430E-06
  2.14516528E-02 -3.74155879E-02  4.72134522E-06  1.36693908E-01 -1.34185745E-05
  1.64577756E-05  2.33416398E-02  4.00527329E-02  1.76952174E-01 -1.63643860E-05
  1.82580723E-05  1.20737475E-02  2.05468311E-02  1.06485580E-05  3.58043388E-02
 -6.21856168E-02  3.38012954E-06  9.13458537E-06  1.69989219E-02 -9.08570160E-05
 -1.87984138E-02 -2.14332207E-02 -1.17127155E-02  2.00596584E-02  7.45091115E-02
 -5.00629892E-02 -8.63757916E-02 -9.74007076E-06 -3.45827468E-02 -5.96021483E-02
 -7.51690333E-06  2.15275284E-02  3.73718993E-02  4.72132338E-06  1.36693377E-01
 -1.34519877E-05 -1.64303530E-05  2.31785467E-02 -4.01472556E-02  1.76951509E-01
 -1.64014486E-05 -1.82246549E-05  1.19903593E-02 -2.05956689E-02  1.06484978E-05
  3.59307146E-02  6.21123311E-02  3.34289430E-06 -9.14822438E-06  1.69992121E-02
 -1.28659777E-05 -1.86962321E-02 -2.13175494E-02 -1.16490983E-02  2.00686839E-02
  7.44766483E-02  9.98422138E-02 -1.01491608E-04 -6.62909711E-06  6.89501113E-02
 -6.99845420E-05 -5.37063383E-06 -4.30976199E-02  4.41720886E-05  3.37804065E-06
  1.36547276E-01  1.21413643E-05 -1.23762317E-08 -4.63357515E-02  9.46964703E-05
  1.76764380E-01  1.37063687E-05 -1.39740794E-08 -2.38358798E-02  4.89830860E-05
  5.17387883E-06 -7.16744928E-02  7.30445595E-05 -5.41383084E-06  1.10356563E-08
  1.70170497E-02 -5.21286172E-05  2.83575846E-01  3.15475159E-01  1.63065953E-01
  2.40809091E-02 -3.62464302E-02  5.77047876E-05 -2.63712686E-07 -2.79962100E-06
  6.51714228E-05 -2.92600320E-07  1.59641675E-06 -3.92672098E-05  1.50488537E-07
  7.94877962E-07  3.72342434E-02 -1.34082608E-06  1.37836973E-09 -6.16578296E-06
 -9.80815029E-09  9.34402753E-02 -3.36111973E-06  3.44439039E-09  8.50815821E-06
  1.26969538E-08  1.73225600E-06 -5.57395335E-05  2.33667671E-07  1.53493595E-06
 -3.12408822E-09  6.02963587E-02 -1.84205784E-04  3.19717196E-02  3.55922975E-02
  2.11063707E-02  1.71409183E-02  1.04361315E-02 -6.56223556E-02  1.13835987E-01
 -7.17607145E-06 -7.03586644E-02  1.22047123E-01 -7.43249945E-06 -5.43697160E-02
  9.42976619E-02 -4.14339497E-06 -2.25218518E-02  1.50868684E-06 -5.67979925E-06
 -6.22459762E-02 -1.07422485E-01 -3.65075408E-02  2.73172243E-06 -9.12297053E-06
 -9.28005450E-02 -1.60146891E-01 -7.24620258E-08 -3.34022400E-03  5.78536072E-03
 -1.89267893E-06 -1.75535346E-06 -4.30818041E-02  1.09631689E-04  3.19718098E-02
  3.55923979E-02  2.11064254E-02  1.71408939E-02  1.04360139E-02 -6.58539939E-02
 -1.13701709E-01 -7.17605244E-06 -7.06070401E-02 -1.21903189E-01 -7.43248475E-06
 -5.45616755E-02 -9.41865031E-02 -4.14339248E-06 -2.25219421E-02  1.52026246E-06
  5.67672221E-06 -6.18077071E-02  1.07675081E-01 -3.65076104E-02  2.75030399E-06
  9.11738492E-06 -9.21471424E-02  1.60523427E-01 -7.24783112E-08 -3.35204984E-03
 -5.77859060E-03 -1.88551093E-06  1.76305571E-06 -4.30815764E-02  1.53639497E-04
  3.20001508E-02  3.56239263E-02  2.11236382E-02  1.71363635E-02  1.04061956E-02
  1.31303729E-01 -1.33576532E-04 -3.08677683E-06  1.40787857E-01 -1.43217379E-04
 -3.04925603E-06  1.08804024E-01 -1.10666197E-04 -7.57968837E-07 -2.25482538E-02
 -6.02557907E-07  6.17397989E-10  1.24117156E-01 -2.52653700E-04 -3.65302397E-02
 -1.54610190E-06  1.58008170E-09  1.85022158E-01 -3.76635874E-04  4.33839041E-07
  6.69776777E-03 -6.79976761E-06  5.00062381E-07 -1.01937973E-09 -4.30573519E-02
  1.31498902E-04 -4.95695233E-05 -5.26719034E-05 -9.89787828E-06 -1.71569039E-05
 -6.84046719E-05  1.24679410E-01  7.57623512E-06  2.59608463E-06  7.33999610E-02
  4.45671721E-06  1.52775144E-06 -5.73277475E-02 -3.48277730E-06 -1.20442947E-06
 -2.07444255E-04 -1.17143804E-05  7.11952498E-09 -1.75313896E-01  5.46146372E-04
 -2.14554199E-04 -6.43673440E-06  5.54478566E-09 -1.32912456E-01  4.14027467E-04
 -4.26785037E-06 -8.36607010E-02 -5.03330928E-06  1.50570013E-05 -4.09672859E-08
  1.11863915E-04  5.18104377E-07 -3.62911745E-02 -3.92442602E-02 -1.98166289E-02
 -1.21375553E-02 -4.80568277E-03 -9.97261316E-02 -9.95595237E-02 -3.64351966E-06
 -1.20651364E-01 -1.06947730E-01 -4.22865331E-06 -1.26402974E-01 -9.81658499E-02
 -3.75529650E-06  3.50772041E-02  8.87492212E-06  6.02639673E-06  1.95480441E-01
 -8.83407335E-02  5.07357985E-02  1.21063757E-05  7.44661052E-06  2.61983664E-01
 -1.12413663E-01  1.26529607E-06 -1.33092221E-02 -2.24779755E-02  5.03186680E-06
 -2.39494072E-06 -6.99651545E-03 -7.75798336E-02 -3.64270548E-02 -3.93911980E-02
 -1.98908225E-02 -1.21829070E-02 -4.82346864E-03 -9.93076942E-02  9.97950904E-02
 -3.64494520E-06 -1.20201830E-01  1.07199271E-01 -4.23030076E-06 -1.25990598E-01
  9.83952681E-02 -3.75509479E-06  3.52087348E-02  8.83699714E-06 -6.05527261E-06
  1.95649135E-01  8.73412843E-02  5.09259596E-02  1.20582276E-05 -7.48340307E-06
  2.62198027E-01  1.11059346E-01  1.27506421E-06 -1.32148342E-02  2.25325390E-02
  5.03690807E-06  2.36363335E-06 -6.54793844E-03  7.75249675E-02  7.27358223E-02
  7.86551712E-02  3.97151101E-02  2.42546527E-02  9.47138343E-03  7.28037644E-02
 -2.43200876E-04  4.65285195E-06  6.47898180E-02 -2.62187477E-04  4.77843036E-06
  4.40044153E-02 -2.42011872E-04  3.13802222E-06 -7.04803846E-02 -4.22861075E-06
  1.02557867E-08  4.34520141E-02 -3.54396132E-04 -1.01870400E-01 -3.51735561E-06
  1.15348634E-08  6.84815800E-02 -4.91990772E-04 -2.61190472E-06  2.58065994E-02
 -5.46351166E-05  2.32030775E-06 -7.22318383E-09  1.34970321E-02  5.55441049E-05
 -2.00341865E-07 -2.12951297E-07 -4.02034328E-08 -6.27197053E-08 -2.59786818E-07
  7.46291887E-06 -1.24650244E-01  2.73342472E-09  4.39768803E-06 -7.33952503E-02
  1.58724533E-09 -3.43102314E-06  5.72932843E-02 -1.30926634E-09 -7.96801987E-07
 -8.07326765E-09  4.44549238E-06 -5.46108043E-04 -1.75293025E-01 -8.26053488E-07
 -5.97174992E-09  9.28482458E-07 -4.14274525E-04 -1.32967344E-01 -4.57209737E-09
 -5.06114779E-06  8.36919617E-02  3.57007956E-08  9.55595452E-06 -2.01633657E-07
 -1.67773404E-04 -6.30143338E-02 -6.81391301E-02 -3.44000178E-02 -2.10336544E-02
 -8.26177987E-03  9.95330636E-02 -1.55963673E-02 -6.60955499E-07  1.06936995E-01
 -3.28015721E-03 -7.62755449E-07  9.81506524E-02  1.25291097E-02  9.49457470E-08
  6.10643304E-02 -1.18911718E-05  5.04424009E-06 -8.74095166E-02  9.41790624E-02
  8.82717569E-02 -1.52850924E-05  5.67188596E-06 -1.11191185E-01  1.33070979E-01
  4.53497807E-06  2.25024911E-02 -1.28338312E-02 -2.15387690E-06  5.02148433E-06
 -1.16029862E-02  4.46729331E-02  6.29359545E-02  6.80543777E-02  3.43572230E-02
  2.10073092E-02  8.25108546E-03 -9.97788632E-02 -1.51778340E-02  6.53176136E-07
 -1.07202843E-01 -2.83070749E-03  7.53712985E-07 -9.83969142E-02  1.29412706E-02
 -1.03014854E-07 -6.09888137E-02  1.19205245E-05  5.00695316E-06  8.82145958E-02
  9.40110219E-02 -8.81624240E-02  1.53226710E-05  5.62459045E-06  1.12298168E-01
  1.32856876E-01 -4.53224927E-06 -2.25571932E-02 -1.27395390E-02  2.18517537E-06
  5.01779472E-06  1.18614708E-02  4.47684794E-02  7.84651632E-05  8.48472433E-05
  4.28319490E-05  2.61027713E-05  1.00845939E-05  2.38203716E-04  1.57039582E-01
  5.03759733E-09  2.55252581E-04  1.82207613E-01  5.17078815E-09  2.33717383E-04
  1.82897157E-01  3.38636744E-09 -7.62781052E-05 -1.01755979E-08 -5.50500014E-06
  5.48633969E-04  2.46337758E-01 -1.10174716E-04 -1.12934800E-08 -7.36048227E-06
  7.39124349E-04  3.26651099E-01 -2.82398703E-09  5.46895162E-05  2.62509986E-02
  7.20356005E-09  2.30502672E-06 -2.59064122E-04 -8.95522231E-02 -1.10477595E-05
 -1.18456842E-05 -5.21297577E-06 -2.08312918E-06 -1.33055213E-06  4.20243025E-06
 -4.27427553E-09 -2.01704730E-01  3.33294480E-06 -3.38484921E-09 -1.60264706E-01
 -1.38372058E-06  1.41952081E-09  6.61286355E-02  1.65284933E-05  7.55927036E-05
 -2.84383476E-07 -1.86576958E-08  8.78223396E-11  9.69668806E-06 -3.61577737E-05
  2.04321233E-07 -1.56091024E-08  5.41745039E-11  1.80463302E-01 -9.18548876E-06
  9.39630151E-09  9.26849510E-05  2.34383277E-07 -9.24501540E-06  2.82329455E-08
  4.94742319E-06  5.33048992E-06  2.58086243E-06  8.29733515E-07 -1.14179872E-06
 -3.47730134E-06  2.06906695E-06  1.09373799E-01 -4.14050021E-06  2.56623952E-06
  1.27382465E-01 -4.97368359E-06  4.26848208E-06  1.20236767E-01 -2.26925624E-05
 -9.78256633E-02  1.69744981E-01 -2.47808361E-06 -1.13483055E-05 -2.89237167E-05
 -1.25732635E-01  2.18166290E-01 -3.03653208E-06 -1.43292436E-05  5.18850598E-02
 -7.70438515E-06  1.21606845E-05  2.96941128E-02  5.12364981E-02 -2.10499602E-06
 -1.30814017E-06  4.94741981E-06  5.33048617E-06  2.58086010E-06  8.29730741E-07
 -1.14180369E-06 -3.48145742E-06 -2.06196441E-06  1.09373232E-01 -4.14565908E-06
 -2.55777837E-06  1.27381746E-01 -4.98231702E-06 -4.25832625E-06  1.20236126E-01
 -2.26924665E-05 -9.81709152E-02 -1.69544579E-01 -2.43183611E-06  1.13582476E-05
 -2.89236108E-05 -1.26176449E-01 -2.17908833E-01 -2.97814518E-06  1.43414246E-05
  5.18848116E-02 -7.72910499E-06 -1.21449032E-05  2.94849337E-02 -5.13568160E-02
 -2.09694983E-06  1.32097154E-06  4.96546963E-06  5.34990054E-06  2.59041396E-06
  8.34920489E-07 -1.14086821E-06  1.39626536E-07 -1.67638034E-10  1.09213939E-01
  3.38540360E-07 -3.71313163E-10  1.27184154E-01  2.44813568E-06 -2.51584867E-09
  1.20064499E-01 -1.21442913E-05  1.95703559E-01 -1.99108047E-04  4.97484149E-06
 -1.01502616E-08 -1.53709858E-05  2.51559464E-01 -2.55928032E-04  6.10124354E-06
 -1.24564775E-08  5.18235586E-02  7.51587898E-06 -7.65054091E-09 -5.91474826E-02
  1.20369094E-04  1.57312532E-07 -4.77858590E-10 -1.99253067E-09 -2.07514001E-09
 -1.37829372E-09 -8.06935804E-10  7.18182313E-10 -6.43558831E-06  1.15087815E-08
 -8.44112510E-05 -2.66997692E-06  4.76472961E-09 -9.74725737E-05  4.59671310E-06
 -8.23839917E-09 -2.86552332E-06 -5.82346957E-06 -1.62426975E-01  2.90795496E-04
 -4.36911758E-06  3.08793032E-10 -2.87016396E-06 -8.02636502E-02  1.43478178E-04
 -1.27605827E-06 -9.55542935E-10  7.07196876E-05  1.81387753E-05 -3.99282775E-08
 -1.46784753E-01  1.85552186E-04  3.72080837E-06 -8.48897358E-09  2.32755310E-06
  2.41199814E-06  9.69792338E-07  3.46904676E-07 -1.70186489E-07  2.46655025E-06
 -3.18504771E-06 -1.07860374E-01  3.65692114E-06 -3.66611213E-06 -1.22764687E-01
  2.83197331E-06 -3.05541265E-06 -9.65605566E-02  1.09754513E-05  8.80195488E-02
 -1.11578874E-01 -1.49571404E-06  7.58966805E-06  1.28017762E-05  1.04537020E-01
 -1.33426071E-01 -4.55287590E-07  7.85609857E-06 -2.78789063E-02  5.34119281E-06
 -4.18535670E-06 -7.60553048E-03 -4.00829989E-02  2.76940826E-06  3.06622706E-06
  2.32131947E-06  2.40553834E-06  9.67196085E-07  3.45982620E-07 -1.69719464E-07
  2.46211507E-06  3.17399264E-06 -1.07572203E-01  3.65189292E-06  3.65042398E-06
 -1.22436661E-01  2.82810762E-06  3.04292591E-06 -9.63025412E-02  1.09484037E-05
  8.80743058E-02  1.11064877E-01 -1.53115454E-06 -7.56664927E-06  1.27702313E-05
  1.04602566E-01  1.32814045E-01 -4.90839831E-07 -7.83417198E-06 -2.78043674E-02
  5.34350657E-06  4.16019913E-06 -7.38046628E-03  4.00304218E-02  2.74217788E-06
 -3.08278786E-06 -4.64698044E-06 -4.81558172E-06 -1.93596290E-06 -6.90186238E-07
  3.44098455E-07  1.28271006E-06 -5.34372735E-11  2.15692529E-01  2.37283562E-06
 -1.62978428E-09  2.45466399E-01  2.11664979E-06 -1.42785811E-09  1.93035671E-01
 -5.52082486E-06  2.81157864E-01 -3.04832331E-04  3.62195153E-06 -9.09274673E-09
 -6.03695480E-06  3.35548888E-01 -3.63309757E-04  3.56445617E-06 -7.75870797E-09
  5.57380858E-02  3.78319060E-06 -5.40564854E-09 -7.69290157E-02  1.68813743E-04
 -3.17606537E-06  1.12296012E-08  8.12787716E-12  8.42063220E-12  4.41360258E-12
  2.88089827E-12  3.40775184E-13 -1.15325954E-08 -6.43183892E-06  2.16132056E-07
 -4.79384209E-09 -2.66551241E-06  2.55871278E-07  8.22545192E-09  4.60006825E-06
  1.83107904E-08 -4.52096363E-09 -2.90757718E-04 -1.62422826E-01  1.92694881E-08
  1.11111148E-05 -2.25954959E-09 -1.43736335E-04 -8.01714887E-02  8.39835393E-09
  4.60401799E-06 -1.72561905E-07  4.22812585E-08  2.77740922E-05  1.85813880E-04
  1.46836858E-01 -8.51422222E-09 -3.73016011E-06 -4.02680231E-06 -4.17288046E-06
 -1.67745593E-06 -5.97980253E-07  2.98276277E-07 -7.05556993E-06  3.91312229E-06
  1.86621166E-01 -8.06642235E-06  5.34664545E-06  2.12403692E-01 -6.51388367E-06
  4.35816928E-06  1.67050317E-01 -1.75127414E-05 -1.11113047E-01  2.16785906E-01
 -2.98586311E-06 -1.08916695E-05 -2.04290455E-05 -1.32871482E-01  2.58521108E-01
 -2.35273619E-06 -1.29313503E-05  4.82424567E-02 -3.98671374E-06  9.24675940E-06
  4.01890629E-02  5.36782698E-02 -5.46215490E-06 -1.60404862E-07  4.03037526E-06
  4.17658303E-06  1.67894434E-06  5.98510877E-07 -2.98540595E-07  7.06737648E-06
  3.90366116E-06 -1.86788074E-01  8.08298351E-06  5.33585360E-06 -2.12593565E-01
  6.52714524E-06  4.34959829E-06 -1.67199561E-01  1.75297001E-05  1.11690595E-01
  2.16731497E-01  2.93910655E-06 -1.09154712E-05  2.04488416E-05  1.33559626E-01
  2.58456215E-01  2.29928664E-06 -1.29529924E-05 -4.82855360E-02  4.01379877E-06
  9.24506473E-06 -3.99816104E-02  5.39034229E-02  5.46530738E-06 -1.98534523E-07
 -3.58220896E-09 -3.71216065E-09 -1.49295697E-09 -5.36148841E-10  2.59132400E-10
 -6.59675295E-10 -1.60667774E-06  1.66232099E-04  8.01072691E-10 -1.00241301E-06
  1.89191377E-04  6.79023780E-10 -9.31504891E-07  1.48803931E-04 -4.25926175E-09
  2.40938230E-04  2.38189774E-02  7.33083792E-09  2.23484336E-06 -4.65578411E-09
  2.86864458E-04  2.77767545E-02  4.07923869E-09  6.64109017E-07  4.29484013E-05
  4.96326352E-09  2.00960133E-06 -9.11573730E-05 -1.56447443E-02 -8.49647781E-09
 -1.97950605E-06 -1.44590439E-01 -1.44765861E-01 -3.19074250E-02 -1.68609679E-02
 -6.70201675E-02 -3.73087788E-05  6.45116203E-08 -9.27754443E-06 -2.50156141E-05
  4.62977817E-08 -6.17025758E-06  1.31949604E-05 -8.19444059E-08  2.61344414E-06
  1.31355247E-03 -5.01369855E-08  6.50139457E-11  6.49220722E-05  4.37107636E-09
  7.77683067E-02 -2.79580757E-06  2.85981766E-09  6.03327975E-05 -1.31552305E-08
 -8.75722745E-06 -8.65172342E-05  3.76734863E-07  9.06929253E-06 -1.85130451E-08
  3.57436176E-01 -1.09196747E-03  1.05904608E-01  1.07521556E-01  3.74926342E-02
 -2.58718462E-02 -7.40835779E-02  6.26813503E-02 -1.08779144E-01  1.02124940E-05
  3.74760196E-02 -6.50201105E-02  6.55683265E-06  7.85578157E-03 -1.35917126E-02
  5.95801870E-07  9.04236218E-02 -2.36389619E-06 -7.40662975E-06 -8.20113231E-02
 -1.41311613E-01  1.46430860E-01 -7.79922354E-06 -6.69141646E-07 -7.09768174E-02
 -1.22256252E-01  4.08782214E-07  1.17951568E-02 -2.04805782E-02 -5.51860538E-06
 -4.71842870E-06 -7.90210243E-02  2.41332633E-04  1.05904143E-01  1.07521085E-01
  3.74925299E-02 -2.58717458E-02 -7.40834477E-02  6.29027023E-02  1.08651161E-01
  1.02124739E-05  3.76083356E-02  6.49435770E-02  6.55682508E-06  7.88338495E-03
  1.35754533E-02  5.95792472E-07  9.04229478E-02 -2.34876287E-06  7.41146593E-06
 -8.14352547E-02  1.41644416E-01  1.46430083E-01 -7.79778112E-06  6.85088381E-07
 -7.04784946E-02  1.22544287E-01  4.08727310E-07  1.18366554E-02  2.04561903E-02
 -5.49934168E-06  4.74089555E-06 -7.90210338E-02  2.41393806E-04  1.05804365E-01
  1.07420102E-01  3.74709952E-02 -2.58522215E-02 -7.40625656E-02 -1.25543890E-01
  1.27845441E-04  6.30774714E-06 -7.50496563E-02  7.64068101E-05  4.22525957E-06
 -1.56551585E-02  1.58747342E-05  1.08551056E-07  9.02697230E-02 -5.03023862E-06
  5.11666816E-09  1.63373397E-01 -3.32976378E-04  1.46256829E-01 -1.86331917E-07
  1.82095574E-10  1.41353065E-01 -2.88149525E-04 -1.39767234E-06 -2.35434746E-02
  2.39764322E-05  5.00468307E-06 -1.01880765E-08 -7.90229678E-02  2.41511026E-04
 -1.93745193E-09 -1.93873537E-09 -4.32323910E-10 -2.33158143E-10 -8.96666215E-10
  8.84681151E-08  3.58673104E-05  9.60148134E-13 -6.52505113E-08 -1.09609510E-05
 -1.19763536E-12 -1.17379066E-07 -3.51936205E-05 -1.65380757E-12  6.73063672E-11
  2.83695505E-12  2.35673577E-09 -5.90463992E-08  6.23666409E-06  1.09908800E-09
  2.22512648E-11  6.05832172E-09  3.98851628E-08 -1.83926144E-05 -1.64233796E-12
 -5.87382003E-08 -2.82016282E-05 -9.10352776E-09 -4.45107277E-06 -5.37364039E-04
 -1.75897795E-01  2.97108303E-05  2.99361995E-05  9.97330600E-06 -4.36365068E-07
 -9.67862924E-06 -1.59710701E-01 -9.19732846E-02 -3.31609671E-06 -1.79304336E-01
 -1.03258836E-01 -3.72223617E-06 -1.09666439E-01 -6.31504020E-02 -2.27616354E-06
 -3.23086147E-05  1.37151055E-05  3.72029832E-06  1.74178686E-01 -1.01059645E-01
 -3.96371503E-05  1.51831276E-05  4.19111955E-06  1.89702657E-01 -1.10072796E-01
 -6.32527352E-07 -1.24470193E-02 -7.15674749E-03  6.16646238E-06 -4.63987077E-06
 -1.79489242E-04 -6.03807971E-02 -2.97779620E-05 -3.00039684E-05 -9.99423840E-06
  4.45080763E-07  9.70603128E-06  1.59523299E-01 -9.22984529E-02  3.31611689E-06
  1.79093863E-01 -1.03623842E-01  3.72225595E-06  1.09537673E-01 -6.33736138E-02
  2.27617217E-06  3.23436465E-05 -1.37074332E-05  3.74817848E-06 -1.74588808E-01
 -1.00349410E-01  3.96768926E-05 -1.51744909E-05  4.22197969E-06 -1.90149488E-01
 -1.09299340E-01  6.32525078E-07  1.24324205E-02 -7.18207492E-03 -6.18527728E-06
 -4.61469064E-06 -1.89406884E-04 -6.03807234E-02  7.14245833E-08  7.21244565E-08
  2.24493281E-08 -9.75291086E-09 -3.03779915E-08  1.87785268E-04  1.84357766E-01
 -1.37090745E-11  2.10812051E-04  2.06952945E-01 -1.40125188E-11  1.28927732E-04
  1.26560095E-01 -6.02860344E-12 -3.13021184E-08 -7.59102635E-09 -7.45363028E-06
  4.10217094E-04  2.01355017E-01 -3.37315833E-08 -8.55597627E-09 -8.39838137E-06
  4.46863364E-04  2.19342017E-01  2.79745813E-12  1.46263720E-05  1.43556678E-02
  9.45394743E-09  4.64397089E-06 -1.84459328E-04 -6.03681599E-02  2.73216863E-05
  2.64396188E-05  1.88016864E-05  2.50962021E-05  2.32011739E-05  1.34604048E-01
 -6.92441904E-05  2.79427886E-06  2.01981695E-02 -1.03712243E-05  4.20030141E-07
  4.38350441E-02 -2.25686526E-05  9.12301276E-07  1.36549503E-05  1.83707746E-05
 -1.17057046E-08  1.38181427E-01 -3.51147856E-04  3.82517515E-06  3.35751240E-05
 -1.68650308E-08  1.99880643E-02 -5.08055492E-05  1.31849234E-07  2.42988977E-03
 -1.34217242E-06 -1.00210674E-04  2.56887792E-07 -2.75874334E-05  7.83596081E-08
  1.21513616E-01  1.18298388E-01  2.64113962E-02 -1.86144708E-02 -4.08448143E-02
  5.00092271E-02 -6.25597882E-02  2.07430202E-05  5.64135115E-02 -7.00472344E-02
  1.96165865E-05  4.82383122E-02 -6.06339601E-02  8.01924603E-06  5.95461116E-02
  6.56909497E-05  4.45447713E-05  2.70000737E-02  1.23799235E-01  6.42325406E-02
  7.48885114E-05  5.65787637E-05  3.03466192E-02  1.35606784E-01 -1.59902173E-06
  1.19038871E-02 -1.32031680E-02  2.12527089E-05 -1.74404894E-05  2.84675880E-02
  1.34687846E-02  1.21726048E-01  1.18505200E-01  2.64575746E-02 -1.86470258E-02
 -4.09162601E-02  5.01997552E-02  6.25813477E-02  2.07801398E-05  5.66268102E-02
  7.00708931E-02  1.96515399E-05  4.84229478E-02  6.06549594E-02  8.03310305E-06
  5.96503584E-02  6.55546567E-05 -4.46614316E-05  2.66202755E-02 -1.24079777E-01
  6.43450370E-02  7.47151945E-05 -5.67189574E-05  2.99305944E-02 -1.35918067E-01
 -1.60252510E-06  1.19441055E-02  1.32063118E-02  2.13049725E-05  1.73532675E-05
  2.84344408E-02 -1.36346938E-02 -2.43378881E-01 -2.36939585E-01 -5.29052848E-02
  3.73008410E-02  8.18591268E-02  1.58688213E-01 -1.54574373E-04 -3.61565019E-05
  1.78028138E-01 -1.73218150E-04 -3.32374970E-05  1.53429809E-01 -1.49544829E-04
 -1.08643219E-05 -1.19261926E-01  3.72004881E-06  4.50490936E-08  2.41495249E-01
 -4.69332777E-04 -1.28687332E-01 -6.59701115E-06  6.41048394E-08  2.65358904E-01
 -5.16169603E-04  6.19160106E-06  3.47927026E-02 -3.32715676E-05 -1.31274473E-05
  9.83207600E-09 -5.68679563E-02  1.65861379E-04  1.27773257E-07  1.23529385E-07
  7.59571059E-08  1.03409089E-07  1.12091626E-07 -6.91614216E-05 -1.34623306E-01
  1.39704707E-09 -1.03888972E-05 -2.01845762E-02  1.91885844E-10 -2.25154280E-05
 -4.38627894E-02  4.64689960E-10  5.29198204E-08 -3.96449989E-09 -1.21026968E-05
  3.51061205E-04  1.38179026E-01 -4.14670800E-09 -1.68710739E-08 -3.20450149E-05
  5.07580633E-05  1.99831743E-02  1.03672728E-10 -1.19868817E-06 -2.51278405E-03
 -2.46775083E-07 -9.80069067E-05 -2.09774221E-07 -1.45689970E-05  2.10841362E-01
  2.05261934E-01  4.58277049E-02 -3.23081296E-02 -7.08948612E-02  6.25170737E-02
 -1.22525924E-01  3.48791280E-05  6.99834990E-02 -1.37583668E-01  3.29048907E-05
  6.05668567E-02 -1.18473885E-01  1.32854883E-05  1.03244682E-01 -4.23832256E-05
 -1.44123391E-05  1.24300545E-01  1.69755865E-01  1.11380422E-01 -5.39867321E-05
 -9.74928717E-06  1.36165999E-01  1.86736709E-01 -3.02112809E-06  1.31753813E-02
 -2.71802004E-02 -1.69065496E-05  7.32006877E-07  4.92680088E-02 -7.96233266E-03
 -2.10719021E-01 -2.05142832E-01 -4.58011332E-02  3.22894374E-02  7.08538835E-02
 -6.27162404E-02 -1.22335764E-01 -3.48593012E-05 -7.02067776E-02 -1.37370603E-01
 -3.28861061E-05 -6.07593256E-02 -1.18289283E-01 -1.32776461E-05 -1.03184863E-01
  4.24146427E-05 -1.45411757E-05 -1.23581217E-01  1.70135661E-01 -1.11316022E-01
  5.40361302E-05 -9.91317580E-06 -1.35374162E-01  1.87152900E-01  3.01980379E-06
 -1.32186769E-02 -2.71400291E-02  1.69293852E-05  6.79150282E-07 -4.92869386E-02
 -7.67490338E-03 -1.22999353E-04 -1.19745167E-04 -2.67428979E-05  1.88730205E-05
  4.14289649E-05  6.60442375E-05 -1.39326574E-02 -1.70842152E-08  7.36192228E-05
 -1.60190624E-02 -1.57185283E-08  6.38993059E-05 -1.32874569E-02 -5.19987561E-09
 -6.01453734E-05 -9.05139672E-08 -9.03444981E-05  3.06909791E-05 -4.47111767E-02
 -6.49325858E-05 -1.11496705E-07 -1.06152574E-04  3.56417148E-05 -4.82131871E-02
  2.86898959E-09  1.31413994E-05 -4.30000138E-03  5.75542145E-08  3.12527548E-05
  1.91188545E-05  1.56323365E-02  6.74504937E-09  6.47129096E-09  3.82921203E-09
  5.74276181E-09  6.25527002E-09  2.93346883E-05  1.71945908E-08  3.86772850E-06
  5.63079637E-06  3.29544203E-09  3.66071464E-06  2.10084875E-05  1.22957976E-08
 -9.38633331E-06 -3.21030188E-06 -8.97486740E-02 -5.25401941E-05  4.26062642E-05
 -1.49172914E-07 -4.20937716E-06 -1.17521427E-01 -6.87937439E-05  2.37789403E-05
 -7.87502801E-08 -1.29318678E-05  3.04064499E-05 -1.70163028E-08  3.31017742E-01
 -1.20493101E-03 -8.41285977E-06  3.91158803E-08  4.69514327E-05  4.55463147E-05
  1.03257130E-05 -7.63056615E-06 -1.61523836E-05  1.29133474E-05 -2.31115554E-05
 -5.71487857E-02  1.27043655E-05 -2.31945804E-05 -5.16151470E-02  1.19783019E-05
 -1.91594449E-05 -1.35236465E-02 -6.89004478E-06 -2.64983499E-01 -1.30853734E-01
  2.74851983E-05  2.11230549E-05 -5.93344350E-06 -3.00033082E-01 -1.69442369E-01
  3.17530135E-05  2.66135917E-05  1.28004846E-02 -1.04628237E-05  1.56160706E-06
 -7.30323292E-02  7.20783871E-02  7.07713405E-06 -7.33307865E-06  4.72130903E-05
  4.58001416E-05  1.03832594E-05 -7.67309785E-06 -1.62424291E-05  1.30414762E-05
  2.32088373E-05 -5.74670461E-02  1.28323016E-05  2.32922816E-05 -5.19026197E-02
  1.20806178E-05  1.92437827E-05 -1.35989443E-02 -6.86029479E-06 -2.64296374E-01
  1.31028301E-01  2.74492658E-05 -2.13666730E-05 -5.88690549E-06 -2.99143362E-01
  1.69718994E-01  3.17071847E-05 -2.69040382E-05  1.28718514E-02 -1.04594682E-05
 -1.56219694E-06 -7.30943385E-02 -7.18128254E-02  7.14510032E-06  7.28023478E-06
 -9.41862055E-05 -9.13674931E-05 -2.07156036E-05  1.53114376E-05  3.24189940E-05
  4.95799132E-05 -5.30184313E-08  1.14574124E-01  4.98494935E-05 -5.35131319E-08
  1.03495374E-01  4.44514629E-05 -4.41879977E-08  2.71061108E-02 -6.61016903E-06
 -3.79376153E-02 -5.06484717E-04  5.48586827E-05 -1.18420028E-07 -9.90576860E-06
 -6.01802724E-03 -6.30765319E-04  6.59110007E-05 -1.40340558E-07 -2.57028634E-02
 -3.04816769E-06 -3.48218011E-09  5.15756662E-02  7.85233048E-05 -1.18060840E-05
  4.15182689E-08  3.81029341E-11  3.65445876E-11  1.94368431E-11  2.96157334E-11
  3.55513494E-11  1.66528011E-08 -2.85200659E-05  1.17295557E-07  3.23080972E-09
 -5.52727872E-06  1.06495041E-07  1.21530181E-08 -2.07792990E-05 -1.97124793E-08
 -5.10798091E-09 -5.24836483E-05  8.97624327E-02  1.44294303E-07  3.80147023E-05
 -6.71869938E-09 -6.87323547E-05  1.17543860E-01  7.61896347E-08  1.87861064E-05
 -6.09059614E-08  3.99233100E-08 -8.76343105E-06  1.20452725E-03  3.30909029E-01
 -3.91536644E-08 -8.39152227E-06  8.04251996E-05  7.80116368E-05  1.76862242E-05
 -1.30902091E-05 -2.76880255E-05  2.48538713E-05 -3.78509337E-05 -9.93508889E-02
  2.46866247E-05 -3.77512356E-05 -8.97227369E-02  1.93203008E-05 -3.32474255E-05
 -2.34980531E-02  8.54064294E-06  1.30717428E-01  1.13162107E-01  1.51422103E-05
  3.99967140E-05  1.37231404E-05  1.69281785E-01  1.03389152E-01  1.90088599E-05
  4.90867771E-05  2.22553159E-02  1.92249543E-06  7.00848339E-06  7.18435075E-02
  1.00026034E-02  6.99139203E-06  2.92944980E-06 -8.02765770E-05 -7.78674742E-05
 -1.76535462E-05  1.30660327E-05  2.76369165E-05 -2.48904129E-05 -3.77273107E-05
  9.91668865E-02 -2.47237539E-05 -3.76278284E-05  8.95566166E-02 -1.93503579E-05
 -3.31476695E-05  2.34544996E-02 -8.56401947E-06 -1.31334949E-01  1.13849269E-01
 -1.48916773E-05  3.99922817E-05 -1.37435197E-05 -1.70030902E-01  1.04279051E-01
 -1.87076937E-05  4.90805691E-05 -2.22142504E-02 -1.94198455E-06  7.00711972E-06
 -7.20367726E-02  1.00650507E-02 -6.95101804E-06  2.99573542E-06 -1.48745943E-07
 -1.44282145E-07 -3.27146902E-08  2.42179782E-08  5.12392619E-08  7.96929992E-08
  1.71565979E-06  1.83627863E-04  8.00625105E-08  1.86733197E-06  1.65856979E-04
  6.91697512E-08 -5.64451816E-07  4.34162420E-05 -9.25806097E-09  2.85704374E-04
  3.40251585E-01  9.46972273E-08  4.51750285E-06 -1.44448866E-08  3.95141610E-04
  3.97476749E-01  1.11509083E-07  4.17803635E-06 -4.12041187E-05 -1.06839322E-09
  4.13385112E-06 -1.50529590E-04 -1.14491116E-01 -2.90641993E-08 -3.50764059E-06
 -5.36437536E-07 -4.94818468E-07  1.20891640E-08  1.43914455E-07  1.68989907E-07
  2.56750076E-05 -1.71772976E-02  8.39477038E-10 -9.47849143E-05  6.34274487E-02
 -3.35314135E-09 -1.80099117E-04  1.20458078E-01 -6.32020702E-09 -5.30595736E-07
 -2.34311053E-08  2.14264171E-05  3.73510473E-04  8.21025962E-02 -4.51481316E-07
 -2.61307573E-08  1.49940460E-05 -1.64181590E-04 -3.60847742E-02 -2.61893114E-08
 -3.05834710E-04  2.04628924E-01  9.81168527E-08  1.41649400E-05  1.37131452E-07
 -1.26890148E-05 -2.21867866E-01 -2.06165985E-01 -3.03102352E-02  5.53952662E-02
  8.81475086E-02 -5.39662913E-02 -3.77546064E-02 -2.26442898E-05 -4.10325621E-02
 -5.16974408E-02 -1.91574239E-05 -2.08067344E-02 -1.49145853E-03 -5.09712708E-06
  2.45588012E-01 -3.89278328E-06  2.96447655E-05  7.14096712E-02  3.87072280E-02
  2.54712929E-01  2.28974704E-07  2.57496029E-05  7.07871383E-02  1.82657108E-02
  1.28465628E-05  3.43178252E-02 -4.89482898E-02  7.27038483E-06  1.01508505E-05
  1.17388716E-02 -5.99974354E-04  2.21223564E-01  2.05567283E-01  3.02222478E-02
 -5.52344411E-02 -8.78916223E-02  5.43937204E-02 -3.81373546E-02  2.25924425E-05
  4.14263430E-02 -5.19888142E-02  1.91147846E-05  2.09322168E-02 -1.63918961E-03
  5.08625753E-06 -2.44877411E-01  3.75800681E-06  2.96471862E-05 -7.14724241E-02
  3.86397486E-02 -2.53975988E-01 -3.83214670E-07  2.57829570E-05 -7.10327437E-02
  1.81987107E-02 -1.28120994E-05 -3.43712024E-02 -4.87058739E-02 -7.23361430E-06
  1.01340599E-05 -1.17084740E-02 -5.33242136E-04  6.42363797E-04  5.96902935E-04
  8.77697871E-05 -1.60394518E-04 -2.55261926E-04 -1.17248855E-04 -1.31669901E-01
  6.27152922E-08 -5.48271689E-05 -1.23141972E-01  5.45088060E-08 -6.45291813E-05
 -3.76780215E-02  1.29629393E-08 -7.12071650E-04 -3.99172777E-09  3.31299669E-05
  2.80139929E-05 -8.49721453E-02 -7.38580744E-04  1.49784506E-08  3.70103021E-05
 -6.38731490E-05 -1.04480578E-01 -2.34142618E-08  1.83422881E-04  1.06441946E-02
  1.49854745E-08 -5.75662346E-06 -3.06995607E-05  1.11175939E-03  9.40717755E-05
  8.67678729E-05 -1.63008643E-06 -2.41583823E-05 -2.89616840E-05 -1.71724742E-02
 -2.56713741E-05 -3.45228668E-07  6.33879252E-02  9.47800363E-05  1.32361196E-06
  1.20486582E-01  1.80067487E-04  2.50583425E-06  9.41740075E-05  1.79874252E-05
  3.54723678E-08 -8.20647241E-02  3.73424090E-04  7.95295516E-05  1.64537825E-05
  2.08670866E-08  3.61010633E-02 -1.64252236E-04  1.04006097E-05  2.04545799E-01
  3.05803993E-04 -2.75124302E-05  9.15208370E-08 -2.99070643E-05  3.30280992E-08
  1.27523608E-01  1.18494982E-01  1.74099436E-02 -3.18381764E-02 -5.06585959E-02
 -1.00620605E-01 -5.41728777E-02  1.02481049E-05 -9.95052536E-02 -4.12766417E-02
  8.42753798E-06 -2.56801767E-02 -2.08783246E-02  2.14417720E-06 -1.40854609E-01
  3.87785672E-05  2.02444359E-06  4.38207653E-02 -7.13533861E-02 -1.46086689E-01
  4.10920084E-05  6.48179099E-06  6.36311592E-02 -7.09206564E-02 -6.82416011E-06
 -9.03995419E-03  3.42006976E-02  8.90566572E-07 -9.18604237E-06 -6.73049855E-03
 -9.57438513E-04  1.28637483E-01  1.19529996E-01  1.75620410E-02 -3.21163101E-02
 -5.11011484E-02 -1.00237791E-01  5.41866651E-02  1.03616768E-05 -9.92138419E-02
  4.12185008E-02  8.52362966E-06 -2.55326571E-02  2.09227060E-02  2.16974494E-06
 -1.42087068E-01  3.87938308E-05 -1.95449593E-06  4.37522513E-02  7.13693648E-02
 -1.47364958E-01  4.10774433E-05 -6.43598952E-06  6.35631319E-02  7.07532558E-02
 -6.88860696E-06 -9.28241987E-03 -3.44273298E-02  8.91671448E-07  9.23336107E-06
 -6.78348722E-03  9.95806394E-04 -2.55817637E-01 -2.37706084E-01 -3.49334816E-02
  6.38778735E-02  1.01648645E-01 -6.66188516E-03 -3.24076274E-04 -2.49236050E-05
 -2.80116806E-02 -2.80890028E-04 -2.16626005E-05  1.04814635E-02 -1.05315083E-04
 -5.15311643E-06  2.83191892E-01  1.50016891E-05  6.77907393E-08 -7.99591645E-02
 -5.05749198E-05  2.93729721E-01  9.03459070E-06  8.35966988E-08 -5.92302222E-02
 -1.41808760E-04  9.30706760E-06 -6.86268287E-02  9.66418549E-05 -1.06158016E-05
  7.20330221E-09  1.35562698E-02 -3.86479730E-05  2.86126548E-01  2.57308725E-01
  1.29627497E-02 -4.05100778E-02 -8.28673547E-02  6.81013366E-05 -2.89621778E-07
  1.22904517E-05 -2.44350530E-05  1.05456704E-07  6.53975250E-06 -5.10874260E-05
  2.21753160E-07  5.71869294E-06  8.35960563E-02 -3.01064198E-06  3.10493187E-09
  7.18036105E-05  1.38723452E-07  1.18655870E-02 -4.30261635E-07  4.47553887E-10
 -2.42373835E-05 -1.93813662E-08  1.14098029E-05 -6.46980697E-05  2.59066717E-07
 -2.25294773E-06  4.58957164E-09 -8.89414828E-02  2.71716769E-04  2.24601542E-01
  2.02536562E-01  1.13528261E-02 -6.17046946E-02 -9.59267368E-02  2.68703626E-02
 -4.65520368E-02 -5.01086130E-06  3.84049322E-02 -6.65835464E-02 -2.35042775E-06
  2.63138699E-02 -4.56608793E-02  2.25467769E-06  4.59249292E-02 -6.65975679E-06
  1.38372382E-05  7.18871090E-02  1.24028265E-01  3.38664861E-02 -4.48411402E-06
  1.01193587E-05  6.22490355E-02  1.07418060E-01  3.50229439E-06  3.65435657E-03
 -6.34827960E-03  2.73794569E-06  4.13188495E-06  2.29462205E-02 -6.42347909E-05
  2.24601996E-01  2.02536973E-01  1.13528621E-02 -6.17048698E-02 -9.59269743E-02
  2.69652561E-02  4.64970685E-02 -5.01080890E-06  3.85405084E-02  6.65049308E-02
 -2.35039593E-06  2.64067977E-02  4.56071067E-02  2.25467793E-06  4.59240623E-02
 -6.68788029E-06 -1.38235535E-05  7.13809064E-02 -1.24319576E-01  3.38656577E-02
 -4.50468885E-06 -1.01101416E-05  6.18106172E-02 -1.07670384E-01  3.50226551E-06
  3.66720342E-03  6.34071261E-03  2.72107843E-06 -4.14297746E-06  2.29460913E-02
 -7.59643534E-05  2.24731509E-01  2.02654297E-01  1.13629331E-02 -6.17531498E-02
 -9.59924847E-02 -5.37359997E-02  5.45282980E-05 -6.66914241E-06 -7.68151563E-02
  7.80522108E-05 -4.73161649E-06 -5.26828003E-02  5.36174460E-05  6.16363164E-07
  4.56826597E-02  8.37129771E-06 -8.50443362E-09 -1.43209051E-01  2.91561631E-04
  3.36324686E-02  5.31760432E-06 -5.39241009E-09 -1.24040553E-01  2.52494097E-04
  2.93934047E-06 -7.28830834E-03  7.43105971E-06 -3.70827600E-06  7.55087453E-09
  2.29254862E-02 -7.00396268E-05 -1.36381907E-05 -1.15048664E-05  9.02842847E-06
  1.31549586E-05 -2.32244005E-06  6.41664836E-02 -3.03907852E-04  1.33243456E-06
  7.68469228E-03 -3.63057972E-05  1.60960805E-07 -6.57305853E-02  3.11340326E-04
 -1.36055938E-06 -4.98727318E-06  4.61771216E-06 -2.36897650E-08 -1.17933301E-02
 -1.98985574E-05  2.19719772E-05  8.14745969E-06 -4.60188269E-08 -4.81695635E-02
 -8.11015807E-05  7.27458248E-06  1.43128917E-01 -6.77895778E-04  2.86063385E-06
  3.97396994E-08  1.47188230E-05  5.15031485E-08 -1.03335939E-01 -8.95573184E-02
  1.78110431E-03  2.95990965E-02  3.22265287E-02  7.74588469E-02  1.01416126E-02
  2.97012264E-06  6.02570388E-02  2.16561265E-02  1.61665214E-06 -8.28932805E-03
  1.17197498E-02 -6.55238893E-07 -1.36163165E-01  6.43425385E-06 -3.19154323E-06
  7.36791027E-02  1.24209596E-01 -1.29302124E-01  5.65368179E-06 -1.34739094E-06
  7.90910397E-02  1.34631247E-01 -2.54802955E-06 -5.16675697E-04  1.58235089E-02
 -2.78176653E-06 -5.92024049E-07  3.63202469E-03 -7.35370576E-03 -1.02013092E-01
 -8.84108573E-02  1.75832519E-03  2.92202318E-02  3.18140325E-02  7.75153204E-02
 -1.07859171E-02  2.95427375E-06  6.03750050E-02 -2.20399439E-02  1.61531825E-06
 -8.22649848E-03 -1.15415922E-02 -6.47257379E-07 -1.34421357E-01  6.31654215E-06
  3.16252558E-06  7.22574982E-02 -1.22903030E-01 -1.27648144E-01  5.54582136E-06
  1.34129238E-06  7.75500773E-02 -1.33217696E-01 -2.50981351E-06 -4.31635752E-04
 -1.56837132E-02 -2.78528312E-06  5.79146926E-07  3.63019441E-03  7.36317047E-03
  2.05409782E-01  1.78021137E-01 -3.54595559E-03 -5.88564915E-02 -6.40849810E-02
  5.93574730E-02 -3.70849446E-04 -1.48455003E-06  2.24827954E-02 -2.93914226E-04
 -2.69290009E-07 -2.84154800E-02  3.46803001E-05  3.71223243E-07  2.70825465E-01
  6.17849133E-06  6.25669589E-09  2.87196792E-01 -5.78657526E-04  2.57203889E-01
  3.70927306E-06  7.63951382E-09  3.10506230E-01 -6.28488246E-04  3.59953328E-06
 -2.77512333E-02 -3.75056841E-06 -1.96226947E-06 -6.75526065E-09 -7.24900535E-03
 -9.38216728E-06 -4.06688923E-08 -3.52729793E-08 -1.97869618E-09  3.28148360E-09
  6.10722755E-09 -3.03775970E-04 -6.41869976E-02 -4.94267091E-09 -3.63935690E-05
 -7.67069047E-03 -5.91994279E-10  3.11175932E-04  6.57557635E-02  5.06249789E-09
 -2.21901194E-08 -2.23572592E-08 -5.10834318E-06  1.97453186E-05 -1.18122864E-02
 -2.03771457E-08 -4.06089906E-08 -1.01489070E-05  8.07601549E-05 -4.82096930E-02
 -2.70066799E-08 -6.77587123E-04 -1.43172855E-01  1.43449310E-08  1.22559414E-05
 -1.90991166E-08  1.01228773E-05 -1.77571047E-01 -1.53893298E-01  3.06164488E-03
  5.08633237E-02  5.53770140E-02 -1.08236607E-02 -6.54734022E-02  2.12144180E-06
 -2.21185119E-02 -3.51708066E-02  1.74243068E-07 -1.15867819E-02  2.16725732E-02
 -1.07124864E-06 -2.33892656E-01  1.66973458E-05 -2.15798928E-06  1.23762245E-01
  2.15058830E-01 -2.22103928E-01  1.48755839E-05  7.06891841E-07  1.34148284E-01
  2.32325065E-01 -5.13109547E-06 -1.57385056E-02  1.86272376E-02  7.99081349E-07
 -3.25829963E-06  6.28717595E-03  4.26574098E-03  1.78334124E-01  1.54554624E-01
 -3.07482759E-03 -5.10819686E-02 -5.56150727E-02  1.01145307E-02 -6.54169184E-02
 -2.14346834E-06  2.15987403E-02 -3.50529644E-02 -1.86268567E-07  1.16923633E-02
  2.17353183E-02  1.07608776E-06  2.34898883E-01 -1.67491828E-05 -2.14752807E-06
 -1.23425855E-01  2.16481096E-01  2.23059527E-01 -1.49158186E-05  7.27245972E-07
 -1.33781106E-01  2.33866618E-01  5.14988102E-06  1.57800097E-02  1.87121832E-02
 -7.91662066E-07 -3.25941543E-06 -6.28807942E-03  4.24945802E-03 -7.63105188E-04
 -6.61351452E-04  1.31835637E-05  2.18661894E-04  2.38074975E-04 -3.05593028E-04
 -8.35236278E-02  5.51191934E-09 -1.57802890E-04 -7.29258099E-02  9.98007611E-10
  1.07137405E-04  1.54585073E-03 -1.37936533E-09 -1.00629596E-03 -1.95462108E-08
  3.35566469E-06 -1.06350871E-03  1.71081901E-03 -9.55679438E-04 -1.06837681E-08
  3.05108098E-06 -1.15139418E-03  1.07565679E-03 -1.33718894E-08  9.43305919E-05
 -8.61318115E-03  1.40098116E-09 -2.89168325E-06  9.91141938E-07 -8.48769554E-03
  5.54380752E-15  4.65970677E-15 -1.71013943E-15 -3.01728103E-15 -6.75118678E-16
 -6.21045824E-12  9.81856449E-10 -7.69018553E-12 -2.52969934E-12 -3.47137053E-10
 -1.06325935E-11  5.44415544E-12 -1.50511261E-09 -7.48762620E-12 -2.69703107E-12
 -9.20103572E-08 -1.65695458E-05  4.20207103E-12  1.04761019E-09 -9.94868599E-13
 -3.51179315E-08 -7.34517800E-06  1.04091133E-11 -3.39396868E-10 -1.44524269E-11
 -1.15601696E-11 -2.57472734E-10  2.38720799E-08 -3.95840371E-05 -2.24161944E-08
 -7.33666138E-06  2.59782133E-09  2.19644767E-09 -1.66636323E-10 -6.11237170E-10
 -8.81257933E-10  4.60456881E-06  2.65427035E-06  5.78744301E-06  3.17404542E-06
  1.82880867E-06  2.78581953E-06 -9.14095542E-07 -5.26541735E-07 -2.66719126E-07
 -1.05066016E-05 -2.92751770E-01 -1.68651634E-01  2.61152929E-05 -8.13298289E-06
 -1.02358888E-05 -2.85184617E-01 -1.64286423E-01  2.37828734E-05 -6.96282002E-06
 -1.67613797E-06 -5.56924531E-08 -2.07019115E-07  4.57574580E-03 -2.66115224E-03
 -1.22069665E-07 -2.25771792E-06 -2.57004841E-09 -2.17285210E-09  1.65047389E-10
  6.02274621E-10  8.73672972E-10 -4.59916229E-06  2.66363643E-06 -5.77311221E-06
 -3.17032438E-06  1.83526888E-06 -2.76854322E-06  9.13023450E-07 -5.28397389E-07
  2.61359728E-07  1.05066810E-05  2.92408584E-01 -1.69248012E-01 -2.61482911E-05
 -8.02651920E-06  1.02359665E-05  2.84850332E-01 -1.64867383E-01 -2.38111323E-05
 -6.86587103E-06  1.67922669E-06  5.52619193E-08 -2.07128868E-07 -4.58660169E-03
 -2.64253519E-03  1.08275293E-07 -2.25841088E-06 -2.77835447E-11 -2.36045376E-11
  1.59086594E-12  8.96946913E-12  7.59201563E-12 -5.41600129E-09 -5.30915285E-06
 -1.42770316E-08 -3.73180048E-09 -3.65973177E-06 -1.72381191E-08  1.07897429E-09
  1.05441723E-06  5.35478998E-09 -4.57382435E-11  3.44298382E-04  3.38070972E-01
  3.28915830E-08  1.61709399E-05 -4.37619202E-11  3.35412184E-04  3.29333879E-01
  2.81447184E-08  1.38405781E-05 -3.09935430E-09  4.19104051E-10  4.10468338E-07
  1.08301803E-05  5.31231104E-03 -7.50609554E-09 -2.45654598E-06  2.91078268E-01
  2.25479712E-01 -5.32139274E-02 -7.08053645E-02 -6.02596181E-03 -1.72649590E-05
  4.68098754E-08 -1.06081022E-04 -2.68821913E-05  9.53165458E-08 -9.29589103E-05
 -2.84317662E-06 -7.29574055E-10 -7.23250154E-05 -1.99250950E-01  7.12903287E-06
 -7.19822826E-09  2.46395225E-06 -1.97915603E-08 -2.00394590E-01  7.18783732E-06
 -7.31302556E-09  7.38387302E-06 -4.14853786E-08 -2.02782066E-04 -7.72536694E-05
  3.08270942E-07  3.56471010E-06 -7.31948633E-09  1.40377252E-01 -4.28853370E-04
 -1.62420612E-01 -1.25435688E-01  3.67484237E-02  6.05468657E-02  3.81069890E-02
  4.27243359E-02 -7.41411047E-02  1.06388038E-04  8.68031993E-03 -1.50499654E-02
  7.07445838E-05 -2.73909976E-02  4.75427851E-02 -1.69540388E-05  2.08804041E-01
 -4.52773306E-07 -1.10072445E-05  1.68860849E-02  2.91422938E-02  2.00619223E-01
 -1.63377590E-05  1.83891140E-05  3.51794650E-02  6.06903670E-02 -4.77297321E-05
 -3.30670822E-02  5.73867376E-02 -1.97250149E-05 -3.57499199E-05 -4.58557891E-02
  1.21946019E-04 -1.62420657E-01 -1.25435723E-01  3.67484699E-02  6.05469851E-02
  3.81071007E-02  4.28752635E-02  7.40539913E-02  1.06387969E-04  8.71100604E-03
  1.50323604E-02  7.07446034E-05 -2.74877750E-02 -4.74869053E-02 -1.69539812E-05
  2.08803872E-01 -4.30323548E-07  1.10083306E-05  1.67671977E-02 -2.92108672E-02
  2.00619083E-01 -1.63750786E-05 -1.83555197E-05  3.49319195E-02 -6.08331661E-02
 -4.77296505E-05 -3.31839187E-02 -5.73192902E-02 -1.95792075E-05  3.58299675E-05
 -4.58556180E-02  1.58231820E-04 -1.62451409E-01 -1.25459628E-01  3.67642329E-02
  6.05842183E-02  3.81391452E-02 -8.55907802E-02  8.71739298E-05  1.03712404E-04
 -1.74031186E-02  1.77294672E-05  7.02098213E-05  5.48778703E-02 -5.58816582E-05
 -1.52331871E-05  2.08769261E-01 -2.16508213E-05  2.21183494E-08 -3.36917456E-02
  6.85667750E-05  2.00592662E-01  1.10309388E-05 -1.11749177E-08 -7.01561707E-02
  1.42845233E-04 -4.26650331E-05  6.62443598E-02 -6.74439235E-05  3.58185212E-05
 -7.29344263E-08 -4.58415955E-02  1.40047413E-04  1.09017007E-04  7.98112014E-05
 -2.61897744E-05 -2.93817388E-05  1.01697900E-06 -5.18153678E-06  5.30253748E-09
  2.49391612E-01 -4.16131391E-06  4.26914012E-09  2.00153699E-01 -3.16120805E-06
  3.22868257E-09  1.52263188E-01 -8.79637526E-05  8.13012376E-05 -2.73991771E-07
 -2.57021703E-09 -3.42676713E-12 -7.49701473E-05  2.04363058E-05 -2.54632017E-08
  3.09064570E-09 -1.24110263E-11  5.40443687E-01 -2.74932832E-05  2.81572406E-08
  8.24587455E-06  1.78124797E-07  7.43985755E-05 -2.27293061E-07 -7.41455381E-05
 -5.38458787E-05  2.40532420E-05  2.96875157E-05  1.66200005E-05  3.39097929E-05
 -5.03598883E-05 -2.36051694E-01  8.35798379E-06 -9.12252095E-06 -1.49478305E-01
 -1.54585724E-05  2.53369692E-05  4.15300861E-02  7.33682043E-05 -4.87856667E-02
  8.46599032E-02 -6.52834439E-07 -4.61646927E-06  7.96367171E-05 -4.68371800E-03
  8.10721210E-03  1.43071567E-05  2.43446170E-05  1.03347346E-01 -3.81929943E-05
  6.15766652E-05  3.87291019E-02  6.67610257E-02 -2.73988922E-05 -1.62401223E-06
 -7.41455371E-05 -5.38458787E-05  2.40532645E-05  2.96875748E-05  1.66200432E-05
  3.40122938E-05  5.02907370E-05 -2.36051529E-01  8.37658889E-06  9.10554965E-06
 -1.49478355E-01 -1.55101391E-05 -2.53054269E-05  4.15299367E-02  7.33680760E-05
 -4.89580317E-02 -8.45607496E-02 -6.34038618E-07  4.61905978E-06  7.96365612E-05
 -4.70043921E-03 -8.09826921E-03  1.42078470E-05 -2.44026722E-05  1.03347047E-01
 -3.83182928E-05 -6.14986808E-05  3.84567456E-02 -6.69181877E-02 -2.73884674E-05
  1.79139867E-06 -7.41528198E-05 -5.38513427E-05  2.40612694E-05  2.97054523E-05
  1.66323272E-05 -5.32321332E-05  5.42086600E-08 -2.36022567E-01 -7.44825583E-06
  7.58360936E-09 -1.49497116E-01  2.83819335E-05 -2.89001969E-08  4.14928840E-02
  7.86054027E-05  9.78086749E-02 -9.97561518E-05  1.27153990E-06 -2.61843768E-09
  8.01137340E-05  9.52314035E-03 -9.81490404E-06 -2.85303459E-05  5.80852189E-08
  1.03277955E-01  6.07449144E-05 -6.18441744E-08 -7.71732878E-02  1.57113062E-04
 -2.44587047E-05  7.47113624E-08  1.07655196E-01  6.77782517E-02 -3.90889627E-02
 -3.43017313E-02  6.26256295E-03 -9.28002879E-05  2.28013596E-07  1.26037735E-05
 -6.41436755E-05  1.62313473E-07  6.47097936E-06 -2.36366252E-05  5.89333207E-08
 -1.68052956E-06  2.29060095E-01 -8.56936614E-06  9.15719308E-09 -8.71500569E-06
 -1.96273063E-07  1.48117699E-01 -5.55417359E-06  5.95345478E-09  2.03174939E-05
 -9.43472673E-08  4.68798271E-07 -3.37744941E-04  1.12309559E-06  1.15703384E-05
 -2.29671728E-08  4.34922932E-01 -1.32869227E-03 -7.41505908E-02 -4.53425754E-02
  4.09293765E-02  3.06006232E-02  2.04249476E-02  4.25572712E-02 -7.37275479E-02
  7.84629798E-06 -5.04526801E-03  8.83638273E-03  9.21591274E-07 -1.49007989E-02
  2.58154146E-02 -2.71811144E-06 -1.89106318E-01  1.13964393E-05 -3.33185574E-06
  5.53379867E-02  9.53776534E-02 -8.27424295E-02  2.69157050E-06  5.73736103E-06
  6.71091565E-02  1.15731584E-01  1.74998811E-05  8.07600514E-02 -1.40288662E-01
 -1.39008862E-05 -3.67620237E-06 -2.34771790E-01  6.31889237E-04 -7.41506849E-02
 -4.53426351E-02  4.09294940E-02  3.06007601E-02  2.04250013E-02  4.27075110E-02
  7.36408647E-02  7.84656224E-06 -5.06315115E-03 -8.82600350E-03  9.21716958E-07
 -1.49534091E-02 -2.57850285E-02 -2.71814483E-06 -1.89105252E-01  1.14036519E-05
  3.30853907E-06  5.49486563E-02 -9.56017051E-02 -8.27416182E-02  2.68008749E-06
 -5.74302065E-06  6.66369957E-02 -1.16003697E-01  1.74994941E-05  8.10446387E-02
  1.40122489E-01 -1.38864190E-05  3.73284470E-06 -2.34770461E-01  8.02605406E-04
 -7.42270261E-02 -4.53902427E-02  4.09867033E-02  3.06576924E-02  2.04448214E-02
 -8.52250512E-02  8.67128943E-05  5.37623915E-06  1.01494041E-02 -1.03818997E-05
  1.31916204E-06  2.98428953E-02 -3.03424286E-05 -1.81115141E-06 -1.88797684E-01
 -1.96062487E-06  1.50997733E-09 -1.10088736E-01  2.24177147E-04 -8.24941589E-02
  3.93198120E-06 -4.31155852E-09 -1.33717920E-01  2.72313357E-04  5.05842318E-06
 -1.61350047E-01  1.64442102E-04  9.36139749E-06 -1.96560517E-08 -2.34573977E-01
  7.16584571E-04 -1.48607937E-07 -9.32652097E-08  5.34782231E-08  4.63469580E-08
 -1.08988981E-08 -4.22809848E-05 -5.64802870E-08 -1.43809018E-05 -2.87469971E-05
 -3.83980879E-08 -1.63835773E-06 -1.07174395E-05 -1.43125291E-08  9.80501628E-06
 -9.68405951E-06 -2.60905900E-01 -3.48282000E-04  3.96735211E-05 -1.48739297E-07
 -6.62006443E-06 -1.78439938E-01 -2.38235589E-04  2.22173109E-05 -8.01243149E-08
  5.45893668E-05 -1.00743311E-04 -1.99693915E-07  4.22260604E-01 -1.85357606E-03
 -1.13356413E-05  5.98196933E-08  1.14542742E-05  7.06059329E-06 -6.10965046E-06
 -4.81550947E-06 -9.95412764E-07  2.48477819E-05  2.28696178E-05 -4.44715496E-02
  1.55339890E-05  6.32604191E-06 -2.00429768E-02 -3.54629544E-06 -8.29006187E-06
  4.74180181E-03 -1.19040501E-05  2.26873496E-01  1.75464106E-01  9.52362741E-06
 -4.94043356E-06 -9.21177204E-06  1.54649259E-01  8.91227158E-02 -5.49261264E-06
 -2.43343023E-06  1.68110052E-02 -3.26629578E-05 -3.66828033E-05 -2.91394199E-01
  2.20689304E-01  2.95900942E-07 -3.27025137E-05  1.15471939E-05  7.11787784E-06
 -6.15919689E-06 -4.85458954E-06 -1.00333101E-06  2.47013655E-05 -2.29314445E-05
 -4.48354295E-02  1.54947009E-05 -6.32107107E-06 -2.02070127E-02 -3.49122121E-06
  8.32599773E-06  4.78058023E-03 -1.20999848E-05  2.25688462E-01 -1.75813901E-01
  9.55545687E-06  4.83803871E-06 -9.34862649E-06  1.54047484E-01 -8.91948748E-02
 -5.47592897E-06  2.46351327E-06  1.69486530E-02 -3.23528455E-05  3.68913872E-05
 -2.91253631E-01 -2.19326877E-01  4.09005592E-07  3.26222500E-05 -2.26883266E-05
 -1.39882153E-05  1.20960041E-05  9.54632745E-06  1.91488908E-06 -1.73116450E-05
  1.04894940E-07  8.92442578E-02  3.25588506E-06  4.08350540E-08  4.02396672E-02
  1.10478442E-05 -3.05795027E-08 -9.50450022E-03  3.82299386E-05 -7.78930796E-02
  8.49767053E-04  1.41234566E-05 -8.00331423E-08  2.99675510E-05 -1.18999079E-04
  4.83974005E-04 -2.77275887E-06  7.35880153E-11 -3.37882314E-02  5.94235828E-05
 -1.39928501E-07  8.97938884E-02  8.00485220E-04  1.27875172E-05  9.42152635E-09
 -5.54298101E-10 -3.48322976E-10  1.97367014E-10  1.70390492E-10 -4.47344829E-11
 -5.64802423E-08  4.23690278E-05 -1.70905937E-07 -3.83985659E-08  2.88022122E-05
 -6.98210405E-08 -1.43059880E-08  1.07283561E-05  5.20435357E-09 -2.32053603E-08
 -3.48135161E-04  2.60959870E-01  1.52373970E-07  2.89249208E-05 -1.58822699E-08
 -2.38134452E-04  1.78531791E-01  8.25154934E-08  1.48337459E-05 -6.08840241E-09
 -1.06425090E-07  1.28668088E-04  1.85409462E-03  4.22407590E-01 -6.02726858E-08
 -1.07196783E-05  1.98007801E-05  1.22064369E-05 -1.05585664E-05 -8.32365486E-06
 -1.68678349E-06 -2.11730978E-05  2.50475004E-06 -7.74735007E-02 -5.59125396E-06
 -7.76743531E-06 -3.49160965E-02  8.09853148E-06 -6.15133956E-06  8.26280098E-03
 -4.17229718E-05 -1.75177439E-01 -2.29042842E-02  2.55967402E-06  1.35385502E-05
 -2.91525683E-05 -8.88625053E-02 -5.11208501E-02  1.37754869E-06 -1.63868345E-06
  2.92796430E-02  4.99008117E-05 -3.05055674E-05  2.19366386E-01 -3.71570937E-02
 -1.83541053E-05  1.65459136E-05 -1.97462945E-05 -1.21728555E-05  1.05295002E-05
  8.30077434E-06  1.68200081E-06  2.12945623E-05  2.35332591E-06  7.72633068E-02
  5.64851723E-06 -7.80860013E-06  3.48214434E-02 -8.12750611E-06 -6.09560107E-06
 -8.24036374E-03  4.16670047E-05  1.76194194E-01 -2.40884452E-02 -2.45948857E-06
  1.35721387E-05  2.91090305E-05  8.94839868E-02 -5.17216979E-02 -1.41011915E-06
 -1.62099858E-06 -2.92004149E-02 -5.01157263E-05 -3.02308000E-05 -2.20888724E-01
 -3.72957567E-02  1.84577173E-05  1.65870650E-05 -5.33076272E-08 -3.28657741E-08
  2.84201580E-08  2.24259725E-08  4.47220841E-09 -7.84535678E-08 -3.71257236E-05
  2.10100764E-04 -1.14701642E-08 -1.87816415E-05  9.47377134E-05  3.43435634E-08
  8.22008621E-06 -2.23894946E-05  9.04513234E-08 -5.16942426E-04 -3.27535745E-01
  7.80034247E-08  2.18381396E-05  7.07863783E-08 -2.09779208E-04 -2.05688985E-01
 -1.41965905E-09  2.38596349E-06 -7.95504125E-05  1.74798054E-07  3.37764589E-05
 -6.40346164E-04 -4.18134919E-01 -3.23335118E-08 -2.06011861E-05 -3.89461377E-07
 -2.34621411E-07  1.41489264E-07  9.89924432E-08 -8.51524916E-08 -1.68816916E-04
  1.95283249E-01 -7.71508636E-09 -1.03630361E-04  1.19874713E-01 -4.72122659E-09
 -1.56548728E-05  1.81161991E-02 -6.74704798E-10 -7.61184733E-07  1.47391611E-08
 -4.46504079E-06  5.46876010E-04  1.39536077E-01 -6.71987290E-07  6.84528189E-09
 -6.04030666E-06  8.16028387E-05  2.08230871E-02 -5.18773554E-08 -4.69440482E-04
  5.42866941E-01 -3.97329258E-07 -1.18458194E-04 -1.33649369E-06  9.36980098E-05
  7.36738121E-02  4.20746198E-02 -4.66061695E-02 -2.80937127E-02 -9.14747158E-03
 -9.94590180E-02  4.73449648E-02 -9.18856842E-06 -1.64298926E-02 -3.14630917E-02
 -1.71652693E-06  2.44616056E-02 -2.86971282E-02  2.76681443E-06 -1.30726187E-01
  2.74334397E-05  1.46942280E-05 -3.69466792E-02  1.17424205E-01 -1.18968715E-01
  2.03742356E-05  3.12188936E-06 -4.38597883E-02 -2.51292919E-03  4.78848673E-05
  1.88088878E-01 -2.80335551E-01 -5.36411607E-05  4.30180813E-05 -5.89905170E-02
 -5.58578145E-02 -7.35131725E-02 -4.19828835E-02  4.65046087E-02  2.80325314E-02
  9.12744769E-03  9.98105154E-02  4.67662548E-02  9.17827990E-06  1.65562937E-02
 -3.15585932E-02  1.71746151E-06 -2.45184559E-02 -2.85549312E-02 -2.76182595E-06
  1.30443269E-01 -2.75294637E-05  1.48418597E-05  3.80300671E-02  1.17412962E-01
  1.18710473E-01 -2.04408928E-05  3.23116117E-06  4.40309742E-02 -2.52568400E-03
 -4.77895639E-05 -1.88423720E-01 -2.79244066E-01  5.41388685E-05  4.29397771E-05
  5.85203778E-02 -5.65837312E-02 -1.59714842E-04 -9.12140097E-05  1.01066587E-04
  6.09447627E-05  1.97942925E-05 -3.24479259E-04 -1.25544769E-01  1.13681016E-08
 -1.99845000E-05 -6.01291624E-02  3.84235389E-09  9.44739875E-05  1.37630180E-02
 -3.21588932E-09  2.84468406E-04  5.38229943E-08  5.68832320E-05  5.52212678E-04
  1.82457409E-01  2.58485799E-04  3.69168675E-08  3.42461700E-05  9.80666450E-05
  7.37352620E-02 -4.59901761E-08  7.78924087E-04  4.61102450E-02  2.32591157E-07
  1.16507081E-04  4.72405108E-04  1.12590222E-01  8.94042650E-05  5.36358893E-05
 -3.28748105E-05 -2.38977314E-05  1.70559518E-05  1.95312763E-01  1.68914497E-04
  4.07382866E-06  1.19887631E-01  1.03681727E-04  2.49733011E-06  1.81175276E-02
  1.56748335E-05  3.70652415E-07  1.70571651E-04 -1.00933139E-05  2.14487403E-09
 -1.39626201E-01  5.47348806E-04  1.45023083E-04 -6.79520105E-06 -4.26893995E-09
 -2.07935962E-02  8.15209020E-05  2.75731126E-05  5.42867150E-01  4.69346717E-04
  8.26490739E-05 -3.90957236E-07  3.73147426E-04 -6.26234789E-07 -4.24034947E-02
 -2.42145540E-02  2.68283700E-02  1.61727003E-02  5.27588338E-03 -6.82708163E-02
 -9.95620258E-02  2.72305112E-06 -5.06356391E-02 -1.65043707E-02 -2.41893026E-07
 -3.06111433E-04  2.44428729E-02 -1.31354216E-06  7.49957033E-02  3.34653570E-05
  2.42394539E-05 -1.60789040E-01  3.81560961E-02  6.83330880E-02  1.94270569E-05
  1.79087742E-05 -4.82598385E-02  4.41788453E-02 -2.51831365E-05 -6.18852125E-02
  1.87653711E-01 -8.55484730E-05  3.76647380E-05  3.32813478E-02 -9.78560774E-02
 -4.26805140E-02 -2.43727487E-02  2.70036756E-02  1.62783966E-02  5.31029002E-03
 -6.76925364E-02  9.98776338E-02  2.75782366E-06 -5.05399766E-02  1.64888378E-02
 -2.35335973E-07 -4.48272126E-04 -2.45498855E-02 -1.32397133E-06  7.54872243E-02
  3.33127104E-05 -2.42517162E-05 -1.60800934E-01 -3.70591904E-02  6.87803869E-02
  1.93137669E-05 -1.79362340E-05 -4.82740252E-02 -4.39919628E-02 -2.53632431E-05
 -6.29775199E-02 -1.88579950E-01 -8.54979749E-05 -3.71544332E-05  3.40985119E-02
  9.74384039E-02  8.48723102E-02  4.84676015E-02 -5.37156506E-02 -3.23912609E-02
 -1.05338790E-02  1.04496191E-01 -3.42977228E-04 -6.11217248E-06 -2.19324154E-02
 -9.09797887E-05 -2.07420304E-06 -4.27479980E-02  6.94185598E-05  1.72140719E-06
 -1.50836601E-01  2.23782480E-06  1.04497855E-07 -9.57608575E-02  5.39031085E-04
 -1.37175109E-01 -1.08250462E-06  6.53906045E-08  2.78373088E-02  8.24016242E-05
  2.44408038E-05 -3.88554069E-01  4.82417082E-04  2.44259550E-06  2.13891408E-07
 -6.78047170E-02  4.19815926E-04 -4.21485802E-05 -2.33433311E-05  1.45390201E-05
  1.09847741E-05 -2.82260683E-06  8.82546093E-02 -3.86171675E-05  1.84540628E-06
  4.56660503E-02 -2.00529338E-05  9.50622876E-07 -2.00532829E-02  8.69730549E-06
 -4.15033391E-07 -7.55698576E-05 -6.37715286E-05  3.61673496E-08 -3.47101770E-01
  9.08899884E-04 -6.29113626E-05 -1.38110774E-05  6.90568194E-09 -3.75860323E-02
  9.83230102E-05 -1.20173933E-05 -2.36882774E-01  1.02884661E-04 -2.30198773E-05
  6.94143958E-08 -1.79201770E-04  1.10551474E-06  2.86124550E-02  1.57649646E-02
 -1.63875171E-02 -1.62515520E-02 -7.00300411E-03 -6.36798999E-02 -7.78003524E-03
 -1.11157185E-05 -3.23759147E-02 -1.14205003E-02 -5.70927674E-06 -3.03029381E-02
 -2.84540363E-02 -2.59826014E-06 -3.13392256E-02 -3.31426978E-05  1.13125550E-05
 -2.17890844E-01  1.55582596E-01 -1.84128246E-02 -1.83906306E-05  5.38314202E-06
 -1.22673533E-01  8.52344893E-02 -1.77733059E-05 -9.00499629E-02 -1.08253316E-01
  3.48281002E-05 -6.14372186E-05 -1.04348881E-01 -3.97559655E-01  2.86703106E-02
  1.57968423E-02 -1.64206810E-02 -1.62844143E-02 -7.01714916E-03 -6.36552368E-02
  7.84608449E-03 -1.11353329E-05 -3.23394389E-02  1.14641926E-02 -5.71918288E-06
 -3.02117287E-02  2.85187764E-02 -2.60154504E-06 -3.14026243E-02 -3.31691061E-05
 -1.12896447E-05 -2.18342381E-01 -1.54649202E-01 -1.84501231E-02 -1.84023849E-05
 -5.36917799E-06 -1.22920951E-01 -8.47057025E-02 -1.77934832E-05 -8.97027440E-02
  1.08477670E-01  3.50047356E-05  6.13202122E-05 -1.02127125E-01  3.97923518E-01
 -5.71785672E-02 -3.15049027E-02  3.27505934E-02  3.24953314E-02  1.40020252E-02
 -5.00475493E-02  1.14044824E-05  1.85474921E-05 -1.25641726E-02 -9.84940482E-06
  9.81687051E-06  1.90345057E-02 -4.66269893E-05  4.34285712E-06  6.28578473E-02
 -4.49373606E-05  3.48503140E-08  5.07139975E-02  7.58170003E-05  3.68865163E-02
 -2.35819559E-05  1.76796216E-08  2.45042813E-02  5.02219425E-05  3.13889046E-05
  9.79020667E-02 -1.88563795E-04 -5.83190535E-05  8.98452014E-08  2.06815250E-01
 -3.64201907E-04  1.54712320E-07  8.48478010E-08 -5.31437774E-08 -3.56157654E-08
  6.10594637E-09  3.84046053E-05  8.83553027E-02 -1.14035955E-09  1.98258106E-05
  4.57753867E-02 -5.75176996E-10 -8.77917909E-06 -2.00200520E-02  2.38903587E-10
  2.62313789E-07 -1.32086010E-08 -4.94437515E-05  9.09290613E-04  3.47158166E-01
  2.14999898E-07 -4.45907452E-09 -1.22489361E-05  9.87815413E-05  3.76765898E-02
  6.92315619E-09 -1.03630429E-04 -2.36652920E-01  9.18457416E-08  3.85312747E-05
  1.21296143E-06  1.55977789E-04 -4.95104272E-02 -2.72791437E-02  2.83482743E-02
  2.81347572E-02  1.21289584E-02 -7.94020766E-03 -5.45591146E-02  1.68216079E-05
 -1.14491811E-02 -1.91569832E-02  8.50542670E-06 -2.84151771E-02  2.64021001E-03
  2.83999057E-06  5.44199918E-02  2.92164383E-06 -3.83208971E-05 -1.54956544E-01
  3.91316874E-02  3.19188791E-02  7.19769971E-07 -2.02056788E-05 -8.48878542E-02
  2.46627606E-02  1.74679096E-05 -1.08221425E-01  3.54127731E-02  6.29687766E-05
  2.17512273E-05  1.78544300E-01 -2.29783345E-01  4.94769927E-02  2.72607235E-02
 -2.83291560E-02 -2.81158074E-02 -1.21207779E-02  7.90364542E-03 -5.45845630E-02
 -1.68085963E-05  1.14479829E-02 -1.91937637E-02 -8.49874777E-06  2.84556092E-02
  2.54915794E-03 -2.83695943E-06 -5.43837475E-02 -2.96102926E-06 -3.83016316E-05
  1.55369503E-01  3.86803226E-02 -3.18975576E-02 -7.39491771E-07 -2.01978672E-05
  8.51309209E-02  2.44154301E-02 -1.74470628E-05  1.08397860E-01  3.50666126E-02
 -6.29201771E-05  2.19360832E-05 -1.79826314E-01 -2.29151590E-01  3.30554899E-05
  1.82136367E-05 -1.89165840E-05 -1.88189192E-05 -8.12052705E-06 -4.07551644E-05
 -6.83615076E-02 -1.07597453E-08 -3.24188357E-05 -3.90544176E-02 -5.70183917E-09
 -5.85028602E-05 -4.66782253E-02 -2.53959081E-09 -3.66953892E-05  7.09436610E-09
 -1.86955688E-05  5.97480777E-04  3.07854367E-01 -2.14222726E-05  2.68412816E-09
 -1.08495280E-05  3.35702343E-04  1.71918786E-01 -1.83139003E-08 -2.12051386E-04
 -1.52364115E-01 -6.68882558E-08 -4.95258653E-05  1.28245897E-03  4.59290814E-01
  5.37143938E-11  2.96588763E-11 -1.80869562E-11 -1.41980227E-11  5.65345462E-12
 -1.45805033E-08  1.39436208E-05  3.73574363E-07 -7.53713764E-09  7.21126835E-06
  3.63236341E-08  4.26308599E-09 -4.07552733E-06  1.43119498E-08 -2.60807801E-08
 -3.69030057E-04  3.52154419E-01  1.23904122E-07  2.28718208E-05 -4.01603833E-09
 -5.82672844E-05  5.55676040E-02  3.78455332E-09 -2.34207236E-07  9.26818147E-07
  5.27417501E-08 -6.83169873E-05 -5.67133579E-04 -1.38233751E-01  1.83383537E-08
  3.56111825E-06 -9.28026493E-06 -5.05524128E-06  5.41987553E-06  5.18041291E-06
  2.11881814E-06  5.77542807E-06 -1.31509209E-05 -1.04645395E-01  1.52685288E-06
 -5.31633360E-06 -6.31564339E-02 -2.69337444E-06  1.57926836E-07 -3.22226142E-02
 -1.69446914E-05 -1.41170004E-01  2.49654511E-01 -2.27741798E-05 -1.50410973E-05
 -9.46917757E-06 -8.10029579E-02  1.46952182E-01 -1.35780723E-05 -7.40158678E-06
 -2.82699722E-01  1.46834603E-05 -5.03837040E-05 -2.06052425E-01 -3.19924699E-01
  6.10386650E-05 -2.13763980E-05  9.25808157E-06  5.04315802E-06 -5.40691812E-06
 -5.16804562E-06 -2.11375439E-06 -5.75980534E-06 -1.31242526E-05  1.04395945E-01
 -1.51357767E-06 -5.31240722E-06  6.30058822E-02  2.71071580E-06  1.38472985E-07
  3.21458479E-02  1.69035165E-05  1.41321581E-01  2.48783243E-01  2.28024310E-05
 -1.50155628E-05  9.44565955E-06  8.10821763E-02  1.46452279E-01  1.36075263E-05
 -7.38693753E-06  2.82026340E-01 -1.46319145E-05 -5.02968983E-05  2.04406818E-01
 -3.19912289E-01 -6.10272054E-05 -2.12359816E-05  2.20543398E-08  1.20139647E-08
 -1.28801720E-08 -1.23182927E-08 -5.03577358E-09  1.91298261E-08 -6.94990759E-06
  2.49330616E-04  3.04810012E-09 -4.97913829E-06  1.50466619E-04 -1.16961536E-08
 -5.69705508E-06  7.67960990E-05  3.71042828E-09 -6.78755702E-04  4.60564394E-03
  3.37874563E-08  3.47009586E-05  1.27217077E-09 -3.93319965E-04  6.34237250E-03
  2.59541306E-08  2.20469289E-05  6.73764261E-04 -1.51184654E-10 -2.65186269E-05
 -8.33137319E-04  3.56237415E-02  6.75676967E-08  5.81733733E-05 -1.01497145E-08
 -5.61855832E-09  3.42223408E-09  2.75293285E-09 -1.15282814E-09  1.38999374E-05
  1.45984647E-08 -7.77944323E-05  7.18074924E-06  7.54316682E-09 -1.07071524E-05
 -4.07555503E-06 -4.27737277E-09 -7.82558354E-07  1.26364915E-05  3.52158587E-01
  3.68952020E-04 -3.73900845E-05  1.23341083E-07  1.97845640E-06  5.56681586E-02
  5.82860208E-05 -2.04952198E-06  3.65655282E-09 -1.62563092E-04 -5.92701302E-05
 -8.09255028E-08  1.38308389E-01 -5.67469948E-04 -3.54977627E-06  1.83606143E-08
  5.34020046E-06  2.90883863E-06 -3.12033090E-06 -2.97929027E-06 -1.21879133E-06
 -1.02135449E-05  3.60043252E-06  6.01549699E-02 -5.81928991E-06  2.02846093E-07
  3.62999143E-02 -4.13549721E-06 -3.37026421E-06  1.85139206E-02  9.91319618E-06
  8.57105572E-02 -1.40837605E-01 -2.16011583E-05  2.86436660E-05  5.66569041E-06
  5.28801816E-02 -8.07894621E-02 -1.43960095E-05  1.69553514E-05  1.62408267E-01
 -3.72398480E-05  1.36851707E-05  8.28575370E-02  2.04444658E-01 -3.43254270E-05
 -5.61760666E-05  5.37852981E-06  2.92971734E-06 -3.14272489E-06 -3.00068497E-06
 -1.22753969E-06 -1.02449078E-05 -3.63385243E-06  6.05869917E-02 -5.82606844E-06
 -2.12894565E-07  3.65606221E-02 -4.11745868E-06  3.37930453E-06  1.86469051E-02
  9.98311495E-06  8.65820117E-02  1.41692090E-01 -2.16238696E-05 -2.86179010E-05
  5.70473079E-06  5.33800971E-02  8.12874717E-02 -1.44090200E-05 -1.69272878E-05
  1.63574988E-01 -3.73283478E-05 -1.38170881E-05  8.28695010E-02 -2.06104046E-01
 -3.42339392E-05  5.62978971E-05 -1.06942825E-05 -5.82542044E-06  6.24827621E-06
  5.97045976E-06  2.44091372E-06 -1.27122072E-05 -1.39861123E-09 -1.20717358E-01
 -3.92335618E-06 -6.29621973E-09 -7.28441907E-02  2.86378755E-06 -1.47001275E-08
 -3.71616142E-02 -1.80292738E-06  3.30804992E-01 -3.27424905E-04  1.78517712E-05
  3.53519582E-08 -6.05384684E-07  1.93483001E-01 -1.83963066E-04  9.14756442E-06
  2.69606065E-08 -3.26029120E-01 -1.29546648E-05 -4.16556901E-08  4.38339771E-01
 -8.19227445E-04  5.32735975E-05 -4.24318252E-08 -7.57553920E-06 -4.08717779E-06
  4.56602990E-06  3.06518985E-06 -3.58742925E-07 -7.03619952E-06  7.20971781E-09
  3.38736405E-01 -2.80521209E-06  2.87784181E-09  1.34981147E-01  1.22300755E-06
 -1.24979695E-09 -5.89268467E-02 -4.31228916E-05  5.10953727E-06  1.64163622E-08
  2.22417743E-08  3.24544493E-11 -6.99749150E-06  7.45284361E-05 -3.13464405E-07
  3.26515132E-09  1.84745583E-11 -1.48623091E-01  7.52309226E-06 -7.59814259E-09
  6.89570036E-05  7.16930968E-08 -2.96451157E-06  9.05133496E-09  4.85952980E-06
  2.60004891E-06 -3.07804230E-06 -3.03123347E-06 -1.30894962E-06  2.65854107E-07
  1.34632073E-06 -4.98118709E-02  9.64263917E-07 -6.47798464E-07 -2.83219555E-02
  2.89262399E-06 -3.60717555E-06 -3.92492032E-02 -2.33034613E-05 -1.26202762E-01
  2.19061140E-01 -4.39650424E-06 -1.66650236E-05 -1.34899480E-05 -6.82384837E-02
  1.18450745E-01 -2.64491191E-06 -9.46801863E-06 -2.44917009E-01  3.01949354E-05
 -4.73925085E-05 -1.46019116E-01 -2.51746243E-01  1.89057931E-05  6.36265832E-06
  4.85953097E-06  2.60004970E-06 -3.07804408E-06 -3.03124037E-06 -1.30895367E-06
  2.63143139E-07 -1.34687745E-06 -4.98119921E-02  9.65589219E-07  6.45812043E-07
 -2.83220106E-02  2.89996557E-06  3.60126792E-06 -3.92491787E-02 -2.33034296E-05
 -1.26648654E-01 -2.18803637E-01 -4.32850841E-06  1.66828116E-05 -1.34899187E-05
 -6.84795679E-02 -1.18311488E-01 -2.60628352E-06  9.47870988E-06 -2.44916745E-01
  3.02913027E-05  4.73307707E-05 -1.44992507E-01  2.52338786E-01  1.88664957E-05
 -6.47812980E-06  4.85807879E-06  2.59932483E-06 -3.07725569E-06 -3.03212498E-06
 -1.30958376E-06  2.58118456E-06 -2.66286007E-09 -4.98585205E-02 -1.57756652E-07
  1.44035485E-10 -2.83453425E-02 -3.34655053E-06  3.40216318E-09 -3.92441770E-02
 -9.67482595E-06  2.52838789E-01 -2.57465552E-04  8.75701832E-06 -1.77587701E-08
 -6.11731637E-06  1.36707607E-01 -1.39213651E-04  5.26050396E-06 -1.06800306E-08
 -2.44876572E-01 -2.31273620E-05  2.35458945E-08  2.91033116E-01 -5.92851272E-04
  7.79058796E-06 -2.37160626E-08 -1.51508715E-11 -8.22958518E-12  9.44669868E-12
  7.49944745E-12  6.94525365E-12 -2.10847610E-07 -7.64179302E-05 -2.91589942E-12
 -4.24147309E-08 -2.07394309E-05 -5.02881845E-13  8.76797445E-08  2.06582789E-05
  1.40993186E-12 -6.07893977E-11 -1.71693286E-10 -4.43594678E-08  1.72743533E-07
 -1.49984603E-04 -3.77947831E-11 -2.83120020E-11 -4.22739398E-09 -1.03823290E-07
  5.85151258E-05 -9.91966483E-12 -2.33382078E-07 -3.62206549E-05  1.29816649E-08
  6.41736360E-06  7.68241604E-04  2.51469766E-01  2.48852853E-05  1.35404838E-05
 -1.28190022E-05 -1.51512586E-05 -1.15571761E-06  8.84257066E-02  5.09513397E-02
  1.84666336E-06  6.07910112E-02  3.50336978E-02  1.26809691E-06  1.51701130E-02
  8.73038585E-03  3.18933727E-07  2.31547304E-05  1.48406943E-05  4.03564110E-06
  1.86658471E-01 -1.08271112E-01  2.13209815E-05  1.01359757E-05  2.68592778E-06
  1.30689186E-01 -7.57825196E-02  4.48298804E-06  8.77176789E-02  5.06148086E-02
 -3.83582662E-05  2.94304215E-05  1.16409200E-03  4.11367733E-01 -2.49828517E-05
 -1.35932661E-05  1.28689288E-05  1.51990987E-05  1.15779486E-06 -8.83219165E-02
  5.11314977E-02 -1.84671714E-06 -6.07195388E-02  3.51574777E-02 -1.26812791E-06
 -1.51521855E-02  8.76116509E-03 -3.18948645E-07 -2.33145900E-05 -1.48325103E-05
  4.06575514E-06 -1.87097810E-01 -1.07509882E-01 -2.14275178E-05 -1.01305070E-05
  2.70650462E-06 -1.30996548E-01 -7.52494096E-02 -4.48306516E-06 -8.76141138E-02
  5.07936680E-02  3.84777230E-05  2.92740379E-05  1.34934591E-03  4.11366348E-01
  9.75950024E-08  5.27974754E-08 -4.99501914E-08 -4.78584734E-08 -2.07778966E-09
 -1.03881414E-04 -1.02075501E-01  5.17839666E-11 -7.14040088E-05 -7.01512929E-02
  3.16016670E-11 -1.78119582E-05 -1.74637398E-02  1.67832857E-11  1.59929338E-07
 -8.44978307E-09 -8.16831278E-06  4.39339435E-04  2.15687470E-01  1.06548786E-07
 -5.60116609E-09 -5.42633734E-06  3.07465692E-04  1.50967175E-01  1.13896807E-10
 -1.02655772E-04 -1.01220354E-01 -5.57866683E-08 -2.73030933E-05  1.25588325E-03
  4.11083834E-01  1.17822617E-08  1.19887377E-08 -4.91178257E-08 -4.13655634E-08
  7.88012805E-09  8.45619029E-04  3.11868614E-01  1.09545210E-08  5.60288582E-05
  2.05948936E-02  7.32829332E-10 -7.82611814E-05 -2.88476154E-02 -1.01342337E-09
  1.09891688E-07 -1.81594305E-08 -9.28194070E-06 -3.40952209E-05 -9.98322317E-02
  1.82369313E-08  2.65598654E-08  1.16220521E-05  2.44589052E-05  7.05506318E-02
  3.97513047E-09  1.25439984E-04  4.62134609E-02 -6.51484973E-09 -4.00673959E-06
 -5.64621084E-08  5.31475381E-06  5.06482068E-02  2.37036769E-02 -3.10278505E-02
 -1.83209642E-02 -7.23202429E-03 -6.87510300E-02  1.17392291E-01 -1.14328187E-05
 -2.53912528E-02  4.08855444E-02 -4.54862868E-06 -1.83918506E-02 -6.10961723E-04
 -1.01879627E-06  1.03765905E-01 -1.71098732E-05  2.10170886E-05  5.55039700E-02
  1.82861360E-01  4.29001897E-02 -6.72869067E-06  8.46263596E-06  2.39681508E-02
  7.55335214E-02 -4.34972443E-05 -1.58971314E-01  2.57261386E-01 -2.63567547E-05
 -5.63172301E-05 -4.49857021E-01 -6.81146186E-02 -5.07473171E-02 -2.37500603E-02
  3.10886088E-02  1.83568745E-02  7.24624859E-03  6.91185476E-02  1.17485308E-01
  1.14550552E-05  2.55136361E-02  4.09198440E-02  4.55730530E-06  1.83168268E-02
 -5.86220355E-04  1.01850968E-06 -1.03968920E-01  1.71530936E-05  2.10353260E-05
 -5.51617421E-02  1.83274370E-01 -4.29840522E-02  6.74668355E-06  8.46984087E-06
 -2.38226062E-02  7.57117776E-02  4.35790634E-05  1.59743925E-01  2.57475911E-01
  2.62189777E-05 -5.64996607E-05  4.50313470E-01 -7.04590287E-02  9.90830410E-05
  4.63706176E-05 -6.07211432E-05 -3.58636623E-05 -1.41814045E-05  2.64221882E-04
 -1.93132824E-03 -1.40611300E-08  9.08608163E-05 -3.16797399E-03 -5.91681097E-09
 -1.60723572E-05 -3.23829172E-02 -8.93104456E-10  2.02935192E-04  2.22773641E-08
 -6.15524698E-06 -1.86478201E-04  8.71632272E-02  8.38550076E-05  8.79004513E-09
 -2.24759903E-06 -8.16014687E-05  3.42133000E-02 -3.92005283E-08  5.72003579E-04
 -1.86282270E-02  4.12103471E-08 -7.29624409E-06 -4.56715719E-04  1.38404639E-01
  1.08148853E-05  8.81862565E-06 -3.02257087E-05 -2.57746363E-05  4.21286137E-06
 -3.11931242E-01  8.45371915E-04 -6.45872027E-06 -2.06491002E-02  5.57749887E-05
 -4.23143209E-07  2.88666089E-02 -7.81900097E-05  5.97756428E-07  6.74059422E-05
  5.13860093E-06 -2.09334692E-08 -9.99022031E-02  3.46558606E-05  1.33373152E-05
 -8.69972092E-06  2.85299961E-08  7.04938640E-02 -2.40903581E-05 -2.35187200E-06
 -4.62602424E-02  1.25236854E-04 -9.76100893E-07 -4.79007433E-09 -4.07977047E-05
  1.49082352E-07  2.93458111E-02  1.37338296E-02 -1.79773449E-02 -1.06118801E-02
 -4.19125502E-03 -3.79210728E-02  6.91393977E-02 -6.58925574E-06 -1.15461326E-02
  2.55135490E-02 -2.57137171E-06  2.17811185E-02  1.83373103E-02  8.15108820E-08
  6.01191798E-02 -1.32961492E-07  1.57335690E-05  1.19340788E-01  5.54367430E-02
  2.48518849E-02 -2.28353657E-07  6.20018003E-06  4.80926506E-02  2.39350210E-02
 -2.42576026E-05 -7.34800431E-02  1.59776908E-01 -2.72851034E-05 -2.23090791E-05
 -2.60266602E-01  1.20492465E-01  2.91742257E-02  1.36535261E-02 -1.78722537E-02
 -1.05498425E-02 -4.16679114E-03 -3.78281754E-02 -6.86647946E-02 -6.55052529E-06
 -1.15118101E-02 -2.53516035E-02 -2.55596052E-06  2.18058403E-02 -1.83836874E-02
  8.49628440E-08  5.97675866E-02 -1.06952558E-07 -1.56621461E-05  1.18927865E-01
 -5.53025367E-02  2.47064790E-02 -2.18141882E-07 -6.17105638E-06  4.79143313E-02
 -2.38745660E-02 -2.41101630E-05 -7.32648370E-02 -1.58756114E-01 -2.71054077E-05
  2.22288445E-05 -2.59475125E-01 -1.19139023E-01 -5.85529001E-02 -2.74028281E-02
  3.58830808E-02  2.11989703E-02  8.38201206E-03 -1.57294268E-01  1.56858327E-04
  8.30442299E-06 -5.56098169E-02  5.12318754E-05  3.49521957E-06 -9.98881509E-03
 -4.46329031E-05  5.28599992E-07 -1.19945046E-01 -1.68632177E-05  6.75119535E-09
  2.15092372E-01 -2.90540274E-04 -4.95686381E-02 -6.54697206E-06  2.86128296E-09
  8.94104679E-02 -1.24172062E-04  2.31718127E-05 -3.49314349E-01  3.24151757E-04
 -3.31411083E-05  5.51302253E-08  5.19746395E-01 -1.35355760E-03  1.89954769E-01
  7.42143224E-02 -1.65800325E-01 -5.79624205E-02 -8.99731809E-03  1.40322942E-05
 -5.38310111E-08  3.57396628E-05 -4.98752529E-05  2.02193455E-07  4.97404213E-06
  1.65643375E-06 -2.88109308E-08 -9.91350202E-06  1.79532925E-01 -6.44370065E-06
  6.55253446E-09 -1.73373893E-05 -1.64304848E-08 -1.01370537E-01  3.64505279E-06
 -3.73086442E-09 -1.54379291E-05 -7.88153513E-08  1.55256804E-05  3.31251296E-05
 -1.33426403E-07  1.19188450E-06 -2.41674146E-09  4.69115596E-02 -1.43315083E-04
 -6.40773443E-02 -2.68266808E-02  4.81702566E-02  3.36513209E-02  9.65819219E-03
  6.96536481E-02 -1.20878336E-01  1.22608200E-05  1.94021804E-02 -3.36695422E-02
  4.33271176E-06 -1.06485689E-02  1.84722009E-02 -5.75774960E-06 -5.19905373E-02
  2.36196173E-06 -5.46485470E-06 -6.41543639E-02 -1.10652978E-01 -1.44592192E-02
  1.22808196E-06 -2.55567843E-06 -1.84626886E-02 -3.18416435E-02  4.57060321E-05
  1.46140388E-01 -2.53665348E-01  2.28671592E-05  3.96596368E-05  3.72529891E-01
 -1.09632828E-03 -6.40773159E-02 -2.68266689E-02  4.81702698E-02  3.36513785E-02
  9.65826716E-03  6.98996665E-02  1.20736252E-01  1.22608146E-05  1.94707200E-02
  3.36300036E-02  4.33270970E-06 -1.06861727E-02 -1.84504832E-02 -5.75774448E-06
 -5.19905225E-02  2.37308314E-06  5.46004061E-06 -6.37031024E-02  1.10913310E-01
 -1.44591864E-02  1.23327710E-06  2.55316286E-06 -1.83328097E-02  3.19165170E-02
  4.57059148E-05  1.46656444E-01  2.53366698E-01  2.27054125E-05 -3.97523831E-05
  3.72529415E-01 -1.17969346E-03 -6.40789565E-02 -2.68273715E-02  4.81802707E-02
  3.36702983E-02  9.67574542E-03 -1.39519975E-01  1.42114138E-04  7.91978595E-06
 -3.88708452E-02  3.96014470E-05  3.12296852E-06  2.13283583E-02 -2.17197987E-05
 -5.09345721E-06 -5.19939390E-02  8.63313420E-07 -8.72290735E-10  1.27882590E-01
 -2.60485577E-04 -1.44531542E-02 -9.01832964E-07  9.20062266E-10  3.67877213E-02
 -7.49362833E-05  2.33866303E-05 -2.92641726E-01  2.97999092E-04 -1.71893140E-05
  3.50185968E-08  3.72448405E-01 -1.13797107E-03 -6.71765504E-06 -2.23896700E-06
  6.00972883E-06  2.56861898E-06 -4.87743171E-07 -1.24902556E-06  1.27116483E-09
  6.02569368E-02 -3.99521218E-07  4.02305929E-10  1.93445672E-02  1.19086425E-06
 -1.21165413E-09 -5.74119307E-02  2.28361958E-06  1.98800238E-05 -9.16149016E-08
  1.51590675E-10  1.64680643E-12  5.02143358E-06 -3.36788582E-06  1.31497035E-08
  1.58232147E-10  3.00030419E-12  3.11464130E-02 -1.58294431E-06  1.61841843E-09
  5.37673742E-06  4.68917585E-09 -1.65731875E-06  5.06272118E-09  3.67223495E-06
  1.27915228E-06 -3.34446842E-06 -2.45148692E-06 -3.13686676E-07 -5.73052078E-06
  7.06866646E-06  7.99943205E-02 -1.54382306E-06  1.69296491E-06  2.74099958E-02
  2.54287073E-06 -2.85216852E-06 -4.33962524E-02  1.04972239E-06  5.23537532E-03
 -9.09832484E-03  1.03594297E-06  2.16074682E-06  4.82625899E-07  3.02185026E-03
 -5.24534999E-03  1.22613205E-07  4.28691449E-07  4.34730968E-01 -4.35933916E-05
  1.66687651E-05 -1.82307892E-01 -3.14258452E-01  2.16969596E-05  7.92688682E-06
  3.67223487E-06  1.27915225E-06 -3.34446906E-06 -2.45148890E-06 -3.13689098E-07
 -5.74490522E-06 -7.05698933E-06  7.99943464E-02 -1.54726857E-06 -1.68982030E-06
  2.74099912E-02  2.54867418E-06  2.84698590E-06 -4.33962843E-02  1.04973100E-06
  5.25390799E-03  9.08768659E-03  1.02713816E-06 -2.16494979E-06  4.82624194E-07
  3.03251914E-03  5.23916944E-03  1.20865717E-07 -4.29187066E-07  4.34729116E-01
 -4.36271214E-05 -1.65797609E-05 -1.81026091E-01  3.14997465E-01  2.16480320E-05
 -8.05927576E-06  3.67321867E-06  1.27949364E-06 -3.34551688E-06 -2.45269031E-06
 -3.14304541E-07  6.50017814E-06 -6.62429228E-09  7.99974327E-02  1.38605572E-06
 -1.41234406E-09  2.74079616E-02 -2.39204026E-06  2.43776727E-09 -4.34024309E-02
  4.86033038E-07 -1.05068295E-02  1.07096317E-05 -2.06244870E-06  4.20492501E-09
  1.56343502E-07 -6.04914970E-03  6.15925312E-06 -2.44002153E-07  4.96565974E-10
  4.34221400E-01  2.09174665E-05 -2.12258991E-08  3.63036611E-01 -7.39686826E-04
  7.82115554E-06 -2.38915429E-08 -6.63626187E-06 -2.08852923E-06  6.32292994E-06
  1.89599348E-06 -8.24887276E-07 -4.61584130E-03  5.42046561E-06 -8.92493766E-08
  3.38154627E-05 -3.84902514E-08  2.95476135E-09  3.46313651E-03 -4.05681941E-06
  5.90182608E-08  8.05240111E-06  8.36474342E-06 -9.69156227E-09  3.82332790E-03
 -7.19789747E-06 -1.13186728E-06 -7.51052631E-06  8.70015262E-09 -4.68198620E-03
  8.82496485E-06 -1.49410554E-07 -2.91287479E-03  3.42599018E-06 -8.79051324E-07
  1.62402130E-09  5.13835200E-07 -7.95609292E-09  1.19599430E-03  4.09451569E-04
 -1.24268380E-03 -6.07626771E-04  1.20203561E-04 -6.92984815E-03 -8.68254557E-05
 -1.01699061E-05 -2.15916748E-03 -8.84178009E-04 -3.10233746E-06  1.45229239E-03
  1.06925200E-03  5.76199493E-06  3.93812600E-03 -6.65868637E-06  2.26441659E-06
 -2.43908433E-03  2.22921519E-03 -1.38046962E-04  5.15294176E-08  8.08735370E-07
 -8.93840790E-04  6.38328406E-04  6.15476501E-04  6.16251474E-01  2.81332224E-01
 -3.40357753E-04 -3.18853489E-04 -5.09396836E-02 -1.58083490E-01  1.19533908E-03
  4.09227282E-04 -1.24200501E-03 -6.07294714E-04  1.20137105E-04 -6.92969130E-03
  1.03061129E-04 -1.01649645E-05 -2.15763482E-03  8.88917189E-04 -3.10083378E-06
  1.45046359E-03 -1.07228636E-03  5.75919884E-06  3.93600291E-03 -6.66257335E-06
 -2.24826184E-06 -2.44883606E-03 -2.21923915E-03 -1.37970472E-04  5.01040261E-08
 -8.08590212E-07 -8.96620382E-04 -6.34730275E-04  6.15200774E-04  6.15770583E-01
 -2.82679860E-01 -3.38977477E-04  3.20053175E-04 -4.99459820E-02  1.58421625E-01
 -2.38691300E-03 -8.17164013E-04  2.48029438E-03  1.21238253E-03 -2.41680870E-04
 -6.75594006E-03  7.89501567E-06  1.99445354E-05 -6.21953365E-04  1.02953310E-06
  6.11210907E-06 -4.01913328E-04  1.27436069E-07 -1.14894180E-05 -7.86316768E-03
 -9.98986210E-06  1.08614193E-08  1.40701709E-03 -3.40854382E-06  2.75726448E-04
 -1.31959547E-06  1.26674224E-09  2.07223580E-04 -6.16802941E-07 -1.16281628E-03
  1.27771216E-01 -2.49297023E-04 -8.50941631E-04  1.71695456E-06  1.00984701E-01
 -3.36498700E-04  2.28081764E-08  7.21705036E-09 -2.14071828E-08 -6.65970543E-09
  2.76109654E-09 -5.42596892E-06 -4.61707127E-03 -4.60352280E-11  3.88053334E-08
  3.19822424E-05 -9.12388878E-12  4.07378501E-06  3.45795756E-03  6.71409710E-11
 -2.36331169E-08  9.79068475E-09  8.21407123E-06 -7.17290449E-06 -3.81972809E-03
  5.39797402E-09 -8.73084487E-09 -7.32293433E-06  8.75944355E-06  4.67021670E-03
 -2.35854723E-11 -3.42211954E-06 -2.91650022E-03  2.04819197E-09  1.07437999E-06
 -6.85945973E-09 -2.58111978E-06 -2.07081023E-03 -7.08935984E-04  2.15122882E-03
  1.05153510E-03 -2.09174228E-04 -8.26961583E-05 -6.80162303E-03  1.73858645E-05
 -8.83077665E-04 -1.12845326E-03  5.28391925E-06  1.05650873E-03  2.07049261E-04
 -9.91325930E-06 -6.81198720E-03  2.41143792E-06 -9.03244448E-06 -2.21090125E-03
 -1.23030609E-04  2.39424225E-04  7.73831462E-07 -8.52776286E-07 -6.35488002E-04
  1.62397863E-04 -9.97119447E-04  2.81008627E-01  2.89306722E-01  3.00894718E-04
  6.58881076E-04  8.70294842E-02 -9.12571551E-02  2.07117014E-03  7.09059216E-04
 -2.15160428E-03 -1.05171651E-03  2.09215859E-04  6.66126062E-05 -6.80168749E-03
 -1.73894630E-05  8.80078350E-04 -1.12995702E-03 -5.28501790E-06 -1.05560175E-03
  2.08847270E-04  9.91530748E-06  6.81320516E-03 -2.43214456E-06 -9.02825781E-06
  2.20957966E-03 -1.32748929E-04 -2.39465909E-04 -7.75547462E-07 -8.51477540E-07
  6.35857198E-04  1.59602795E-04  9.97336040E-04 -2.80225999E-01  2.89790714E-01
 -2.98325557E-04  6.60215327E-04 -8.76014690E-02 -9.06742338E-02 -3.74135639E-07
 -1.28099453E-07  3.89643193E-07  1.91325926E-07 -3.49187353E-08 -8.18333868E-06
 -6.97915622E-03  3.36010715E-09 -2.81739159E-06 -2.66481165E-03  1.02700048E-09
  2.04818935E-06  2.07331893E-03 -1.94917769E-09 -1.24401866E-06 -6.90222120E-09
 -5.11503275E-06  7.82878894E-06  3.72860298E-03  4.25091149E-08  3.40161511E-10
  5.49815910E-07  2.59753818E-06  1.25821950E-03 -2.02202411E-07  8.15075030E-04
  7.80505385E-01  9.87186585E-08  1.21249841E-04  5.75557482E-04  1.83139884E-01
 -1.10692030E-08 -3.46321824E-09  1.06652309E-08  3.05337597E-09 -1.50367135E-09
 -8.74764375E-06  1.59172878E-09 -3.90444981E-06 -2.58219215E-07  5.16478515E-11
 -1.12697790E-06  6.83024514E-06 -1.23997356E-09  7.16799267E-06 -1.33628378E-07
 -4.12631151E-03  8.27647326E-07  7.31368446E-06 -2.08765418E-08  1.25374376E-07
  3.56294251E-03 -7.15719345E-07 -8.54606939E-06  2.44507755E-08  2.60728680E-07
 -5.34429344E-06  9.57035040E-10  3.14250851E-04 -8.95219111E-07 -6.59784607E-09
  6.35923405E-12  2.01095562E-06  6.87802925E-07 -2.12013579E-06 -9.54359223E-07
  2.77740641E-07 -1.50109695E-05 -1.14994586E-06  4.87993071E-03 -4.48527970E-06
 -1.86113394E-06  1.48266276E-03  3.93738397E-06  2.59620877E-06 -2.83468330E-03
  7.56921247E-06  3.56076134E-03 -7.34232807E-04 -5.46190455E-06  5.05341793E-06
 -2.29631110E-07 -7.33725578E-05 -3.99992595E-04 -1.57738937E-06  1.17755480E-06
 -3.26370369E-01  1.12098476E-03  4.84309352E-04  1.60048166E-01  1.87404190E-01
 -1.09483187E-04 -2.79522865E-04  2.01678924E-06  6.89798242E-07 -2.12628611E-06
 -9.57131362E-07  2.78544378E-07 -1.50071333E-05  1.15790892E-06  4.89381061E-03
 -4.47847783E-06  1.86642601E-06  1.48687873E-03  3.92803810E-06 -2.60283346E-06
 -2.84274959E-03  7.59082620E-06  3.56346924E-03  7.34192198E-04 -5.47416667E-06
 -5.03203809E-06 -2.30266410E-07 -7.19020051E-05  4.00776761E-04 -1.58021359E-06
 -1.17073574E-06 -3.27298364E-01  1.11926891E-03 -4.85707484E-04  1.59591997E-01
 -1.88672174E-01 -1.08085372E-04  2.79941741E-04 -4.02135743E-06 -1.37541380E-06
  4.23990435E-06  1.90786720E-06 -5.58429059E-07 -1.26925187E-05 -2.01020966E-10
 -9.79550516E-03 -1.16020453E-06 -3.46221734E-09 -2.97626043E-03 -7.42700346E-07
  5.31863293E-09  5.68865442E-03 -1.47111793E-05  4.83760879E-03 -2.34925646E-06
  3.21193484E-06  4.08631417E-10  4.76532208E-07  6.21490424E-04 -8.81465255E-07
  4.25948477E-07  1.01856129E-09  6.54354823E-01  2.52014214E-04  9.01920929E-07
  4.85984569E-01 -1.03267577E-03  1.97309407E-04 -3.33786644E-07  4.86097123E-11
  1.52731892E-11 -4.63218069E-11 -1.36671155E-11  6.50039464E-12 -1.88872527E-09
 -8.74541195E-06  2.24108807E-08 -5.20813684E-11 -2.61896252E-07  5.80270480E-09
  1.47607510E-09  6.81722023E-06 -3.87319816E-08  6.52005243E-11 -8.18516964E-07
 -4.13458680E-03 -2.03798826E-08 -7.13137280E-06 -9.12646456E-11  7.05557865E-07
  3.56943700E-03  2.38651190E-08  8.37075373E-06  1.85871321E-09 -1.17436909E-09
 -5.36853419E-06 -9.06581986E-07 -3.16693275E-04  1.13285407E-11  1.94553575E-09
 -3.48810568E-06 -1.19300839E-06  3.67663592E-06  1.65432944E-06 -4.83337047E-07
 -9.35196543E-07 -1.35308831E-05 -8.49139246E-03 -1.79774456E-06 -2.28427058E-06
 -2.57990708E-03  2.46293529E-06  8.53295903E-07  4.92919801E-03 -1.29208688E-05
 -7.40227741E-04  4.41975487E-03 -4.97631281E-06 -5.07579859E-07  3.79919034E-07
 -4.00933437E-04  3.91752359E-04 -1.15394423E-06  2.28887207E-07  5.66753577E-01
  4.40157711E-04  5.30017784E-04 -1.89268489E-01 -3.76832629E-01  1.85607706E-04
 -1.48559074E-04  3.48486032E-06  1.19189844E-06 -3.67321558E-06 -1.65278908E-06
  4.82895765E-07  9.31670838E-07 -1.35345715E-05  8.48344194E-03  1.80024762E-06
 -2.29090762E-06  2.57749238E-03 -2.46748553E-06  8.62480244E-07 -4.92458029E-03
  1.29086735E-05  7.43390127E-04  4.41703809E-03  4.98296043E-06 -5.19778086E-07
 -3.79548510E-07  4.01849416E-04  3.90279228E-04  1.15738881E-06  2.26051379E-07
 -5.66219639E-01 -4.40872021E-04  5.31692889E-04  1.87471139E-01 -3.77292832E-01
 -1.86339043E-04 -1.47871118E-04  3.21916646E-09  1.10099483E-09 -3.39346192E-09
 -1.52268354E-09  4.54337375E-10 -5.69529944E-09 -1.55637292E-05  8.07094763E-06
 -4.69635649E-09 -5.51544039E-06  2.45367572E-06  6.07667175E-09  5.38444215E-06
 -4.67957635E-06  1.17777703E-08 -7.82069839E-07  3.13986066E-03  1.42074960E-08
  8.23413179E-06 -3.82710918E-10 -8.23111333E-07 -3.03960925E-04  4.24341803E-09
  2.24933944E-06 -5.36674692E-04  1.19882803E-06  1.37553265E-03 -5.03815010E-04
 -5.16816403E-02  8.17699438E-07  3.19366562E-04 -3.70149714E-11 -1.17939068E-11
  3.40646870E-11  1.10746282E-11 -4.45640085E-12  5.44165539E-08  1.83551152E-05
  7.24889816E-13  1.17248471E-09  7.58005981E-07  7.02684958E-15 -3.88146639E-08
 -1.23473214E-05 -5.22977837E-13  2.91156610E-11  1.40546605E-12  1.36783139E-09
 -2.97934287E-09  1.48371677E-05 -9.55819519E-12  1.74631881E-12 -7.42189425E-11
  4.18907301E-09 -1.68877281E-05  9.91367822E-13  3.18204760E-08  1.19393243E-05
 -5.94810456E-11 -2.99805539E-08 -3.42843824E-06 -1.12223344E-03  6.97901901E-06
  2.38276565E-06 -7.30035564E-06 -3.23219448E-06  5.06617581E-07  6.00789967E-03
  3.48581904E-03  1.24817983E-07  1.01591278E-03  5.87349028E-04  2.11562766E-08
 -3.95108774E-03 -2.27454055E-03 -8.28071856E-08  2.52710031E-05  5.43598625E-07
  2.08730351E-07  4.45459642E-03 -2.57768109E-03 -1.00383272E-06 -2.50447571E-08
 -3.64484424E-09 -4.47638575E-04  2.60335659E-04 -2.52736038E-05 -4.87328228E-01
 -2.81178332E-01  4.77308749E-05 -5.26406489E-06  8.39520726E-05  1.34503545E-01
 -6.99245591E-06 -2.38735648E-06  7.31482590E-06  3.23875439E-06 -5.06815837E-07
 -6.00066369E-03  3.49803136E-03 -1.24815535E-07 -1.01467764E-03  5.89401940E-04
 -2.11554147E-08  3.94641677E-03 -2.28256158E-03  8.28085470E-08 -2.53260494E-05
 -5.43177990E-07  2.09847285E-07 -4.46500791E-03 -2.55946997E-03  1.00578617E-06
  2.50387043E-08 -3.69588036E-09  4.48708186E-04  2.58519940E-04  2.52744261E-05
  4.86747919E-01 -2.82167488E-01 -4.77518867E-05 -5.06869437E-06  7.38578678E-04
  1.34499887E-01  1.34601973E-08  4.59876452E-09 -1.44929215E-08 -6.57788645E-09
  1.84429565E-10 -6.97986837E-06 -6.90127020E-03  1.04802033E-12 -1.17394741E-06
 -1.15823238E-03 -9.02843627E-15  4.63146976E-06  4.54491862E-03 -1.89136198E-12
  5.50699054E-08 -4.28558524E-10 -4.22307575E-07  1.04158408E-05  5.12068829E-03
 -1.95511470E-09  8.43312159E-12  7.84984380E-09 -1.06982165E-06 -5.24256378E-04
 -1.20456422E-09  5.68591081E-04  5.59251020E-01  4.24863555E-08  2.13455670E-05
  4.07771298E-04  1.33713330E-01 -1.25364753E-15 -4.70655826E-16  7.98338132E-16
  1.05732662E-15  5.32819495E-16  7.24199574E-12  4.35517816E-10  3.17770694E-11
  2.94092457E-12  2.91417577E-10  1.35018556E-11 -1.59573063E-12  2.45143387E-11
 -3.39037609E-11  4.14153651E-12  1.40728201E-07  2.49146875E-05 -2.73398396E-12
 -1.69063177E-09 -2.69761531E-12 -9.10758828E-08 -1.56422896E-05 -7.58522089E-14
  1.59221429E-09  3.73542771E-12  3.77077974E-12  5.36123188E-10 -1.92945842E-08
  1.14118954E-05  2.59552685E-09  8.49244538E-07  9.15450155E-11  3.57509803E-11
 -8.11386119E-11 -3.51195102E-10 -4.16214316E-11 -2.04678697E-06 -1.17898569E-06
  4.08974122E-06 -1.51088461E-07 -8.62698783E-08  4.12974453E-06  8.95214133E-07
  5.15368919E-07  8.51064624E-07  2.81458599E-07  7.84881566E-03  4.52183609E-03
 -3.30549478E-06  1.72811033E-06  7.61027856E-10  7.10020658E-06 -9.09818646E-07
  2.51166499E-07 -1.45371308E-07  3.44780991E-04  5.85737223E-05  1.48559950E-05
  4.99384940E-01 -2.89876998E-01 -1.25251534E-05  5.49481726E-05 -9.41684787E-11
 -3.66588828E-11  8.37014954E-11  3.53367678E-10  4.18911533E-11  2.04437213E-06
 -1.18313537E-06 -4.14660805E-06  1.50911721E-07 -8.65728931E-08 -4.15798031E-06
 -8.94161546E-07  5.17187880E-07 -8.37181668E-07 -2.81463659E-07 -7.83955687E-03
  4.53775900E-03  3.31248384E-06  1.71462291E-06 -7.63376820E-10 -7.10990296E-06
 -9.15325039E-07 -2.51757483E-07 -1.44345859E-07 -3.45553909E-04 -5.85436872E-05
  1.49754100E-05 -5.00563196E-01 -2.87842116E-01  1.28606867E-05  5.48707577E-05
  2.62824035E-12  9.09584851E-13 -2.56738197E-12 -2.17689142E-12 -2.70172721E-13
  2.40788015E-09  2.35686943E-06  5.69700202E-08  1.78874746E-10  1.73026165E-07
  2.82706156E-08 -1.05266915E-09 -1.03193947E-06 -1.39496320E-08  5.18942956E-12
 -9.23677426E-06 -9.04163289E-03 -7.00417463E-09 -3.43816032E-06  1.30600433E-12
 -2.68272808E-08 -5.50331459E-06  5.90849632E-10  2.90474979E-07  7.73077978E-07
 -3.03677805E-08 -2.98164710E-05  1.17764070E-03  5.77906028E-01  1.00603562E-07
  3.29341525E-05  1.86109567E-05  5.89062802E-06 -5.25063783E-06 -3.33321978E-06
  4.01765728E-06  1.36828723E-01  2.63858573E-04  2.91924891E-06  5.08377382E-02
  9.80212528E-05  1.07881691E-06  9.65874931E-02  1.86443729E-04  1.95871248E-06
  1.05532035E-04  5.60602844E-05  1.05792572E-07  1.95878606E-02 -9.75305397E-05
  2.19183829E-05  2.55961620E-05  5.84807571E-08 -7.43565082E-02  3.70683400E-04
  1.11092899E-05  2.18193293E-01  4.20745576E-04 -2.59947911E-05  8.74829814E-08
  1.43173711E-04 -2.61140588E-07 -5.36786563E-02 -1.52038234E-02  5.19438563E-02
  3.27466171E-02  1.90203824E-03 -2.25411173E-01 -2.04511282E-01  1.09490876E-05
 -6.37780914E-02 -3.31656682E-02  5.01467168E-07  1.10136869E-01  9.41215757E-02
 -3.72460609E-06  7.05045511E-03 -1.56377512E-05 -2.07877107E-05 -1.35418541E-01
  5.48990331E-02  9.02345354E-03 -3.28376557E-06  2.12965233E-06 -1.17499387E-03
  1.33819438E-02  1.02076463E-05  7.04052370E-02 -2.01633831E-01 -1.29763803E-04
  6.46829255E-05 -1.81379353E-01  2.71986662E-01 -5.42293629E-02 -1.53598088E-02
  5.24767859E-02  3.30826955E-02  1.92153572E-03 -2.23787046E-01  2.05037978E-01
  1.11338191E-05 -6.35150123E-02  3.31459061E-02  5.24078085E-07  1.09389438E-01
 -9.43393762E-02 -3.79742196E-06  7.12318867E-03 -1.54616299E-05  2.09041348E-05
 -1.35319158E-01 -5.39202699E-02  9.11594776E-03 -3.30080569E-06 -2.15474781E-06
 -1.15071707E-03 -1.34615937E-02  1.03364596E-05  7.20126405E-02  2.03287940E-01
 -1.29812573E-04 -6.38108446E-05 -1.84905224E-01 -2.69945856E-01  1.07843293E-01
  3.05464729E-02 -1.04369177E-01 -6.58262893E-02 -3.82835784E-03  1.30010397E-01
 -1.14304701E-03 -2.85366878E-05 -6.15545548E-03 -2.37806334E-04 -3.75126100E-06
 -5.34393907E-02  5.38438445E-04  1.08678070E-05 -1.42638448E-02  2.52360333E-05
 -8.97030171E-08 -4.11207572E-02  5.75465287E-04 -1.81112728E-02 -5.06376207E-06
  2.01172205E-10  2.20322155E-02 -1.85368012E-05  8.08764617E-06  4.22491824E-01
 -5.64045515E-04 -3.95436151E-05  5.09884410E-07  3.66600093E-01 -2.04352148E-03
  4.34599302E-08  1.68994808E-08  3.76918272E-08  8.32821795E-09  1.64607862E-08
  2.64027322E-04 -1.36800172E-01  8.91859312E-09  9.80707752E-05 -5.08062772E-02
  3.27508648E-09  1.86331136E-04 -9.66398547E-02  5.59488928E-09  8.15259336E-07
  1.08987687E-07 -5.52848723E-05  9.71899321E-05  1.94793573E-02  2.11920754E-07
  4.62545772E-08 -2.86971484E-05 -3.70751307E-04 -7.43993536E-02  3.28562309E-08
  4.20944120E-04 -2.18095250E-01 -1.00641465E-07 -1.17524647E-05  8.64508598E-07
 -2.54186163E-05 -9.35883462E-02 -2.65062883E-02  9.05660723E-02  5.71090187E-02
  3.30649389E-03  2.04099526E-01 -1.25380556E-02  3.13797697E-05  3.30078983E-02
  2.52211341E-02  3.83639069E-06 -9.39293714E-02 -6.13549094E-04 -1.23672466E-05
  1.23685146E-02  2.26196805E-05 -1.44685648E-05  5.39365398E-02 -7.24466970E-02
  1.57193507E-02 -2.15702018E-06  5.40750753E-06  1.34276050E-02  1.43218005E-02
  2.18559649E-05  2.02421852E-01 -3.06043248E-01  3.56513506E-05 -5.81550462E-05
 -3.18188300E-01 -1.54827610E-01  9.32701681E-02  2.64161788E-02 -9.02582092E-02
 -5.69150180E-02 -3.29526693E-03 -2.05447701E-01 -1.09137599E-02 -3.13142020E-05
 -3.33315960E-02  2.54839785E-02 -3.83325810E-06  9.45746059E-02 -1.36106521E-03
  1.23448008E-05 -1.23269575E-02 -2.27406932E-05 -1.42994308E-05 -5.50299138E-02
 -7.25457715E-02 -1.56658248E-02  2.14859484E-06  5.39048461E-06 -1.33761371E-02
  1.42971518E-02 -2.17957142E-05 -2.02624010E-01 -3.04439818E-01 -3.66541977E-05
 -5.83869428E-05  3.16153488E-01 -1.58363760E-01  3.17873014E-04  9.00310562E-05
 -3.07642987E-04 -1.94053304E-04 -1.12725078E-05  7.32407640E-04  3.42931474E-01
 -8.39239263E-08  6.62370863E-05  8.28109031E-02 -1.09962163E-08 -3.24788316E-04
 -1.64243523E-01  3.19126615E-08 -4.22031921E-05  9.65577720E-08  2.17351598E-05
 -4.61054863E-04 -1.66846532E-01 -5.33670161E-05 -1.32343091E-08  1.68295639E-06
  4.66916178E-05 -8.93203055E-03  2.38156056E-08  1.29231339E-03  4.52793811E-02
 -4.13644076E-07 -1.45808056E-04  2.03824320E-03  3.13338081E-01 -7.52353476E-06
 -1.51183770E-06  1.36249608E-05  3.44110665E-06 -5.83234379E-06 -1.07465703E-05
  1.11337148E-08  5.15964690E-01 -3.48918280E-06  3.60435371E-09  1.67707721E-01
  5.91535628E-06 -5.86431307E-09 -2.87291564E-01  7.42849112E-05  2.17288168E-04
 -9.67905783E-07 -6.83366390E-09 -1.40967437E-11  2.83385219E-05  9.47799813E-06
 -5.93080387E-08  3.13488400E-08  5.08474713E-11  2.49198952E-01 -1.27006489E-05
  1.31639567E-08 -1.13460939E-05 -2.35360957E-08  4.44170155E-05 -1.35693079E-07
 -3.78145339E-07  7.66236244E-08  4.86365571E-08 -3.22889228E-06  5.40972906E-07
 -4.94449990E-06 -3.54578547E-06  3.44195527E-01 -5.67466883E-06  6.51784591E-06
  9.41366832E-02  6.95289121E-06 -4.26432559E-06 -2.20483620E-01 -2.97492133E-05
 -2.59493607E-02  4.49956561E-02 -3.21474875E-06 -7.52139282E-06  6.50577773E-06
  1.91877689E-02 -3.33103714E-02  3.54144407E-06  7.47778059E-06  1.44931391E-02
 -5.33452522E-05  1.01492212E-04  8.99660999E-02  1.55399902E-01  1.53228206E-05
 -4.10087427E-06 -3.78427668E-07  7.65525570E-08  4.89302461E-08 -3.22869887E-06
  5.40977193E-07 -4.93660866E-06  3.55586514E-06  3.44195416E-01 -5.68781929E-06
 -6.50632465E-06  9.41365789E-02  6.96124771E-06  4.25017502E-06 -2.20483622E-01
 -2.97491819E-05 -2.60409648E-02 -4.49425656E-02 -3.18391334E-06  7.53464089E-06
  6.50579838E-06  1.92554958E-02  3.32711038E-02  3.51098685E-06 -7.49216479E-06
  1.44936578E-02 -5.35516538E-05 -1.01382838E-04  8.93318232E-02 -1.55765223E-01
  1.53469702E-05  4.00764505E-06 -4.39663575E-07  6.10842552E-08  1.13008400E-07
 -3.18592101E-06  5.41568383E-07 -1.13811945E-05  1.10295089E-08  3.44162264E-01
  5.54916704E-06 -5.77121143E-09  9.41097558E-02 -2.78830887E-07  5.65314005E-10
 -2.20479853E-01 -2.69492171E-05  5.19103902E-02 -5.27736836E-05  6.52437831E-06
 -1.30322570E-08  4.44030400E-06 -3.84063419E-02  3.91157101E-05 -7.05691589E-06
  1.43868696E-08  1.46240607E-02  1.04533001E-04 -1.06410638E-07 -1.79525120E-01
  3.65092690E-04  2.20549477E-05 -6.78274220E-08  3.75464540E-02  8.55927553E-03
 -1.45016541E-02 -1.51999554E-02 -3.91657376E-03 -8.87087081E-06  1.55739472E-07
 -1.15822183E-04  2.95157034E-05 -7.44893954E-08 -3.44976090E-05 -1.57936103E-04
  6.94716713E-07  4.96753966E-05  4.21006140E-01 -1.56073919E-05  1.84279210E-08
  4.12593119E-06 -1.90167724E-07  1.15205239E-01 -4.29175926E-06  5.23135846E-09
  1.16819669E-04  1.04154285E-07 -4.46963529E-05  2.45727865E-04 -6.62523620E-07
  7.14181463E-06 -1.31484621E-08  2.70948673E-01 -8.27749902E-04 -3.82099215E-02
 -6.90262087E-03  3.89680659E-02  1.52440193E-02  8.89217383E-03  5.44574251E-02
 -9.36119448E-02 -4.35105691E-05 -6.94982552E-03  1.22224379E-02 -1.33863945E-05
 -1.58183877E-02  2.69509331E-02  3.85200457E-05 -1.35222877E-01  2.73106862E-05
 -3.84808222E-05  2.02459419E-03  3.17591195E-03  1.68943569E-02 -6.73727691E-06
  1.15461716E-05  1.26902639E-02  2.18569415E-02 -9.64534798E-05 -2.26926525E-01
  3.93713971E-01 -2.74217453E-05 -8.35933563E-05  2.09545031E-01 -8.03870926E-04
 -3.82106258E-02 -6.90276466E-03  3.89688576E-02  1.52446076E-02  8.89216457E-03
  5.46497935E-02  9.35004164E-02 -4.35088267E-05 -6.97435790E-03 -1.22082876E-02
 -1.33862033E-05 -1.58742387E-02 -2.69184028E-02  3.85194082E-05 -1.35222901E-01
  2.73908263E-05  3.84261167E-05  2.01223786E-03 -3.18394416E-03  1.68943805E-02
 -6.76091436E-06 -1.15326198E-05  1.26011550E-02 -2.19083658E-02 -9.64557686E-05
 -2.27727921E-01 -3.93250435E-01 -2.70786892E-05  8.37085213E-05  2.09545467E-01
 -4.75617372E-04 -3.83735960E-02 -6.93648205E-03  3.91535639E-02  1.53896849E-02
  8.88587836E-03 -1.08383715E-01  1.08578937E-04 -4.66164138E-05  1.40128023E-02
 -1.45840793E-05 -1.29189467E-05  3.13057528E-02 -3.08903573E-05  3.93998660E-05
 -1.35265351E-01 -4.00874406E-05  3.97653131E-08 -3.86829627E-03  8.48975743E-06
  1.68913455E-02  1.17043752E-05 -1.18982517E-08 -2.52407275E-02  5.14728179E-05
 -6.22248777E-05  4.54494750E-01 -4.62549875E-04  7.21028197E-05 -1.42780314E-07
  2.09616088E-01 -6.41213831E-04 -2.63848734E-10 -5.74353338E-11  1.18105701E-10
  1.10621086E-10  2.04335738E-11  8.22567600E-10 -4.58472392E-06  4.09836275E-07
 -2.67635178E-10  1.59369721E-06  2.32016621E-07  7.71871259E-09 -4.51091280E-05
 -3.46423664E-07 -1.99269654E-08 -6.87146192E-05  4.01689893E-01  5.19245091E-08
  9.95869675E-06 -6.84427669E-09 -2.44094515E-05  1.42439152E-01 -7.54988213E-08
 -2.55794087E-05  8.90635859E-07  2.24748534E-08 -2.55710909E-05  7.48760650E-04
  2.32031317E-01 -2.67879977E-08 -5.90255657E-06 -3.68892397E-05 -7.00294196E-06
  3.90544053E-05  2.49972767E-05  4.76764638E-08  9.38104534E-05  5.80635705E-06
 -1.43949099E-01  1.11470568E-05  7.84351787E-06 -1.24633572E-02 -5.03440101E-05
 -7.25052776E-06  5.33486618E-02 -2.01975117E-05 -1.51084826E-01  8.97231729E-02
  2.93464964E-05 -1.44107264E-05  5.16297794E-06  1.49173933E-02 -2.04523749E-02
  3.34692442E-06  2.93671306E-06  1.88895499E-01 -5.37907156E-05  2.07059996E-05
 -1.74216547E-01  3.30949108E-01 -2.26367671E-05 -5.72554880E-05  3.68390972E-05
  6.99341611E-06 -3.90013148E-05 -2.49631928E-05 -4.77500422E-08 -9.40590792E-05
  6.21274626E-06  1.43752476E-01 -1.11793012E-05  7.89230019E-06  1.24465161E-02
  5.04807280E-05 -7.47011641E-06 -5.32760335E-02  2.01863442E-05  1.51469637E-01
  8.90553204E-02 -2.95113678E-05 -1.43459189E-05 -5.15654459E-06 -1.49512959E-02
 -2.03861759E-02 -3.33930893E-06  2.94115191E-06 -1.88636646E-01  5.39467293E-05
  2.05235486E-05  1.76832399E-01  3.30651472E-01  2.22139274E-05 -5.76052580E-05
  5.08922146E-08  9.65754414E-09 -5.38751870E-08 -3.44258116E-08 -1.34835711E-10
  2.18566730E-07  1.63546923E-04  1.98118982E-04  2.49531299E-08  2.67555935E-05
  1.72371588E-05 -1.18301529E-07 -9.27709705E-05 -7.35543172E-05  1.36329191E-08
 -3.85922957E-04 -1.72475552E-01 -1.03487925E-07 -5.44934639E-05 -5.22047993E-09
  3.99915270E-05  5.45710989E-03 -3.05142165E-09 -3.92585834E-06 -2.59491526E-04
 -5.57109270E-08 -3.61406368E-05  1.56473268E-03  6.34167586E-01  2.79128867E-07
  8.19730709E-05 -3.41587543E-08 -7.52988709E-09  1.33235178E-08  1.45417178E-08
  3.97101223E-09  4.51000425E-06  7.28599884E-10  8.02523524E-05 -1.62361417E-06
 -2.87269785E-10  4.69808983E-05  4.51399741E-05  7.74614428E-09 -7.29414520E-05
 -1.48355017E-05 -4.01894222E-01 -6.89339359E-05  2.66463565E-05 -6.61603411E-08
 -5.22807079E-06 -1.42440971E-01 -2.43885661E-05 -1.96779583E-05  7.05150480E-08
  2.19261501E-04  4.06932517E-05 -1.11288125E-08  2.31799727E-01 -7.47697942E-04
 -6.13505086E-06  2.57994211E-08 -2.12140300E-05 -4.02587549E-06  2.24622079E-05
  1.43873966E-05  1.72109719E-08 -1.09646971E-04 -9.08032415E-05 -8.28292587E-02
 -2.03327516E-05 -1.09089969E-05 -7.15540185E-03  6.38425041E-05  4.92616270E-05
  3.06714587E-02 -5.31382039E-06  8.55316567E-02  1.51108857E-01 -4.46089472E-05
  2.32604480E-05  2.75950117E-06  3.13669080E-03 -1.49390392E-02 -1.78283506E-06
  3.94094481E-06  1.08762668E-01  4.69083967E-05  3.23597335E-05  5.32924869E-01
 -1.76559887E-01 -2.89352972E-05  8.94080264E-05 -2.13017658E-05 -4.04252369E-06
  2.25551073E-05  1.44468791E-05  1.73256651E-08 -1.09238234E-04  9.10117592E-05
 -8.31717003E-02 -2.02839181E-05  1.09316662E-05 -7.18507169E-03  6.36220426E-05
 -4.93738856E-05  3.07983588E-02 -5.36192575E-06  8.48631231E-02 -1.51495125E-01
 -4.46332277E-05 -2.30446375E-05  2.77174590E-06  3.20264415E-03  1.49811144E-02
 -1.79094815E-06 -3.94061297E-06  1.09212069E-01  4.67139373E-05 -3.25044343E-05
  5.33219674E-01  1.73600280E-01 -2.95336835E-05 -8.90930299E-05  4.26161003E-05
  8.08596901E-06 -4.51232368E-05 -2.88814628E-05 -6.60294374E-08  4.31758587E-05
 -2.38655212E-07  1.66312961E-01 -1.86234366E-06 -2.99393195E-08  1.44241552E-02
 -1.98740931E-05  1.30699885E-07 -6.16617878E-02  1.08466005E-05 -1.76879335E-01
  3.85189594E-04  6.36540265E-06  5.18131618E-08 -4.30100059E-06  2.89941866E-02
 -3.60511042E-05  4.02669762E-06 -3.52304830E-09 -2.18140152E-01 -1.39792068E-05
  5.71804391E-08  2.29800337E-01 -1.22145503E-03  2.49221829E-05 -1.73502092E-07
 -6.05092805E-05 -7.86722921E-06  5.06003050E-05  2.59031879E-05  1.18242704E-05
  2.76978224E-01  7.16217917E-04  5.79629665E-06  1.12253962E-01  2.90196642E-04
  2.34614410E-06 -1.84952309E-01 -4.78119672E-04 -3.85697732E-06 -3.86157484E-04
 -4.29022375E-05 -1.01783263E-07 -5.91150353E-02  3.34001039E-04 -4.25158973E-05
 -2.17423267E-05 -6.85573109E-08  8.32937648E-02 -4.69740006E-04  1.35716859E-05
  2.66517682E-01  6.88874643E-04  5.12070377E-05 -3.51679805E-07 -1.64064920E-04
  6.09264881E-07  5.04744726E-02  7.22177447E-03 -5.70120949E-02 -4.51993551E-02
  1.14379725E-02  4.20026720E-01  1.93907167E-01  3.21559384E-07  4.29069648E-02
  3.62578338E-02 -3.92239317E-07 -2.67975824E-01 -1.61735044E-01 -1.39733302E-06
  3.96801017E-03  2.57584420E-05  1.85639051E-05 -6.79398196E-02 -1.09811102E-01
  9.00965182E-03 -1.30623974E-06 -1.98564341E-07  4.03174484E-02  1.12934734E-02
  2.00574423E-05  1.13079707E-02 -7.43697664E-02  8.64089329E-05 -4.02808298E-05
 -1.51049445E-01  8.15520334E-02  5.11078420E-02  7.31240286E-03 -5.77275184E-02
 -4.57667268E-02  1.15816925E-02  4.18238379E-01 -1.93350612E-01  1.87398643E-07
  4.25713978E-02 -3.63389570E-02 -4.13800906E-07 -2.66481641E-01  1.61698874E-01
 -1.32083890E-06  4.01651909E-03  2.55524319E-05 -1.85637496E-05 -6.82856829E-02
  1.11500680E-01  9.12302158E-03 -1.30519632E-06  1.83567308E-07  4.03535624E-02
 -1.18449575E-02  2.03284036E-05  1.19967832E-02  7.50488851E-02  8.61848939E-05
  3.96332502E-05 -1.53442518E-01 -8.02834150E-02 -1.01448441E-01 -1.45165372E-02
  1.14591934E-01  9.08923972E-02 -2.30196332E-02  8.40363002E-02  1.82718126E-03
  1.86693257E-05 -2.01489449E-02  2.49939892E-04  2.17571139E-06  1.27792401E-02
 -1.31229960E-03 -8.15754576E-06 -7.63951653E-03 -1.39308390E-05  1.55719541E-07
 -2.59780219E-01  5.44391850E-04 -1.81724462E-02  8.06315482E-07 -1.07763200E-08
  6.04051101E-02 -2.44213037E-04 -3.19147061E-05  1.40156134E-01 -2.55933005E-04
  1.65100552E-05 -4.56481950E-07  3.04144308E-01 -1.26595804E-03  3.42673324E-07
  4.36590356E-08 -2.76943421E-07 -1.44628257E-07 -1.04218889E-07 -7.15913874E-04
  2.77104206E-01 -2.10409369E-08 -2.90158672E-04  1.12281714E-01 -8.51030041E-09
  4.78009729E-04 -1.84967885E-01  1.39595860E-08  2.45623431E-06  1.13277334E-07
 -4.03104664E-05  3.34484207E-04  5.94161099E-02  2.79486725E-07  5.26606610E-08
 -2.51572107E-05 -4.69680841E-04 -8.32778492E-02 -4.89870112E-08 -6.88797198E-04
  2.66494563E-01 -3.24297523E-07 -6.86534929E-05  9.99107981E-07  1.22650534E-05
 -8.80738053E-02 -1.26019306E-02  9.94853928E-02  7.88977925E-02 -1.99928382E-02
  1.92112570E-01  1.94819941E-01  1.85944213E-05  3.61451225E-02  6.46049357E-04
  2.99212471E-06 -1.60768224E-01 -7.98166258E-02 -1.06028766E-05 -6.75608880E-03
  2.32240394E-05  7.19260104E-06  1.11195760E-01  1.96139247E-01 -1.57705441E-02
 -8.77770679E-08 -2.45317999E-06 -1.18216354E-02 -5.37466261E-02 -3.76528323E-05
 -7.44086549E-02  9.79346904E-02  5.32281421E-05 -4.09827163E-05  2.64163328E-01
  4.58529246E-02  8.77076133E-02  1.25495406E-02 -9.90717690E-02 -7.85699331E-02
  1.99098579E-02 -1.94733920E-01  1.96609296E-01 -1.85964499E-05 -3.64513832E-02
  9.81496671E-04 -2.98925236E-06  1.62529800E-01 -8.13112697E-02  1.06128155E-05
  6.72665923E-03 -2.33938730E-05  7.37381765E-06 -1.09906455E-01  1.95792310E-01
  1.57052422E-02  9.21670247E-08 -2.45476846E-06  1.13121511E-02 -5.37103780E-02
  3.75070221E-05  7.45222328E-02  9.72432605E-02 -5.40166052E-05 -4.10518096E-05
 -2.62778866E-01  4.80463736E-02  3.65408366E-04  5.22862473E-05 -4.12758509E-04
 -3.27426644E-04  8.29645706E-05  2.37478046E-04  5.30825832E-01 -6.72367848E-08
  1.37452760E-04  6.36677419E-02 -7.84751085E-09 -4.13157743E-04 -3.60601973E-01
  2.94198744E-08  2.72553514E-05  8.99987038E-08  3.92653910E-05  9.44821287E-04
  4.31471501E-03  6.55246679E-05 -5.67890408E-09 -2.76117368E-06 -2.86212816E-04
 -3.36419170E-02  1.14769414E-07 -5.36284770E-04 -3.13684856E-02 -2.98181779E-07
 -1.17315059E-04 -1.38152265E-03 -9.36022572E-02  1.35322878E-07 -3.66013661E-09
 -9.62465525E-08 -3.20753348E-08  3.04674526E-08  1.08665669E-04 -2.03313242E-01
  6.38566394E-09  1.45734104E-05 -2.72951927E-02  8.73929771E-10 -3.10180225E-05
  5.80149045E-02 -1.85088518E-09  6.44821291E-07 -3.05600043E-08 -4.04784395E-06
 -1.82285478E-03 -5.07758081E-01  6.67102988E-08 -1.61669402E-08  1.91558609E-05
 -3.29565235E-04 -9.18036059E-02 -2.73843118E-08 -1.87813927E-04  3.51238759E-01
 -2.84307161E-07 -8.91544423E-05 -9.47772717E-07 -2.63796140E-04  5.29704123E-02
 -1.57741847E-03 -6.12477796E-02 -2.91571520E-02  2.34506356E-03 -2.83995151E-02
  5.92452003E-02 -5.61621963E-05  1.07308451E-02 -1.55746307E-02  2.82599213E-06
  6.65123835E-02  7.69295900E-03  3.04218917E-05 -1.06198920E-01  1.43377661E-05
  3.35996242E-05  2.01598673E-01 -6.25327553E-02  2.97697914E-02 -6.11506079E-06
 -5.30484387E-06 -5.63697426E-02  1.03928490E-02 -9.54931182E-07 -1.42133575E-01
  7.30049421E-02  7.23782487E-05 -1.88703171E-06  1.72415858E-01 -2.61414786E-01
 -5.28754903E-02  1.57459007E-03  6.11380607E-02  2.91049517E-02 -2.34075569E-03
  2.84381863E-02  5.90996088E-02  5.60610391E-05 -1.07527297E-02 -1.55193407E-02
 -2.82112661E-06 -6.67598607E-02  8.03557777E-03 -3.03752918E-05  1.06007979E-01
 -1.44126315E-05  3.36360686E-05 -2.02772822E-01 -6.23372139E-02 -2.97162859E-02
  6.13827373E-06 -5.32584657E-06  5.66469859E-02  1.03380865E-02  9.80066639E-07
  1.42565941E-01  7.22719365E-02 -7.25926761E-05 -1.80965301E-06 -1.73703677E-01
 -2.61765869E-01 -9.49238158E-05  2.82581621E-06  1.09771735E-04  5.22690020E-05
 -4.14887923E-06 -1.07403003E-04  1.00898600E-02  9.72481933E-08  3.68897068E-05
  3.06899887E-03 -3.96746719E-09  1.73159884E-04  1.23278645E-01 -5.10756027E-08
  1.89958749E-04 -1.57219078E-08  3.73970965E-05 -7.56582810E-04 -4.12914279E-01
 -5.32575723E-05 -3.86513057E-09 -1.00231979E-05  1.85859187E-04  1.08254200E-01
 -2.36927257E-08 -4.17121150E-04 -1.73940440E-01 -1.02189742E-07 -8.36706821E-05
  1.28969546E-03  5.23653492E-01 -3.29693016E-05  5.44121978E-07  1.75680668E-05
  7.47605969E-06 -3.17521667E-06 -2.03425938E-01 -1.08891901E-04 -4.18349554E-06
 -2.73798505E-02 -1.46712757E-05 -5.66596918E-07  5.80301036E-02  3.10523865E-05
  1.20002737E-06 -1.85068123E-04  1.69726991E-05 -2.36302346E-08  5.07737404E-01
 -1.82266650E-03 -2.48342554E-05  2.29821354E-05  6.36900296E-09  9.18645613E-02
 -3.29784038E-04  1.77597802E-05  3.50957500E-01  1.87778313E-04  6.62118782E-05
 -2.73444112E-07 -5.97374881E-06 -1.32500733E-06 -3.04611358E-02  9.11707046E-04
  3.52279946E-02  1.67739067E-02 -1.36653955E-03  2.63085108E-02 -2.81924942E-02
  3.25512637E-05 -3.09158006E-03  1.07195122E-02 -1.56768956E-06  8.50657776E-02
  6.65688911E-02 -1.49818974E-05  6.11419757E-02  4.62626942E-05  2.23598576E-06
  2.96252543E-01 -2.02993110E-01 -1.71547356E-02 -1.09935331E-05 -2.72973413E-06
 -7.57212088E-02  5.67170111E-02 -8.24617444E-06 -9.21122642E-02 -1.42177745E-01
  6.65844700E-05 -7.04063950E-05 -1.00821094E-01 -4.53601333E-01 -3.06255034E-02
  9.16625727E-04  3.54181004E-02  1.68644466E-02 -1.37382906E-03  2.64544303E-02
  2.83222725E-02  3.27258038E-05 -3.14677420E-03 -1.07613835E-02 -1.57649110E-06
  8.47229697E-02 -6.67172063E-02 -1.50764883E-05  6.14713785E-02  4.62134783E-05
 -2.22560246E-06  2.96448630E-01  2.01591811E-01 -1.72471726E-02 -1.09689130E-05
  2.73557478E-06 -7.57758117E-02 -5.63761258E-02 -8.24335737E-06 -9.13804325E-02
  1.42589647E-01  6.66453344E-05  7.01293398E-05 -9.85870419E-02  4.53398570E-01
  6.11087295E-02 -1.82844897E-03 -7.06786406E-02 -3.36626913E-02  2.69409391E-03
  7.56037459E-02 -6.11515594E-05 -6.26692872E-05 -2.17178954E-02  2.69330171E-05
  2.56586187E-06 -3.06082501E-02  2.22795370E-04  3.29434758E-05 -1.22348250E-01
  3.45922055E-05  2.29016596E-08 -5.42032268E-02 -5.31709372E-04  3.43353180E-02
 -4.06904453E-06 -1.14447143E-08  2.22546190E-02  1.23021782E-04  1.52010225E-05
  1.54433356E-01 -4.27532175E-04 -4.38788905E-05 -4.06368581E-08  1.99458978E-01
  2.04591975E-04  1.03516125E-08 -1.23796394E-09 -1.31538362E-08 -3.88350875E-09
  8.18654368E-09  1.20138931E-05  1.78695733E-09 -3.32405634E-05 -2.25197958E-06
 -3.45097907E-10 -1.18318380E-05 -2.21726988E-05 -3.31666501E-09  2.00825627E-05
  1.28086951E-05  3.57379505E-01  5.37046138E-05  2.81104206E-05 -1.07411765E-07
 -4.88647124E-06 -1.36369265E-01 -2.04975712E-05  8.37498367E-06 -2.02355601E-08
 -2.40874960E-05  2.24370781E-05  1.29457709E-08 -1.25166424E-01  4.01074769E-04
  3.18533091E-06 -1.35599387E-08  5.55427866E-06 -6.43618333E-07 -6.86967367E-06
 -2.72261143E-06  4.04435886E-06  4.20007090E-06 -2.43334389E-05 -3.49504418E-01
  8.62462289E-07  4.11433487E-06  5.61997008E-02  6.54656043E-06  2.23580186E-05
  2.82075455E-01  4.52119881E-06  9.26990105E-02 -1.35707129E-02  2.06789469E-05
 -1.72901251E-05 -4.30990389E-06 -5.77930250E-02  2.45806332E-02 -7.12830703E-06
  4.87736140E-06 -2.34153913E-02 -9.48174266E-06 -1.23352690E-05 -3.31000404E-02
 -3.12486635E-03 -4.25373308E-06 -3.38305616E-05  5.57678101E-06 -6.46225892E-07
 -6.89750747E-06 -2.73364237E-06  4.06074267E-06  4.33600138E-06  2.43834495E-05
 -3.50921878E-01  8.39727742E-07 -4.12246021E-06  5.64276860E-02  6.42497536E-06
 -2.24027701E-05  2.83219502E-01  4.52717327E-06  9.27583823E-02  1.36351146E-02
  2.07076534E-05  1.71950655E-05 -4.32102814E-06 -5.79006117E-02 -2.46643324E-02
 -7.13438451E-06 -4.83915942E-06 -2.35101624E-02 -9.42340760E-06  1.23679787E-05
 -3.30940569E-02  3.34567910E-03 -4.06719531E-06  3.38081368E-05 -1.11228446E-05
  1.28892623E-06  1.37591765E-05  5.45345150E-06 -8.09805657E-06  2.46868327E-05
 -4.50546839E-08  7.00447416E-01 -2.77842710E-06  7.96681867E-09 -1.12661759E-01
 -1.47105988E-05  4.45103488E-08 -5.65337616E-01  1.78105747E-06  1.16170766E-01
 -1.90865649E-05 -1.01478535E-05 -1.96818000E-08  8.74348406E-07 -1.00416478E-01
  5.12743115E-05  3.04343781E-06  8.22499310E-09  4.67992354E-02  7.97083442E-06
 -2.63490596E-08 -3.85419092E-02  1.14811106E-04  1.10078054E-05  1.12299297E-08
 -4.44810254E-11  5.24255098E-12  5.43469448E-11  1.54692503E-11 -3.70792271E-11
 -1.82788089E-09  1.20481274E-05  2.39531154E-07  3.28504356E-10 -2.24138542E-06
  4.61137282E-08  3.34291127E-09 -2.21905929E-05 -1.43364611E-07 -1.48951987E-08
 -5.35376386E-05  3.57290036E-01 -1.20065909E-07 -4.28616258E-05  5.67153380E-09
  2.04306144E-05 -1.36378987E-01 -1.52815649E-08 -2.70686699E-06 -1.63540339E-08
  4.99683670E-09  3.06127322E-05  4.01400449E-04  1.25210641E-01 -1.35354394E-08
 -3.20352980E-06 -9.66141162E-06  1.12038130E-06  1.19508711E-05  4.73559540E-06
 -7.03197328E-06 -3.69397353E-05  2.52214119E-05  6.07029918E-01  6.14022095E-06
 -2.75024854E-06 -9.76617307E-02  3.25175420E-05 -1.35846110E-05 -4.89922892E-01
 -2.55151266E-06 -1.35853255E-02  1.08476942E-01  1.77301762E-05 -4.61981099E-06
  4.76557000E-06  2.46000033E-02 -8.63522369E-02 -5.84658138E-06  3.92657221E-06
  4.06186899E-02 -1.41577289E-05  5.79596508E-06  3.31126425E-03  3.67599123E-02
  8.53629619E-06 -2.04384857E-05  9.64835542E-06 -1.11886736E-06 -1.19347262E-05
 -4.72920037E-06  7.02246013E-06  3.69810023E-05  2.50891518E-05 -6.06211605E-01
 -6.14778853E-06 -2.72810106E-06  9.75301769E-02 -3.25602157E-05 -1.34660301E-05
  4.89262499E-01  2.54093800E-06  1.35892898E-02  1.08417032E-01 -1.77971415E-05
 -4.58766950E-06 -4.75548284E-06 -2.46404326E-02 -8.62442847E-02  5.87916888E-06
  3.91402456E-06 -4.05634388E-02  1.41914383E-05  5.73817256E-06 -3.08403142E-03
  3.67649491E-02 -8.65156631E-06 -2.04648092E-05  1.30215569E-08 -1.51010899E-09
 -1.61103920E-08 -6.38570557E-09  9.47236525E-09 -4.62808269E-08 -1.70724166E-05
 -8.18496473E-04  7.72996933E-09  4.39893146E-06  1.31717701E-04  4.29588968E-08
  2.52605208E-05  6.60603057E-04 -2.09872823E-09 -4.91955531E-05  8.48860027E-02
 -5.82718332E-08 -3.44300856E-05 -1.02034279E-09  7.28812860E-05 -4.36381359E-02
  2.15429745E-08  1.23166089E-05 -5.45383426E-05 -2.51320265E-08 -1.55738502E-05
  1.08278484E-04  3.11373663E-02  1.04071101E-07  3.82762079E-05 -3.41811880E-01
  6.21457443E-02  4.13407067E-01  1.35834712E-01 -1.57057517E-01  1.39560562E-04
 -6.07859169E-07  2.49117158E-05  3.03124106E-05 -1.37112232E-07 -5.69359597E-07
  3.51096810E-06 -3.05548027E-08 -1.49834017E-05  3.30440596E-01 -1.18538227E-05
  1.20347571E-08  5.56470843E-05  1.00160069E-07 -1.61730726E-01  5.80767013E-06
 -5.91813569E-09 -3.36617143E-05 -7.00593001E-08 -2.77913272E-05  6.02977519E-06
 -7.43805472E-09 -1.80765151E-06  3.79724729E-09 -7.25005191E-02  2.21489511E-04
 -4.50826086E-02  7.81935080E-03  5.02991893E-02  3.34903839E-02 -1.62051586E-02
  1.13198878E-01 -1.96526036E-01 -1.07713006E-06 -1.22553012E-02  2.12762487E-02
  1.19526847E-07 -1.27080498E-01  2.20600019E-01 -1.06557421E-05  2.45710539E-01
 -2.97997968E-05  4.74493213E-05  1.53379923E-01  2.64518630E-01 -1.57744504E-01
  1.63795549E-05 -2.63164283E-05 -1.07319684E-01 -1.85075059E-01  1.47452206E-05
  2.84745695E-02 -4.94326998E-02  4.65282648E-06  1.07730832E-05  1.02718969E-02
 -2.96421424E-05 -4.50821818E-02  7.81927622E-03  5.02986984E-02  3.34902114E-02
 -1.62048381E-02  1.13599254E-01  1.96295727E-01 -1.07700939E-06 -1.22987673E-02
 -2.12514977E-02  1.19490095E-07 -1.27529925E-01 -2.20341384E-01 -1.06558891E-05
  2.45710591E-01 -2.98964170E-05 -4.73887128E-05  1.52301158E-01 -2.65141370E-01
 -1.57744451E-01  1.64331237E-05  2.62830783E-05 -1.06564836E-01  1.85510584E-01
  1.47453532E-05  2.85753131E-02  4.93748050E-02  4.60905136E-06 -1.07921015E-05
  1.02721663E-02 -3.31738155E-05 -4.49710110E-02  7.79983089E-03  5.01698968E-02
  3.34438320E-02 -1.61258307E-02 -2.26971245E-01  2.31150891E-04 -8.10228943E-06
  2.46262645E-02 -2.50669365E-05  8.75379002E-07  2.54772064E-01 -2.59416871E-04
 -2.77194354E-06  2.45717905E-01  3.32888757E-05 -3.39549719E-08 -3.05798421E-01
  6.22704988E-04 -1.57729031E-01 -1.58457486E-05  1.61655543E-08  2.13907698E-01
 -4.35625404E-04  1.04272642E-05 -5.70987198E-02  5.81380242E-05 -8.50214759E-06
  1.73679886E-08  1.03407069E-02 -3.15372302E-05 -1.23816088E-05  2.66878175E-06
  1.28631792E-05  4.11192898E-06 -4.67934792E-06  3.81579725E-06 -3.54244755E-09
 -1.87925837E-01 -3.64064325E-07  7.32705836E-10  1.17976943E-02  1.87169170E-07
 -1.34203558E-09  8.49267506E-03  2.36184400E-05 -1.28822487E-03  6.42430843E-06
  7.76880767E-09 -7.58396417E-11 -1.70498387E-06  6.91061832E-05 -2.99060992E-07
 -1.16239224E-07 -1.16133181E-10  7.37954382E-01 -3.65178774E-05  3.28118357E-08
 -3.93858217E-03 -7.00074554E-06 -4.87864326E-05  1.49424091E-07 -7.69287003E-07
  2.02769340E-07  1.17287087E-06 -7.06454820E-08 -2.81230855E-06 -8.59672884E-06
  1.01504725E-05  1.50441330E-01  1.69124046E-07 -3.02896164E-08 -1.10192592E-02
 -1.49945503E-06  2.01442632E-06  1.04962762E-02  8.57561254E-05  1.89546298E-01
 -3.32434513E-01 -6.60885637E-07  1.16111961E-05 -3.93776755E-05 -6.28553920E-02
  1.11018061E-01  2.24201492E-06 -3.50641253E-07 -2.67917734E-01  5.14592220E-05
 -8.16703782E-05 -1.36601085E-01 -2.32538597E-01 -3.28028180E-06  5.51554329E-06
 -7.65664683E-07  2.01973599E-07  1.16833321E-06 -7.18105109E-08 -2.80899308E-06
 -8.61273845E-06 -1.01271789E-05  1.50447954E-01  1.68219590E-07  2.87495709E-08
 -1.10199766E-02 -1.50728440E-06 -2.01702673E-06  1.04971762E-02  8.57560133E-05
  1.90225949E-01  3.32067812E-01 -7.04904941E-07 -1.16106880E-05 -3.93777022E-05
 -6.30812863E-02 -1.10898006E-01  2.24158983E-06  3.43423824E-07 -2.67927824E-01
  5.16244157E-05  8.15662358E-05 -1.35666285E-01  2.33103316E-01 -3.31180665E-06
 -5.49390726E-06  2.30256932E-07 -1.66807008E-08 -8.05201127E-08 -3.93474079E-07
 -1.89431572E-06  6.30771720E-06 -7.67598387E-09  1.51954555E-01  6.65471893E-07
 -4.27634733E-10 -1.11925518E-02  4.03868698E-06 -3.73480912E-09  1.06710457E-02
  6.49886772E-05 -3.86886538E-01  4.01429344E-04  1.48300147E-06 -1.21391840E-09
 -3.25038138E-05  1.29152384E-01 -1.35694930E-04 -4.20580274E-06  7.93378305E-09
 -2.70175010E-01 -6.25086549E-05  6.46406936E-08  2.73200508E-01 -5.63062362E-04
 -1.33013178E-05  3.90482044E-08  3.36191716E-07 -7.65856289E-08 -3.86126027E-07
 -8.64000670E-08 -1.84561293E-07  5.33020558E-05 -4.24089364E-02  4.54074443E-09
 -7.29337535E-05  5.79629292E-02 -2.90821977E-09  1.83217431E-04 -1.45558514E-01
  6.78546922E-09 -2.09383813E-07 -2.39271622E-09 -3.54607600E-06 -3.12694845E-04
 -7.24791432E-02 -4.13345418E-08 -1.06731809E-09 -2.84964666E-06 -2.12967401E-04
 -4.93764730E-02  8.03694706E-09  1.96295242E-04 -1.55874180E-01  1.35156514E-08
  8.53266072E-06 -2.36556781E-07 -4.47510098E-06 -2.46102445E-01  5.41541820E-02
  3.09095087E-01  8.14044738E-02 -2.24267703E-01 -2.97782230E-01  4.32527196E-01
 -4.57973335E-05  6.81307562E-02 -9.27434803E-02  1.03014842E-05  2.56527489E-01
 -3.90941674E-01  3.46617987E-05 -1.35564729E-02 -5.08742115E-06 -4.43045108E-07
 -6.26264312E-02 -1.04810027E-01  3.36627816E-02 -1.31858306E-06  7.44636681E-06
  5.61086899E-02  1.01364697E-01  1.52362442E-05  3.38440087E-02 -4.92307946E-02
  3.39448608E-06  1.44867047E-05  7.60397291E-03 -3.98693763E-03  2.45455945E-01
 -5.40119208E-02 -3.08283141E-01 -8.11907277E-02  2.23678406E-01  2.98262525E-01
  4.30562278E-01  4.56809602E-05 -6.82563923E-02 -9.22939149E-02 -1.02765608E-05
 -2.56894973E-01 -3.89249057E-01 -3.45762111E-05  1.35205826E-02  5.09416840E-06
 -4.76005682E-07  6.20496458E-02 -1.04779205E-01 -3.35741400E-02  1.31813076E-06
  7.43559860E-06 -5.55275488E-02  1.01337287E-01 -1.51911303E-05 -3.38983809E-02
 -4.90075012E-02 -3.29622680E-06  1.44686857E-05 -7.60875086E-03 -3.97184531E-03
  6.45986795E-04 -1.42147538E-04 -8.11364149E-04 -2.13730972E-04  5.88647823E-04
 -1.46017367E-03 -8.46866149E-02  7.34541176E-08  3.26316049E-04  2.56176449E-02
 -1.69576667E-08  1.28078717E-03  5.45975571E-02 -5.17384185E-08  3.53184865E-05
 -1.80403486E-08 -5.63612769E-06 -3.13511163E-04  3.15821675E-03 -8.82026388E-05
 -2.75542791E-09  3.23776127E-06  3.13296513E-04  4.66882043E-03 -2.39119941E-08
  1.66139580E-04  9.52859049E-03  3.69940808E-08  5.46634665E-06  3.98336336E-06
  7.94535512E-03 -5.62659067E-05  1.28344891E-05  6.44744068E-05  1.42931160E-05
  3.33783156E-05 -4.22936269E-02 -5.33002785E-05 -1.34403899E-06  5.79328948E-02
  7.29267407E-05  1.23268131E-06 -1.45538786E-01 -1.83142554E-04 -3.00083958E-06
  3.75501253E-05 -4.56439838E-07 -7.44235185E-09  7.26106120E-02 -3.13160180E-04
  6.59550711E-06 -8.08689919E-07 -5.67230422E-09  4.93651169E-02 -2.12961438E-04
 -6.08965389E-06 -1.56081846E-01 -1.96316346E-04  1.89208489E-06  1.51435630E-08
  3.95521443E-05 -9.54474777E-08  1.41337984E-01 -3.11021967E-02 -1.77519851E-01
 -4.67410918E-02  1.28846017E-01  8.65269318E-02 -2.97230992E-01  2.49435476E-05
 -1.35660090E-02  6.80111310E-02 -5.41230942E-06 -9.28759296E-02  2.55968596E-01
 -1.87354756E-05  7.75226223E-03 -2.24760815E-06 -3.85648112E-06  3.28167235E-02
  6.20488965E-02 -1.93309136E-02  3.58176461E-06 -2.13125476E-06 -3.69072639E-02
 -5.55450514E-02 -8.99106868E-06 -9.92786197E-03  3.38349527E-02 -8.14619833E-06
 -6.18692472E-06 -4.40594314E-03 -6.90278209E-03  1.42456990E-01 -3.13484394E-02
 -1.78925329E-01 -4.71112160E-02  1.29865972E-01  8.84912485E-02  2.99018278E-01
  2.51519819E-05 -1.40154348E-02 -6.84044182E-02 -5.45916262E-06 -9.45677345E-02
 -2.57554131E-01 -1.88930098E-05  7.81355701E-03 -2.21639222E-06  3.85966534E-06
  3.28462832E-02 -6.26595271E-02 -1.94838641E-02  3.59210398E-06  2.15753142E-06
 -3.69338184E-02  5.61569084E-02 -9.06075449E-06 -1.01514561E-02 -3.40385099E-02
 -8.13646322E-06  6.28642306E-06 -4.39875497E-03  6.91137241E-03 -2.83706115E-01
  6.24309295E-02  3.56344156E-01  9.38493429E-02 -2.58597545E-01  6.03626194E-01
 -8.07544968E-04 -3.28193016E-05 -1.31888831E-01  1.92628625E-04  7.48450113E-06
 -5.38203931E-01  6.72381192E-04  2.26592401E-05 -1.54746563E-02  6.90133272E-06
 -1.96471047E-08  1.40549096E-01 -2.79038022E-04  3.87431399E-02  2.15124990E-06
  5.05923413E-09 -1.33479849E-01  2.82507497E-04  1.15267550E-05 -6.88091063E-02
  9.18089296E-05 -1.24290586E-05  3.75824507E-08  8.94206846E-03 -9.25972649E-06
 -4.75301728E-08  1.14563136E-08  4.87375739E-08  1.42522085E-08 -2.02295189E-08
  3.20565394E-05  1.29899324E-08 -1.07037730E-03 -3.97696500E-06 -1.60973925E-09
  5.66672558E-05  6.40229234E-07  2.84655157E-10  3.19941300E-05  8.20963619E-06
  2.24121225E-01  9.04007239E-05 -1.78269819E-05  4.83803200E-08  6.92263201E-08
  1.91299288E-03  7.30643224E-07  1.52822762E-07 -6.33131309E-10  4.39884714E-03
 -9.82285390E-05 -9.99062769E-08  6.49147192E-01 -2.24528547E-03 -1.67609173E-05
  7.49970274E-08 -4.74395228E-06  1.11918416E-06  5.78518839E-06  2.06943131E-06
 -2.90181614E-06 -2.50685137E-05 -2.14654702E-06  9.76338256E-02  3.84964553E-06
 -2.20145625E-06 -1.13186553E-02  3.04298100E-06 -7.72082093E-06  6.26054644E-03
  8.14740002E-06  3.73807833E-01 -7.40196950E-02 -6.00135253E-05  4.86214158E-05
 -2.15533679E-07 -1.96076733E-01 -2.06267739E-03  2.48107526E-05 -2.05787075E-05
 -1.30283553E-01  4.99657104E-05  6.28383629E-07  1.05288234E-01 -2.85256728E-01
  1.64637360E-05  6.88188937E-05 -4.76750655E-06  1.12474072E-06  5.81390078E-06
  2.07971175E-06 -2.91616047E-06 -2.50680006E-05  2.13941117E-06  9.81114828E-02
  3.86163662E-06  2.21116460E-06 -1.13742728E-02  3.08022400E-06  7.74923895E-06
  6.29102371E-03  8.12631219E-06  3.74164157E-01  7.45558863E-02 -6.00822166E-05
 -4.84093213E-05 -1.80378745E-07 -1.96064889E-01  1.91425546E-03  2.48358343E-05
  2.04976814E-05 -1.30919227E-01  4.99405635E-05 -6.30934097E-07  1.05642177E-01
  2.85457254E-01  1.61573984E-05 -6.88337704E-05  9.50465696E-06 -2.24154407E-06
 -1.15867814E-05 -4.15685935E-06  5.77736785E-06 -1.51103448E-05 -1.92297916E-08
 -1.92976521E-01  6.97542256E-06 -3.74659675E-09  2.25001015E-02  1.68533792E-05
 -1.89637271E-08 -1.23306800E-02  2.97597125E-05  4.95580921E-01 -3.41780240E-05
  1.87803479E-05  6.51110106E-08 -2.11900320E-05 -1.90174886E-01 -8.66680121E-05
 -1.10514306E-05 -1.81719536E-08  2.56516472E-01 -4.46784049E-06  5.68399640E-08
 -3.84017768E-01  3.98339280E-04 -2.83326866E-05 -4.97139470E-09 -2.64529925E-10
  6.37137792E-11  2.68986122E-10  7.82981478E-11 -1.14268938E-10  1.29163057E-08
 -3.19142616E-05 -5.60384002E-06 -1.60087997E-09  3.96473369E-06  3.16867131E-07
  2.12600340E-10 -5.98056256E-07  1.75371151E-07  1.22895907E-08  9.05946616E-05
 -2.24267209E-01 -4.26339163E-08 -8.48444080E-06  9.40260391E-11  8.49621290E-07
 -2.00121825E-03  8.22719867E-10  2.70125021E-07  2.30716955E-05  2.65638351E-09
  1.40546756E-04  2.24482504E-03  6.49073257E-01 -7.54563489E-08 -1.65444789E-05
 -8.13693549E-06  1.91988073E-06  9.92141390E-06  3.56652463E-06 -4.94040930E-06
 -1.24282413E-06  2.03109469E-05  1.68215623E-01  2.58808203E-06 -6.13338583E-06
 -1.95750111E-02  7.41242399E-06 -1.19935264E-05  1.07297427E-02 -7.27743972E-06
  7.24851884E-02 -4.56602891E-01  4.53954473E-05  1.15303172E-05  1.23017612E-05
  2.55797230E-03  1.92657192E-01 -2.06571926E-05 -7.11657117E-06 -2.23724770E-01
 -8.26568835E-06 -3.49105477E-05 -2.84216891E-01 -2.21629706E-01  4.01372861E-05
 -2.98549716E-05  8.12363979E-06 -1.91674142E-06 -9.90518395E-06 -3.56072998E-06
  4.93219245E-06  1.21265419E-06  2.03142649E-05 -1.67929976E-01 -2.58961156E-06
 -6.12193876E-06  1.95422292E-02 -7.42829591E-06 -1.19567970E-05 -1.07113299E-02
  7.30468706E-06 -7.23421411E-02 -4.56227858E-01 -4.55189654E-05  1.15769597E-05
 -1.23043008E-05 -2.72652941E-03  1.92662595E-01  2.06988488E-05 -7.14237246E-06
  2.23341308E-01  8.33877191E-06 -3.49255095E-05  2.83606449E-01 -2.21964260E-01
 -4.02731008E-05 -2.98050439E-05  1.32561405E-08 -3.12577339E-09 -1.61585146E-08
 -5.83758554E-09  7.97901870E-09  3.78037176E-09  2.42731804E-05 -2.71053217E-04
  7.41147778E-09 -2.36016782E-06  3.17441525E-05  2.48351609E-08  1.25681524E-06
 -1.72622920E-05  4.36165686E-08  3.58951267E-04 -3.30911594E-01 -1.20522254E-07
 -7.24966666E-05 -3.08171263E-08 -6.65579571E-05  1.97230255E-01  4.20817283E-08
  2.85523323E-05  3.58789311E-04 -4.49757092E-08 -3.67133367E-05  9.56632239E-06
  2.69801800E-01  1.55394287E-07  6.41731244E-05 -1.10010238E-01  3.55556325E-02
  1.12693676E-01 -1.46815353E-02 -3.25399126E-01  6.97730371E-04 -2.55905129E-06
  1.25498489E-05 -4.78933597E-05  1.52368274E-07 -7.42066512E-06 -1.03665477E-04
  3.68040295E-07 -1.46939795E-06  2.18681053E-01 -7.92439979E-06  8.35356280E-09
  6.78478048E-04  5.76329360E-07 -2.04938165E-01  7.37150126E-06 -7.54440335E-09
  5.39694983E-06 -6.44120445E-08  4.10796224E-07 -8.39536548E-04  3.18729616E-06
  3.19818858E-06 -6.93056479E-09  1.29479649E-01 -3.95560103E-04 -2.78989747E-01
  9.03270100E-02  3.39562977E-01  5.06348705E-02 -3.29071134E-01 -1.66728245E-01
  2.89164616E-01 -1.87612334E-05  4.73886397E-02 -8.21737040E-02  3.68613996E-06
  1.18183081E-01 -2.04940121E-01  9.07042031E-06  6.17407710E-02 -1.06199805E-05
  1.50249291E-05  9.01516741E-03  1.53986081E-02 -2.88764886E-02  4.95531538E-06
 -6.22512542E-06  5.99869252E-03  1.05161294E-02  3.05072946E-06  6.15315758E-03
 -1.05803951E-02  2.31152630E-06  3.80295957E-06  2.27204616E-02 -7.36531060E-05
 -2.78989050E-01  9.03267919E-02  3.39562454E-01  5.06345841E-02 -3.29071568E-01
 -1.67318143E-01 -2.88825961E-01 -1.87613168E-05  4.75559113E-02  8.20767860E-02
  3.68612401E-06  1.18600264E-01  2.04698465E-01  9.07038739E-06  6.17448270E-02
 -1.06511782E-05 -1.50035110E-05  8.95396838E-03 -1.54375067E-02 -2.88786178E-02
  4.96834957E-06  6.21507662E-06  5.95522041E-03 -1.05399907E-02  3.05117269E-06
  6.17639554E-03  1.05704918E-02  2.29598479E-06 -3.81276707E-06  2.27224699E-02
 -6.50865088E-05 -2.78770792E-01  9.02586139E-02  3.39393268E-01  5.05370512E-02
 -3.29206105E-01  3.34372504E-01 -3.40124968E-04 -8.39411330E-06 -9.47783587E-02
  9.63904797E-05  7.34612253E-07 -2.36405082E-01  2.40441630E-04  1.70957799E-06
  6.30365926E-02  1.45134917E-05 -1.44338484E-08 -1.87482282E-02  3.84259703E-05
 -2.95668161E-02 -6.72226666E-06  6.60217256E-09 -1.18554940E-02  2.38770893E-05
  2.17900059E-06 -1.32129768E-02  1.33103830E-05 -3.02679111E-06  5.97573502E-09
  2.33432238E-02 -7.14050047E-05  1.05901765E-04 -3.34596786E-05 -1.44804091E-04
  5.47177504E-05  5.76887887E-04  4.10427555E-01  2.71135058E-04  8.45973126E-06
 -3.10033420E-02 -2.04729155E-05 -6.20011238E-07 -6.87893087E-02 -4.54005261E-05
 -1.40490825E-06 -1.11148028E-03 -3.48265957E-05 -4.96713065E-08  3.81475613E-01
 -1.41763710E-03  7.45206265E-04  3.07499744E-06  1.15695548E-09  1.33279446E-02
 -4.95131031E-05 -2.29735463E-05 -4.53506885E-01 -2.99655991E-04 -4.61652560E-05
  2.21559760E-07  4.18777418E-04 -1.56252161E-06 -4.47282123E-02  1.41145266E-02
  3.93791242E-02  2.32645465E-02  2.08594077E-02 -5.29415270E-02 -1.27128922E-01
  8.10295422E-06  5.01700244E-02 -2.73088505E-03  2.27312010E-07  1.13774349E-01
  3.48970923E-03  2.66422487E-07 -2.57543422E-01 -2.49524127E-05 -5.31396432E-05
 -1.62348340E-02 -2.07652851E-01  1.44262596E-01  2.10926884E-05  3.06648576E-05
 -3.79632832E-02  9.76305416E-02 -2.31986561E-05 -6.42808624E-02  1.62252163E-01
 -3.56037889E-05 -4.93463470E-06 -1.18754748E-01 -1.18565187E-02 -4.49920598E-02
  1.41978149E-02  3.96122132E-02  2.34008154E-02  2.09780492E-02 -5.22574672E-02
  1.27552129E-01  8.16511376E-06  5.01863266E-02  2.80838672E-03  2.22865144E-07
  1.13758621E-01 -3.35168641E-03  2.54154263E-07 -2.59042906E-01 -2.46405179E-05
  5.32839351E-05 -1.60861594E-02  2.08583706E-01  1.45101822E-01  2.09105628E-05
 -3.07331928E-05 -3.80331579E-02 -9.77291488E-02 -2.33425052E-05 -6.51582801E-02
 -1.62968019E-01 -3.55807979E-05  5.22120218E-06 -1.19374943E-01  1.25605682E-02
  9.11759415E-02 -2.87854725E-02 -8.06692843E-02 -4.69364939E-02 -4.02948895E-02
  1.66702972E-01 -3.82535290E-04 -1.48761826E-05  5.55371438E-02  2.54661726E-05
  2.75348275E-06  1.08965456E-01  8.42678581E-05  6.40574619E-06  5.15163058E-01
  2.44702604E-05 -1.32588218E-07 -3.78292112E-01  5.95157750E-04 -2.88220185E-01
 -9.50138329E-06  8.60814240E-08  1.32142527E-01 -1.10148259E-04  2.23462600E-05
 -3.46317322E-01  4.01578223E-04 -1.63364142E-05  9.10329329E-08  2.39230730E-01
 -7.07189222E-04  4.05297605E-07 -1.26749699E-07 -6.02130112E-07  2.65568650E-07
  2.57282811E-06  2.71298876E-04 -4.10518901E-01  1.40595266E-08 -2.05518436E-05
  3.10855766E-02 -9.76817779E-10 -4.56435928E-05  6.90012985E-02 -2.29782393E-09
 -5.44711378E-06 -6.71577119E-09  5.06831322E-05  1.41684439E-03  3.81351925E-01
  3.57859125E-06  2.48309799E-09 -2.54968258E-06  4.98945253E-05  1.34250657E-02
 -3.83999003E-08 -2.99479804E-04  4.53254936E-01 -2.31501485E-07 -7.57676196E-05
  2.88059708E-06  1.83334392E-04 -7.84002076E-02  2.47659962E-02  6.91724618E-02
  4.05626153E-02  3.55533884E-02  1.26649924E-01 -9.43393744E-02  1.85994871E-05
  3.03933919E-03 -5.36264559E-02 -1.34658061E-06 -2.89812812E-03 -1.10124408E-01
 -3.68658587E-06 -4.47184690E-01  6.05316382E-05 -2.82000831E-05 -2.08962639E-01
 -2.57375386E-01  2.50426773E-01 -3.55815642E-05  7.76150894E-06  9.79829702E-02
  7.53589569E-02 -4.29016515E-05 -1.62418539E-01  2.52776491E-01  4.50175177E-07
 -4.21807931E-05 -2.06987913E-01  7.50452776E-03  7.82527196E-02 -2.47194455E-02
 -6.90434716E-02 -4.04848788E-02 -3.54800175E-02 -1.27017212E-01 -9.36513779E-02
 -1.85718176E-05 -2.98025059E-03 -5.36120950E-02  1.34723908E-06  3.05514120E-03
 -1.10144165E-01  3.68729388E-06  4.46313825E-01 -6.06714082E-05 -2.78978191E-05
  2.07862403E-01 -2.57528183E-01 -2.49937873E-01  3.56673518E-05  7.58573040E-06
 -9.78050551E-02  7.54310259E-02  4.28234080E-05  1.62715079E-01  2.51899565E-01
 -7.41088410E-07 -4.21612228E-05  2.06632907E-01  6.28184012E-03  1.53964910E-04
 -4.86550402E-05 -1.36392894E-04 -7.89597085E-05 -6.66415867E-05  4.07870755E-04
  1.26521042E-01 -2.50250044E-08  4.40720485E-05 -4.88331242E-02  4.64420890E-09
  6.53419267E-05 -1.16182073E-01  1.07702794E-08  8.63924824E-04  1.06410014E-07
  6.40484138E-05 -4.23974815E-04  1.04627708E-01 -4.83226692E-04 -6.23035883E-08
 -4.54757542E-05  2.98855036E-05 -9.48308315E-02  3.75773425E-08 -6.10858654E-04
 -2.90835360E-02 -9.74750497E-08 -3.43084309E-05  3.59591432E-04 -1.41451918E-02
  2.03152927E-10 -7.17154263E-11 -6.65986379E-11 -9.49407622E-11 -2.51770114E-10
  3.53020757E-07  2.34456107E-04  2.46243067E-12  1.12623843E-07  2.03292348E-05
  1.86977297E-12  1.50325804E-07  2.44045798E-05  2.54113620E-12  2.45841131E-09
 -1.18509591E-10 -6.24014968E-08 -1.11203987E-07 -5.18836468E-04 -1.34762429E-09
  2.36401854E-11  1.09503651E-08 -6.56928986E-08  5.48699408E-05 -2.34668457E-11
 -8.48137580E-07 -3.83000304E-04  5.37752295E-09  2.69728034E-06  3.14548482E-04
  1.02962155E-01  1.20369576E-04 -4.18219749E-05 -1.18555143E-04 -4.91827986E-05
 -7.55616549E-06 -3.67547598E-01 -2.11480693E-01 -7.61367800E-06  1.79978705E-01
  1.03683856E-01  3.72385266E-06  3.35729391E-01  1.93420332E-01  6.94796661E-06
  3.71531065E-04  1.40327221E-05  4.55429705E-07  3.20726602E-01 -1.85771925E-01
 -2.08623229E-04 -9.51771132E-06  2.76257146E-08 -2.31127178E-01  1.34007518E-01
 -7.84913956E-07 -1.59660941E-02 -9.49373863E-03  6.04047138E-06 -4.37523570E-06
  1.83773107E-05 -5.94493860E-02 -1.20618146E-04  4.19090304E-05  1.18810563E-04
  4.92620088E-05  7.51363399E-06  3.67116451E-01 -2.12228636E-01  7.61365420E-06
 -1.79767227E-01  1.04050218E-01 -3.72383765E-06 -3.35334931E-01  1.94103824E-01
 -6.94794539E-06 -3.72040263E-04 -1.40319247E-05  4.84138071E-07 -3.21480965E-01
 -1.84463853E-01  2.08897482E-04  9.51787772E-06  8.14960169E-09  2.31671333E-01
  1.33065064E-01  7.84877053E-07  1.59465154E-02 -9.52656428E-03 -6.05830645E-06
 -4.35060210E-06 -3.81888639E-04 -5.94478522E-02  2.48019471E-07 -8.68680397E-08
 -2.55027391E-07 -7.91165661E-08  4.23295675E-08  4.32116185E-04  4.24014495E-01
  3.72882787E-11 -2.11517465E-04 -2.07694643E-01 -1.66272193E-11 -3.94529936E-04
 -3.87450989E-01 -2.41576695E-11  5.12596023E-07 -9.97926229E-10 -9.80957982E-07
  7.54651585E-04  3.70653661E-01 -2.77404851E-07  1.27360514E-11  1.60950349E-08
 -5.44142525E-04 -2.67176910E-01  6.55648258E-12  1.85424878E-05  1.85902734E-02
  8.75141294E-09  4.29148530E-06 -1.81046212E-04 -5.93526445E-02  5.93354025E-02
 -2.23379559E-02 -1.91319357E-02 -2.13042273E-02  6.10338073E-03  6.84925995E-04
 -3.07046907E-06  1.04377736E-05 -9.04906750E-05  4.36135048E-07 -3.91232983E-06
 -1.83879008E-04  8.48167664E-07 -1.31196885E-05  5.62070777E-01 -2.02896961E-05
  2.10875116E-08  3.60767723E-04  4.48022957E-07 -2.89650542E-01  1.04285533E-05
 -1.07069697E-08  8.36573981E-05  2.01469384E-07 -6.58750169E-05 -5.45562854E-04
  2.37228385E-06 -5.28688084E-06  1.04528363E-08 -2.06210870E-01  6.29976492E-04
  2.70619765E-02 -1.11650207E-02 -5.18974938E-02 -9.45821830E-03  4.67645340E-02
  3.06709744E-02 -5.36618796E-02 -1.34706351E-05  6.21040325E-03 -1.05602541E-02
  4.14358694E-06 -5.82050012E-03  1.05420642E-02  1.34908505E-06  2.79801924E-01
 -3.09233162E-05  2.06895518E-05 -2.14111391E-01 -3.69839538E-01 -2.76114519E-01
  2.48544887E-05 -1.56466668E-05  1.41231525E-01  2.44082713E-01  3.34447232E-06
 -2.44043438E-02  4.24225777E-02 -7.25630660E-06 -6.99538962E-06 -1.87528976E-01
  5.51268656E-04  2.70621859E-02 -1.11650928E-02 -5.18974768E-02 -9.45854519E-03
  4.67637660E-02  3.07787494E-02  5.35985364E-02 -1.34707352E-05  6.23196092E-03
  1.05467743E-02  4.14357088E-06 -5.84153849E-03 -1.05312352E-02  1.34906014E-06
  2.79806429E-01 -3.09661408E-05 -2.06268627E-05 -2.12600353E-01  3.70706053E-01
 -2.76117436E-01  2.48868478E-05  1.55961622E-05  1.40234503E-01 -2.44655181E-01
  3.34477163E-06 -2.44894055E-02 -4.23708382E-02 -7.22775469E-06  7.02454453E-06
 -1.87526949E-01  5.94400676E-04  2.71132196E-02 -1.11825394E-02 -5.18895422E-02
 -9.53936944E-03  4.65696558E-02 -6.14558847E-02  6.34516261E-05 -1.54040482E-05
 -1.20814808E-02  1.18452127E-05  3.76155025E-06  1.22095393E-02 -1.33187146E-05
  1.71679311E-06  2.80943413E-01  3.16766469E-05 -3.18148086E-08  4.26425600E-01
 -8.67345368E-04 -2.76850339E-01 -1.99229688E-05  1.99244384E-08 -2.81615829E-01
  5.72543310E-04  7.10458230E-06  4.83402180E-02 -4.93649761E-05  1.08690687E-07
 -3.58888666E-10 -1.87044566E-01  5.71548868E-04 -4.83236268E-11  1.75372874E-11
 -5.62535943E-11 -6.84081528E-12  2.05949519E-10 -3.96710321E-07  7.96255419E-05
 -1.00050646E-11 -2.05672680E-08 -8.12067057E-05  1.33855716E-12 -7.90489791E-08
 -1.32134720E-04  1.19112362E-12 -3.42264582E-10 -1.35468587E-10 -6.70056834E-09
  5.72046874E-07 -9.08404419E-05  4.99937390E-11  1.21709286E-10  7.27165839E-09
 -4.68078074E-08 -8.36766133E-05  1.77858045E-11  4.17857728E-07  6.70602149E-05
  3.18324364E-08  1.57156952E-05  1.88729464E-03  6.17771136E-01 -9.62957864E-05
  4.33257924E-05  1.13958502E-04  5.97637294E-06 -7.76118118E-05  3.33417700E-01
  1.91997713E-01  6.90993246E-06 -1.34966909E-01 -7.76863855E-02 -2.79663885E-06
 -1.25983408E-01 -7.25342402E-02 -2.60779565E-06 -8.41797184E-05  8.72844629E-05
  4.16600637E-05  3.59343722E-01 -2.08079242E-01  8.43078034E-05 -6.93495710E-05
 -3.55106761E-05 -1.84955142E-01  1.06992033E-01 -2.88234383E-06 -5.66529430E-02
 -3.26284632E-02  3.12257114E-05 -2.38994059E-05 -8.50616841E-04 -3.11905126E-01
  9.62110927E-05 -4.32862743E-05 -1.13858778E-04 -5.97854326E-06  7.75342934E-05
 -3.33025228E-01  1.92675895E-01 -6.91003672E-06  1.34808368E-01 -7.79611226E-02
  2.79669972E-06  1.25835311E-01 -7.27905723E-02  2.60787374E-06  8.47087939E-05
 -8.71998584E-05  4.18379395E-05 -3.60187839E-01 -2.06613379E-01 -8.47602360E-05
  6.92775316E-05 -3.56520685E-05  1.85389824E-01  1.06237784E-01  2.88240457E-06
  5.65862206E-02 -3.27435811E-02 -3.13227084E-05 -2.37720605E-05 -1.05507065E-03
 -3.11903511E-01  8.54233584E-08 -3.98438153E-08 -1.00567803E-07  2.00613046E-09
  7.81483500E-08 -3.91868635E-04 -3.84773678E-01  1.18972569E-10  1.58701742E-04
  1.55877873E-01 -6.24749338E-11  1.48274275E-04  1.45569763E-01 -7.96784429E-11
 -5.29065457E-07 -8.51241590E-08 -8.35607724E-05  8.44538415E-04  4.14727946E-01
  4.52507465E-07  7.25251874E-08  7.12247278E-05 -4.34535096E-04 -2.13446177E-01
 -6.36197288E-11  6.66315694E-05  6.53390324E-02  4.87637844E-08  2.38965591E-05
 -9.52351074E-04 -3.11717806E-01 -1.94459568E-09  1.02280697E-09  1.03904035E-08
 -1.09983994E-10 -2.68141519E-08  5.19670073E-05  4.36139155E-08  3.82653496E-04
 -2.99963683E-05 -2.51682977E-08 -1.91155293E-04 -3.62704128E-05 -3.04224258E-08
 -1.27984723E-04  2.30865298E-05  6.42337504E-01  5.39153678E-04 -3.50702254E-05
  8.70238999E-08 -1.38547741E-05 -3.85492043E-01 -3.23590980E-04  1.34542754E-05
 -2.26801051E-08 -2.10376488E-04  9.63676433E-07  1.44261881E-08 -1.12184068E-01
  4.36854894E-04  2.82370837E-06 -1.36733933E-08  1.42551575E-05 -6.64930194E-06
 -1.53231069E-05 -4.01892906E-08  1.05669211E-05 -3.23895956E-05 -4.30897594E-06
  3.50255580E-02  2.23399910E-05  1.33716441E-06 -4.76794242E-02  2.88576183E-05
  6.28410405E-06 -8.82702124E-02 -3.74927098E-05  2.36702930E-01  4.32503632E-01
  1.03325211E-05 -3.10540130E-05  3.23501391E-05 -2.34867313E-01 -3.68479493E-01
 -7.03594649E-06  2.71424204E-05 -1.63292065E-02  2.78450984E-06 -5.40051556E-06
 -8.48191709E-03 -1.84306611E-02  4.98636422E-06 -6.32750774E-07  1.43472597E-05
 -6.69226216E-06 -1.54221153E-05 -4.04743236E-08  1.06352152E-05 -3.23697199E-05
  4.27577461E-06  3.52528615E-02  2.23387599E-05 -1.30906063E-06 -4.79878205E-02
  2.88333232E-05 -6.26941197E-06 -8.88408682E-02 -3.78475355E-05  2.34210141E-01
 -4.33968243E-01  1.04100829E-05  3.10700013E-05  3.26628148E-05 -2.32743573E-01
  3.69671676E-01 -7.10234574E-06 -2.71677422E-05 -1.64347313E-02  2.81658360E-06
  5.42742086E-06 -8.47512901E-03  1.85762020E-02  5.02274150E-06  5.96777847E-07
 -2.86620713E-05  1.33689517E-05  3.08121072E-05  9.69771471E-08 -2.12507524E-05
 -2.27801729E-05 -4.02293911E-08 -7.07917151E-02  1.70547869E-05  2.36885294E-08
  9.59135076E-02  1.24633187E-05  4.41645430E-08  1.77455345E-01  7.37968925E-05
 -5.15677404E-01  1.42740099E-03 -1.22826143E-05 -4.54164614E-08 -6.72983763E-05
  4.06217500E-01 -1.24402412E-03  1.34547063E-05  3.26739406E-08  3.28086368E-02
  7.60976597E-06 -8.83748598E-09 -4.05341253E-02  7.83312660E-05 -8.58846616E-06
  2.85665290E-08  1.24452506E-11 -6.37468010E-12 -5.64796236E-11 -6.72964429E-13
  1.37330809E-10 -4.37128444E-08  5.20976730E-05 -2.00245216E-06  2.52472469E-08
 -3.00797234E-05  9.94621909E-07  3.05168730E-08 -3.63367017E-05  6.37554679E-07
 -4.29641742E-08 -5.39152990E-04  6.42257281E-01  8.35650852E-08  8.73427718E-06
  2.57872421E-08  3.23537612E-04 -3.85437063E-01 -2.02748508E-08  2.42333675E-06
  1.15816941E-06  6.56131937E-09  8.37573427E-06  4.37290807E-04  1.12276456E-01
 -1.38950691E-08 -2.85312399E-06 -2.48993083E-05  1.16158290E-05  2.67584969E-05
  7.85024749E-08 -1.84465758E-05 -2.99984012E-06 -2.67950052E-05 -6.11898402E-02
 -3.90976907E-07  1.98618333E-05  8.30973196E-02  3.11340184E-06  1.97906323E-05
  1.53715009E-01  9.54905436E-05  4.32782651E-01 -2.66241333E-01  1.32345073E-05
  1.57144665E-05 -8.41766235E-05 -3.68733746E-01  1.93658906E-01 -1.20026374E-05
 -1.46249023E-05  2.84892975E-02 -5.68085058E-06  8.86776321E-06  1.85962847E-02
  2.99121044E-02 -8.84346178E-06 -1.33184746E-06  2.48461193E-05 -1.15910143E-05
 -2.67013457E-05 -7.83836498E-08  1.84071949E-05  3.06581115E-06 -2.68171413E-05
  6.10605487E-02  3.48198793E-07  1.98660093E-05 -8.29201268E-02 -3.18053493E-06
  1.98205226E-05 -1.53386827E-01 -9.53509654E-05 -4.34198587E-01 -2.63750232E-01
 -1.32098488E-05  1.56523676E-05  8.40561885E-05  3.69996211E-01  1.91536713E-01
  1.19700084E-05 -1.45723264E-05 -2.84284464E-02  5.68841555E-06  8.83601524E-06
 -1.84428587E-02  2.99187536E-02  8.81653882E-06 -1.38790202E-06  5.34911094E-08
 -2.49534028E-08 -5.74897433E-08 -2.01249392E-10  3.96303794E-08  7.72897524E-09
 -3.41688222E-05  1.31980071E-04 -9.17616486E-09  2.21526015E-05 -1.78468888E-04
  8.09876417E-09  3.07069992E-05 -3.29970780E-04 -1.36980161E-07  1.45340841E-03
  4.85785096E-01 -5.51768450E-08 -3.83068204E-05  1.25006017E-07 -1.21078751E-03
 -4.47125217E-01  4.13569887E-08  3.26499674E-05 -6.11435333E-05 -1.49234867E-08
 -5.92480235E-07  7.09524478E-05 -2.22159867E-03  1.99521654E-08  1.26127173E-06
  1.48274216E-07 -6.84511920E-08 -2.05858368E-07 -1.19574210E-07  4.33416707E-07
 -3.68777076E-04  3.44428620E-01 -1.48004287E-08  1.92937349E-04 -1.80207886E-01
  7.73104983E-09  1.85211645E-04 -1.72885081E-01  7.42290183E-09  8.36477901E-07
  1.13651024E-07 -5.70269359E-05  2.50537660E-03  6.07237632E-01 -6.01668679E-07
 -5.99824750E-08  3.81790890E-05 -9.10562470E-04 -2.20708616E-01 -4.88482532E-09
 -4.67016775E-05  4.36005268E-02 -1.62955815E-07 -4.09500003E-05  2.49043618E-07
 -1.21413377E-04 -1.63522706E-01  8.07473342E-02  1.68396184E-01  1.02514389E-03
 -1.10002186E-01 -1.58272940E-02 -1.65504669E-01 -1.43353548E-05  3.12436673E-02
  9.80099862E-02  2.97541130E-06  8.76045613E-02  7.65090614E-02 -1.51688801E-06
 -1.13867269E-01 -1.04182365E-05  4.26569754E-05  3.06288324E-01 -2.76823891E-02
  7.74796098E-02  8.73273517E-06 -3.58220596E-05 -3.06548928E-01 -2.48330789E-02
 -1.00802937E-05 -2.25177936E-02  6.62161737E-02 -5.02629070E-06 -7.59619493E-06
 -6.26221732E-02  6.26759317E-02  1.63129674E-01 -8.05532522E-02 -1.67991625E-01
 -1.02292706E-03  1.09738026E-01  1.62575496E-02 -1.65603370E-01  1.43172526E-05
 -3.16044444E-02  9.82045456E-02 -2.98133570E-06 -8.81920792E-02  7.70546546E-02
  1.49352223E-06  1.13594535E-01  1.04015708E-05  4.25221830E-05 -3.07999993E-01
 -2.77133372E-02 -7.72945709E-02 -8.72230639E-06 -3.57032401E-05  3.07827144E-01
 -2.48021345E-02  1.00502883E-05  2.24847585E-02  6.60761199E-02  4.98772184E-06
 -7.58470735E-06  6.28540455E-02  6.27456216E-02  3.94660680E-04 -1.94881236E-04
 -4.06552861E-04 -2.63546736E-06  2.65599855E-04  1.30530878E-04 -1.92515467E-01
  4.03957179E-08 -1.21828352E-05  1.52041945E-01 -9.03500090E-09  1.78380655E-04
  2.28512605E-01  6.94018894E-09  2.75070401E-04 -1.23212825E-07 -4.41695656E-06
 -8.26804263E-04 -5.59899130E-01 -1.87441966E-04  9.93980102E-08  6.08009026E-06
  6.10055992E-04  5.07317147E-01  1.31498888E-08 -1.37625181E-04  2.70870994E-02
 -1.83859601E-08 -3.91055069E-06 -2.30638263E-04 -1.24997514E-01  2.41131963E-05
 -1.11918288E-05 -3.89145817E-05 -2.03358443E-05  8.48583371E-05 -3.44630403E-01
 -3.69099772E-04 -7.12512560E-06  1.80219687E-01  1.93025432E-04  3.72299282E-06
  1.73065731E-01  1.85248620E-04  3.57527821E-06  1.56198367E-04  8.19469370E-05
  3.51662206E-08  6.07048816E-01 -2.50460704E-03 -1.26427443E-04 -4.71594684E-05
 -3.14009071E-08 -2.20554787E-01  9.10031715E-04 -2.25330402E-06 -4.35429770E-02
 -4.66156017E-05 -3.80132423E-05  1.62802661E-07  1.26896499E-04 -7.43331089E-07
 -9.39500703E-02  4.64001792E-02  9.67517368E-02  5.69609489E-04 -6.31972016E-02
  1.83809021E-01  1.60083585E-02 -4.27631173E-06 -1.34338617E-01 -3.13415202E-02
 -1.41475433E-06 -1.78332039E-01 -8.77373117E-02 -5.56235975E-06 -6.50785141E-02
 -2.47877847E-05  2.69605222E-05 -3.82393363E-01  3.07936445E-01  4.42194897E-02
  1.99863176E-05 -2.40000029E-05  3.29956616E-01 -3.07736793E-01 -7.14878517E-06
 -4.00637487E-02  2.23670948E-02 -1.81852565E-06 -7.60563720E-06 -3.63426134E-02
 -1.08556675E-01 -9.46330325E-02  4.67374792E-02  9.74551572E-02  5.73905964E-04
 -6.36567528E-02  1.83709224E-01 -1.56904851E-02 -4.33628476E-06 -1.34143241E-01
  3.12044615E-02 -1.40213221E-06 -1.77785546E-01  8.77787543E-02 -5.56835436E-06
 -6.55524487E-02 -2.48854593E-05 -2.70876429E-05 -3.82360024E-01 -3.06263663E-01
  4.45418664E-02  2.00710200E-05  2.41084877E-05  3.29923371E-01  3.06496795E-01
 -7.19071066E-06 -4.02032586E-02 -2.25614855E-02 -1.80830822E-06  7.64461984E-06
 -3.59413181E-02  1.08515112E-01  1.88897121E-01 -9.32917123E-02 -1.94585484E-01
 -1.22764154E-03  1.27121413E-01  1.56350978E-01  2.43043823E-04  1.94030142E-05
 -8.00395773E-02 -2.36123846E-04 -4.38589662E-06 -2.60494176E-02 -4.50692960E-04
  3.23028427E-06  1.31093065E-01 -5.66224177E-05  6.65929066E-08  1.50071129E-01
  8.63465895E-04 -8.92203212E-02  4.44413552E-05 -5.76689621E-08 -2.02503476E-01
 -6.47138694E-04  6.25935298E-06 -7.90154644E-02  2.38129638E-05 -4.95108654E-06
  1.82113407E-08  7.23367585E-02  4.03934905E-05  3.99555533E-14 -2.13222647E-14
 -2.89185795E-14 -1.16152600E-15  1.38152515E-14  2.93155062E-11  3.79239997E-08
 -5.53812163E-10 -9.49010823E-12 -1.00519639E-08  2.31397923E-10 -1.69404135E-11
  1.75451089E-09  1.54935343E-10  2.04484895E-11  7.21617489E-07  1.50831157E-04
  1.13749519E-10  7.10725582E-08 -1.06863807E-11 -3.72577131E-07 -7.35366661E-05
 -9.07340998E-11 -1.62747371E-08  1.15446852E-10  7.69707423E-11  5.72591375E-09
 -9.20062342E-08 -6.06689518E-05 -2.47489352E-07 -8.10108217E-05  2.25607922E-09
 -1.27236078E-09 -5.03416992E-09  1.23805763E-10  2.57408831E-09 -4.86476188E-05
 -2.80277707E-05 -1.61606289E-05  2.51599262E-05  1.44890696E-05  1.31782990E-05
  1.78809796E-05  1.03023848E-05  2.05417592E-05  1.82000025E-05  5.06056097E-01
  2.91450977E-01 -7.36571485E-05  3.05303797E-05 -1.86942993E-05 -5.19612768E-01
 -2.99253259E-01  5.61442296E-05 -2.00599534E-05  2.19363838E-05  5.80620319E-06
  3.66391738E-06 -7.88773226E-03  4.61576451E-03  2.89081146E-07  3.54350220E-05
 -2.21780097E-09  1.25132246E-09  4.99509501E-09 -1.34583256E-10 -2.56147703E-09
  4.85903497E-05 -2.81267832E-05  1.61181888E-05 -2.51303774E-05  1.45402936E-05
 -1.31821062E-05 -1.78599700E-05  1.03387925E-05 -2.05983734E-05 -1.82003052E-05
 -5.05462471E-01  2.92481174E-01  7.37808727E-05  3.02299150E-05  1.86946218E-05
  5.19003262E-01 -3.00311095E-01 -5.62255473E-05 -1.98309778E-05 -2.19983103E-05
 -5.79869748E-06  3.67577238E-06  7.90646156E-03  4.58369294E-03 -7.25625618E-08
  3.54360610E-05 -3.83105628E-11  2.10558569E-11  3.90984807E-11  1.07734931E-11
 -1.26176530E-11  5.71230873E-08  5.61310056E-05  4.28178718E-08 -2.95661796E-08
 -2.90375006E-05  3.49072533E-09 -2.10061894E-08 -2.06311787E-05  5.62959680E-08
  2.52520626E-10 -5.95323156E-04 -5.84224724E-01 -1.23918275E-07 -6.09129828E-05
 -2.71710167E-10  6.11249671E-04  5.99884308E-01  8.14412858E-08  4.00515677E-05
  6.17767508E-08 -7.39603812E-09 -7.30011267E-06 -1.87569795E-05 -9.16720871E-03
  1.09192976E-07  3.57438372E-05 -1.09740900E-06  7.45489387E-07  7.36638328E-06
 -2.57601785E-06 -1.82225412E-05 -1.57805641E-05  1.61437074E-08  7.60231930E-01
  6.72759919E-06 -6.88485890E-09 -3.23907527E-01  4.25527614E-06 -4.33359570E-09
 -2.05000991E-01 -1.10379505E-05 -3.85678086E-04  1.58976622E-06  2.64061275E-08
 -1.62161377E-11 -5.71537569E-06  1.37752619E-04 -5.63180812E-07 -9.85652748E-09
 -3.79341741E-12 -2.74954989E-01  1.39631316E-05 -1.42027202E-08  1.91141412E-04
  2.24349740E-07 -2.03165409E-05  6.20515343E-08 -6.78430179E-06  3.63166461E-06
  5.60505051E-06  3.13338691E-06 -2.91478158E-06  1.18811250E-05 -1.27993367E-05
 -2.17686490E-01 -2.64447756E-06 -8.42322560E-07  1.50983367E-01 -6.78666146E-06
  6.61992155E-06  1.43358630E-01  2.11695861E-05  1.90775127E-01 -3.31968365E-01
 -2.14250818E-06  1.00040844E-05 -3.12619084E-05 -2.11132855E-01  3.67343724E-01
 -3.71692908E-06 -2.15585914E-05  9.11186267E-02 -1.66953446E-05  2.65726703E-05
  4.94995778E-02  8.52540812E-02 -1.80739343E-05 -2.10796737E-06 -6.78433752E-06
  3.63168465E-06  5.60509262E-06  3.13338992E-06 -2.91480147E-06  1.19071134E-05
  1.27750967E-05 -2.17685831E-01 -2.64273364E-06  8.47711897E-07  1.50982813E-01
 -6.80009486E-06 -6.60604856E-06  1.43358008E-01  2.11692890E-05  1.91448902E-01
  3.31579163E-01 -2.18310561E-06 -9.99544580E-06 -3.12615841E-05 -2.11878575E-01
 -3.66913032E-01 -3.62922761E-06  2.15736948E-05  9.11182362E-02 -1.67493300E-05
 -2.65385021E-05  4.91518892E-02 -8.54545733E-02 -1.80606593E-05  2.21831599E-06
 -6.78111873E-06  3.62998503E-06  5.60290761E-06  3.13278673E-06 -2.91339221E-06
 -1.02360592E-05  1.04516360E-08 -2.17541690E-01 -4.10896419E-06  4.17694881E-09
  1.50854743E-01  4.65668514E-06 -4.74267178E-09  1.43205181E-01  4.94489876E-07
 -3.82609278E-01  3.91314445E-04  4.28210195E-06 -8.75962107E-09 -8.38053296E-06
  4.23431979E-01 -4.32959834E-04  7.37485474E-06 -1.50026993E-08  9.10188199E-02
  1.95452144E-05 -1.99179355E-08 -9.84860126E-02  2.00787009E-04 -1.42976408E-05
  4.37061664E-08 -1.12347105E-04  6.78323900E-05  8.53994899E-05 -1.12522504E-05
  4.44949145E-05  2.01971533E-01  1.62044571E-04  4.18501217E-06  1.35969831E-02
  1.09075317E-05  2.73766359E-07  1.46691417E-01  1.17693849E-04  3.02166896E-06
  2.34525184E-04  4.23514493E-05  3.04947140E-08  4.63395724E-02 -1.78776902E-04
 -2.31291754E-04 -3.94341022E-05 -3.91872432E-08  9.97594151E-02 -3.84837586E-04
 -2.47735635E-05 -4.87608678E-01 -3.91234110E-04 -2.80661914E-05  1.66474737E-07
  3.58408118E-04 -1.45101798E-06 -1.33470488E-01  7.98562412E-02  1.30012025E-01
  2.03076884E-02 -4.83151507E-02  9.31841482E-02 -1.10697405E-01  7.27038812E-06
 -4.08465729E-02  1.59622572E-02 -2.57792310E-06 -3.15842810E-02 -5.40677290E-03
 -2.62164302E-06  2.85137964E-01  5.24867506E-06  3.84256482E-05 -9.43087912E-02
 -1.13463709E-01 -3.52112317E-01 -4.07822519E-06 -4.96228296E-05  5.38610663E-02
  8.06820129E-02 -1.73352788E-05 -2.34700080E-02  9.44377068E-02 -2.34321781E-05
 -4.78541811E-06 -2.67369757E-02  3.40308540E-02 -1.34315984E-01  8.03621074E-02
  1.30835615E-01  2.04362947E-02 -4.86213426E-02  9.38151952E-02  1.11314700E-01
  7.31266922E-06 -4.09377480E-02 -1.60952921E-02 -2.59014597E-06 -3.15536778E-02
  5.37896148E-03 -2.63370279E-06  2.86942152E-01  4.94787329E-06 -3.85273955E-05
 -9.42587249E-02  1.14670949E-01 -3.54340408E-01 -3.70339688E-06  4.97710192E-05
  5.38252682E-02 -8.14379427E-02 -1.74548444E-05 -2.40075489E-02 -9.48735301E-02
 -2.34147877E-05  4.99535239E-06 -2.71145152E-02 -3.37946516E-02  2.68254492E-01
 -1.60498381E-01 -2.61301118E-01 -4.08018392E-02  9.71616897E-02  2.86134558E-01
 -2.37688708E-04 -4.83941517E-06 -6.86860362E-02  1.22857648E-05  2.08042274E-06
 -2.21729243E-02 -4.06213794E-05  3.50012930E-06 -5.72034120E-01 -3.89087716E-05
  1.14961364E-07 -2.91732212E-01  6.45642364E-04  7.06474746E-01  4.99546111E-05
 -1.37113388E-07  1.93897067E-01 -4.07549620E-04  2.28325308E-05 -1.87603420E-01
  2.47257347E-04 -2.05827229E-05  7.82385147E-08  5.41109779E-02 -2.36445274E-04
  5.95438293E-07 -3.59408664E-07 -4.46754140E-07  5.87236001E-08 -2.39106941E-07
 -1.62171446E-04  2.02036625E-01 -7.66368832E-09 -1.09439560E-05  1.36324501E-02
 -4.49574053E-10 -1.17713471E-04  1.46651688E-01 -5.42599222E-09 -1.21735737E-06
 -3.59229846E-08  4.04052712E-05 -1.80512834E-04 -4.68007157E-02  1.21608955E-06
  2.74043941E-08 -4.35708317E-05 -3.84388130E-04 -9.96502775E-02  4.52069764E-08
  3.91615182E-04 -4.87906215E-01  1.73552427E-07  6.01008077E-05 -2.05715419E-06
 -5.37760821E-05  2.32467954E-01 -1.39114962E-01 -2.26401664E-01 -3.53643250E-02
  8.41201109E-02 -1.11188081E-01  2.22272405E-01 -1.16408741E-05  1.60722665E-02
 -5.94559700E-02  3.36519218E-06 -5.36650305E-03 -2.52973419E-02  3.31899667E-06
 -4.95697697E-01  6.09642092E-05 -2.52151417E-05  1.14605167E-01  2.26141123E-01
  6.12381280E-01 -7.50146063E-05  3.87075583E-05 -8.12826302E-02 -1.47399724E-01
  3.29058734E-05  9.46489302E-02 -1.33431545E-01  8.39453212E-07  3.14734749E-05
  4.69433501E-02  1.93777586E-02 -2.31981343E-01  1.38823761E-01  2.25927743E-01
  3.52902532E-02 -8.39442235E-02  1.11300045E-01  2.21641962E-01  1.16144801E-05
 -1.60444442E-02 -5.93648957E-02 -3.35586992E-06  5.42995840E-03 -2.53278378E-02
 -3.30946718E-06  4.94656407E-01 -6.10339896E-05 -2.49508227E-05 -1.13339873E-01
  2.26189665E-01 -6.11095160E-01  7.51074123E-05  3.83737386E-05  8.04851640E-02
 -1.47433399E-01 -3.28424092E-05 -9.48333086E-02 -1.32893409E-01 -6.25998626E-07
  3.14586066E-05 -4.67261570E-02  1.97871898E-02 -4.89100867E-04  2.92690611E-04
  4.76327412E-04  7.43893599E-05 -1.77072520E-04 -4.91854470E-04  2.93664942E-02
  8.92339915E-09  9.29026747E-05 -3.16120190E-02 -3.84446329E-09  5.02798644E-06
 -3.46764468E-02 -6.40307939E-09  1.04096902E-03  1.13043145E-07  4.14924567E-05
  5.89546920E-04  2.85386313E-02 -1.28617949E-03 -1.39339062E-07 -4.75007810E-05
 -3.67448366E-04 -7.18308712E-03 -4.16253663E-08  3.73415106E-04  3.08720620E-02
  7.82149461E-08  1.99702215E-05 -2.18306857E-04 -3.90593339E-02  2.34780330E-04
 -1.50953923E-04 -1.32348447E-04  1.45574443E-05 -3.14963504E-05 -4.02228814E-01
  2.32885427E-04 -8.40050526E-06  1.32409445E-02 -7.49994018E-06  3.04313849E-07
 -1.61566765E-01  9.37748866E-05 -3.32485397E-06  1.31275567E-04  5.11569777E-05
 -3.44456919E-08  2.61738379E-01 -6.48198619E-04  6.70953950E-05 -1.95825392E-05
  1.63795821E-08 -2.75948369E-01  6.83203741E-04  2.09109944E-06  4.09743212E-02
 -2.38941905E-05  4.60233616E-05 -1.15091307E-07 -4.23942902E-04  6.48923123E-07
  1.68541281E-01 -1.09958891E-01 -1.65421830E-01 -9.73624137E-04  7.79264854E-02
 -2.37399789E-01  1.73610292E-02 -4.83500736E-06  1.47974938E-01  1.39964711E-03
  1.59606620E-06  4.37039365E-02  3.47565003E-02 -3.48914664E-06  5.86484262E-02
 -4.94564948E-05 -2.26662429E-05 -3.44844695E-01 -9.75153098E-02 -5.86941308E-02
  5.68308416E-05  2.52192135E-05  3.69973387E-01  1.39686435E-01 -5.88568668E-06
 -9.56196321E-03 -1.43724199E-02  1.08512862E-05 -1.52428789E-05  3.12938772E-02
 -4.93432423E-02  1.68797593E-01 -1.10126111E-01 -1.65673370E-01 -9.75094438E-04
  7.80450474E-02 -2.37449717E-01 -1.71033909E-02 -4.83524992E-06  1.47970538E-01
 -1.57280093E-03  1.59384111E-06  4.36026075E-02 -3.48425016E-02 -3.49642814E-06
  5.87378196E-02 -4.93971156E-05  2.27609327E-05 -3.44529880E-01  9.93216313E-02
 -5.87835747E-02  5.67655364E-05 -2.53259932E-05  3.69523847E-01 -1.41659621E-01
 -5.89323538E-06 -9.52008849E-03  1.43979477E-02  1.09014417E-05  1.52037575E-05
  3.16426176E-02  4.91260662E-02 -3.37795418E-01  2.20379177E-01  3.31478308E-01
  2.00114650E-03 -1.56143008E-01 -2.67787785E-01  1.73147483E-04 -5.62901212E-06
  1.45409833E-01 -8.29075969E-05  5.90690190E-06 -1.66382343E-02  4.48438613E-05
  8.41820679E-06 -1.17694114E-01 -1.07979295E-05 -9.23837253E-09 -5.15116158E-01
  1.17551894E-03  1.17625920E-01  1.67140740E-05  6.63808791E-09  6.13770844E-01
 -1.37690328E-03  1.15440583E-05  1.54675441E-02 -2.36261745E-05 -1.72854129E-05
  2.81549904E-08 -6.33337189E-02  2.18695173E-04  1.04166071E-06 -6.69392380E-07
 -5.75202669E-07  4.94918851E-08 -1.72977819E-07  2.33298588E-04  4.02079170E-01
 -3.93019326E-09 -7.78018584E-06 -1.31221615E-02  2.56855893E-10  9.35604087E-05
  1.61642739E-01 -1.36005357E-09  5.88169787E-07 -1.86325454E-08 -4.03533844E-05
  6.46678410E-04  2.61360968E-01  3.40816227E-07 -3.06240470E-10  8.15597153E-06
 -6.82691629E-04 -2.75840937E-01  9.64065824E-10 -2.36642129E-05 -4.10777934E-02
  1.19512633E-07  4.87705091E-05 -1.14417774E-06  3.11655292E-04  2.92613161E-01
 -1.90921099E-01 -2.87133640E-01 -1.70823893E-03  1.35234445E-01 -1.71678063E-02
  2.57798472E-01 -2.57647558E-07 -1.61463056E-03 -1.46377457E-01 -2.55790541E-06
 -3.48482106E-02 -3.44640067E-03 -8.32982777E-06  1.01834160E-01  1.49601193E-05
  6.74927969E-06 -9.94409013E-02 -4.58159612E-01 -1.01794533E-01 -1.57778552E-05
 -1.00888166E-05  1.42054880E-01  5.32178419E-01 -8.60572930E-06  1.44115596E-02
 -7.21261146E-03 -1.35044779E-05 -5.91469225E-06  5.48962338E-02  2.80857987E-02
 -2.92466274E-01  1.90825247E-01  2.86989298E-01  1.70755114E-03 -1.35166445E-01
  1.74849818E-02  2.57749191E-01  2.53713833E-07  1.44658966E-03 -1.46381853E-01
  2.55914441E-06  3.48796072E-02 -3.54800923E-03  8.32666212E-06 -1.01783741E-01
 -1.49896818E-05  6.79969602E-06  9.72718697E-02 -4.58473658E-01  1.01743662E-01
  1.58071883E-05 -1.01429516E-05 -1.39562651E-01  5.32629284E-01  8.60041157E-06
 -1.44345935E-02 -7.17080617E-03  1.34896644E-05 -5.95609419E-06 -5.46970427E-02
  2.84634160E-02 -1.49079482E-04  9.72637806E-05  1.46180815E-04  9.86012199E-07
 -6.87775951E-05  1.13082684E-04  2.27373378E-01 -2.36299821E-09 -8.76669034E-05
 -1.48840560E-01  2.52865405E-09 -7.22343128E-05 -6.38030206E-02  3.66148059E-09
 -5.21228761E-05  4.23499307E-08  4.61701049E-05 -8.11863147E-04 -2.87679564E-01
  5.18131722E-05 -4.77790400E-08 -5.39861056E-05  8.57343644E-04  2.88428894E-01
  5.00782801E-09  2.52249486E-05  1.78305738E-02  2.52484261E-08  1.60777783E-05
 -2.02027871E-04 -5.67949556E-02 -6.34065141E-09  4.75484688E-09  3.52531090E-09
  4.18014925E-11  1.12994873E-09 -1.50947871E-07  7.15122612E-05  2.38889014E-06
  4.99272994E-08 -2.36531816E-05 -9.45751308E-07  4.59813140E-09 -2.17087382E-06
 -5.18776209E-07 -6.32935222E-08 -1.13472895E-03  5.38090597E-01  1.21081250E-07
  9.92974530E-06  4.41348202E-08  8.61363660E-04 -4.08401279E-01 -1.39045113E-07
 -1.66700422E-05 -8.32050501E-07 -5.23950844E-08 -3.37239123E-05 -3.11153365E-03
 -6.02353909E-01  1.10454251E-07  1.53203919E-05  1.70444336E-05 -1.30833918E-05
 -1.71046431E-05  4.47883185E-06  8.68253434E-06 -7.06322501E-06  2.15549273E-06
  2.25850195E-02  8.82207090E-06 -9.13664998E-06 -1.51447154E-02 -5.71409982E-06
  1.03609995E-05 -1.22534809E-03 -1.04669363E-05 -1.25881730E-01 -3.24358112E-01
 -3.42433076E-06 -3.82260325E-05  1.06286472E-06  1.44378370E-01  4.66864033E-01
 -8.34216992E-06  3.60626401E-05  1.37467466E-01 -7.79903223E-06  3.83359131E-05
  1.90435795E-01  1.15078425E-01 -1.98050281E-05  1.30517213E-05 -1.69726521E-05
  1.30284600E-05  1.70355202E-05 -4.46389494E-06 -8.64916261E-06  7.09475556E-06
  2.08978797E-06 -2.25047140E-02 -8.84403848E-06 -9.06513627E-06  1.50908986E-02
  5.71230305E-06  1.03140146E-05  1.22129339E-03  1.05598279E-05  1.28169554E-01
 -3.25411245E-01  2.96969839E-06 -3.81878899E-05 -1.22664618E-06 -1.47404371E-01
  4.68072753E-01  8.90135839E-06  3.60377824E-05 -1.36970898E-01  7.66558024E-06
  3.82384298E-05 -1.90625223E-01  1.14661462E-01  1.98569967E-05  1.31344718E-05
 -5.61945423E-08  4.32199571E-08  5.78664614E-08 -1.67554629E-08 -3.02449512E-08
 -2.06685535E-08 -9.34774956E-06 -8.21496617E-05  4.83578035E-08  5.67062887E-06
  5.51323197E-05 -4.26847574E-08  4.01774428E-07  4.75624027E-06  5.39638599E-08
  2.32498789E-04 -5.44532826E-01 -2.16390668E-07 -2.35236233E-05 -3.12878902E-08
 -4.65564413E-04  7.19641026E-01  2.36912632E-07  4.04815827E-05 -4.95021293E-04
 -5.75398409E-08  1.53209536E-05  2.64631140E-04 -2.15000954E-01 -4.01770327E-08
 -2.65679307E-05  8.50976860E-07 -6.38171420E-07 -4.71877920E-07 -5.66097742E-09
 -1.54393326E-07  7.15190060E-05  1.50888297E-07 -3.43613897E-04 -2.36580887E-05
 -4.99146399E-08  1.28609551E-04 -2.18406383E-06 -4.59733230E-09  6.83898971E-05
  1.96968353E-05  5.37622130E-01  1.13512246E-03 -3.22322963E-05  9.67221122E-08
 -1.44273636E-05 -4.08181727E-01 -8.61700431E-04  3.35818327E-05 -1.20523700E-07
  1.17378752E-04  5.81509064E-06 -1.11332144E-07  6.02560093E-01 -3.11200374E-03
 -1.74355002E-05  1.01267222E-07 -1.04487634E-05  8.00958478E-06  1.02911873E-05
 -2.48568669E-06 -5.11104510E-06 -4.91405292E-06 -7.26982080E-06 -1.28983450E-02
  5.99928357E-07  8.50561147E-06  8.65414853E-03  3.65639949E-06 -5.66704761E-06
  7.08869836E-04 -1.41107644E-05 -4.71969885E-01 -1.27500548E-01  4.78898556E-05
  8.13007833E-06  2.56283199E-05  6.36429261E-01  1.46611154E-01 -6.56191147E-05
  2.42398772E-06 -7.88190745E-02  3.38210226E-05 -1.30789097E-05  1.05399049E-01
 -1.90425697E-01  5.37712498E-06  3.26230841E-05 -1.05550611E-05  8.09118375E-06
  1.03978838E-05 -2.51367247E-06 -5.16523354E-06 -4.85495697E-06  7.29296199E-06
 -1.30395427E-02  5.27292992E-07 -8.56367224E-06  8.74887741E-03  3.70372825E-06
  5.72423254E-06  7.16768121E-04 -1.40450269E-05 -4.70915735E-01  1.26427332E-01
  4.78758165E-05 -8.56416234E-06  2.56211982E-05  6.35218198E-01 -1.44980398E-01
 -6.55739375E-05 -1.93122213E-06 -7.96773757E-02  3.38961083E-05  1.32494999E-05
  1.04982749E-01  1.90715295E-01  5.30201498E-06 -3.25737059E-05  1.88990315E-05
 -1.45192102E-05 -1.91697541E-05  5.24602360E-06  9.85420566E-06  4.60277314E-06
 -3.39688448E-08  2.61629894E-02 -1.36289752E-05  3.16456949E-08 -1.75611490E-02
  1.37186410E-05 -1.27066031E-08 -1.52311981E-03 -1.64606108E-05 -2.51591426E-01
 -1.44700116E-03  5.36563818E-05 -1.82853944E-07  9.42765675E-06  3.83165096E-01
  1.86079215E-03 -4.99916333E-05  2.28455002E-07  1.58276828E-01  2.32430435E-05
  2.42617930E-08 -2.24625918E-01 -2.15100515E-04 -1.22309536E-05 -4.57721032E-08
 -3.66740605E-01  2.75153301E-01  2.02086996E-01  1.68795864E-03  6.41051747E-02
 -4.88228277E-04  2.57921937E-06  8.29729819E-06 -4.53011809E-05  7.60295932E-08
 -1.62815107E-05 -1.43718354E-04  6.90179040E-07 -2.05451932E-05 -1.64383963E-01
  7.20728316E-06 -1.29809428E-08 -3.31470582E-04 -2.45260397E-07 -9.17771424E-02
  2.32239107E-06  1.78905352E-09 -7.94468514E-05 -4.04043967E-07  2.02233486E-05
  3.02102888E-04 -1.39010884E-06  2.40748158E-05 -4.25724653E-08  8.89131623E-01
 -2.71630215E-03  2.91284913E-01 -2.18955507E-01 -2.09408361E-01 -3.43506261E-02
  5.80093313E-02 -1.61693139E-01  2.80406428E-01 -3.78067055E-05  3.07286159E-03
 -5.08886620E-03  1.64454111E-05  9.02393996E-03 -1.55609139E-02  5.57181775E-06
  2.38745584E-01 -1.74726775E-05  1.53281598E-05  3.02932764E-02  5.23659373E-02
 -1.69175466E-01  5.47702877E-06  1.10180055E-05  9.68134281E-02  1.66809934E-01
  1.31974906E-05  2.38444317E-02 -4.14000061E-02  2.16895399E-05  2.73911138E-05
  2.69136446E-01 -7.47965341E-04  2.91282195E-01 -2.18953458E-01 -2.09406103E-01
 -3.43504519E-02  5.80085925E-02 -1.62262874E-01 -2.80073811E-01 -3.78060959E-05
  3.08325074E-03  5.08172421E-03  1.64450973E-05  9.05577049E-03  1.55423907E-02
  5.57180309E-06  2.38745427E-01 -1.75065326E-05 -1.52858040E-05  3.00797395E-02
 -5.24896106E-02 -1.69175980E-01  5.45776243E-06 -1.10386629E-05  9.61324662E-02
 -1.67200660E-01  1.32001923E-05  2.39282274E-02  4.13507112E-02  2.15816800E-05
 -2.74814021E-05  2.69134523E-01 -8.96248648E-04  2.90678359E-01 -2.18498605E-01
 -2.08905676E-01 -3.43048544E-02  5.78460903E-02  3.23020628E-01 -3.28466160E-04
 -2.76308319E-05 -5.78263313E-03  5.42470820E-06  1.62006529E-05 -1.79683164E-02
  1.81058351E-05  5.00785926E-06  2.38725321E-01  6.34691637E-06 -7.69735628E-10
 -6.05370184E-02  1.22953690E-04 -1.69322347E-01  1.12933040E-05 -1.90363930E-08
 -1.92450411E-01  3.92476773E-04  1.01147523E-05 -4.75833941E-02  4.85412946E-05
 -2.27622666E-05  4.86526017E-08  2.68794323E-01 -8.21375359E-04  5.36071938E-01
 -4.64722980E-01 -3.93464959E-01 -2.54876233E-03  1.02899590E-01 -8.58148055E-05
  5.13047328E-07  2.76462543E-05  3.75545618E-05 -2.09449744E-07  2.14479992E-06
  7.30608211E-05 -2.94623165E-07  5.51328841E-05 -4.32451292E-01  1.55264251E-05
 -1.58076820E-08 -2.27541732E-04 -2.62016024E-07  6.95637747E-01 -2.49866500E-05
  2.54555849E-08  1.12047104E-04  1.13237659E-07 -6.26622445E-05 -1.64701849E-04
  6.77029155E-07  5.58747152E-06 -1.14332762E-08  2.19670608E-01 -6.71095085E-04
 -1.35674497E-01  1.19414087E-01  1.06610660E-01 -2.92523027E-02 -2.69347345E-02
  4.28614446E-02 -7.43441351E-02  3.38274148E-05 -4.71109370E-02  8.17201176E-02
 -3.61960437E-05  5.71260710E-02 -9.91781603E-02 -2.46886335E-07  3.65415867E-01
 -2.25205632E-05  2.02676322E-05  5.49979284E-02  9.47916892E-02 -4.93570562E-01
  2.67251809E-05 -1.87752442E-05 -4.37580573E-02 -7.53824820E-02  3.79711121E-06
 -3.73364786E-02  6.48438351E-02  1.07776908E-05  1.06686542E-05  8.41817597E-02
 -2.07983574E-04 -1.35673844E-01  1.19413512E-01  1.06610124E-01 -2.92523168E-02
 -2.69346517E-02  4.30126622E-02  7.42562894E-02  3.38273988E-05 -4.72771678E-02
 -8.16236375E-02 -3.61960217E-05  5.73279434E-02  9.90616771E-02 -2.46931302E-07
  3.65415248E-01 -2.25616799E-05 -2.02216048E-05  5.46115495E-02 -9.50150468E-02
 -4.93569731E-01  2.67632350E-05  1.87206748E-05 -4.34510616E-02  7.55605861E-02
  3.79709976E-06 -3.74683307E-02 -6.47675230E-02  1.07340825E-05 -1.07124303E-05
  8.41810482E-02 -3.06427745E-04 -1.35502670E-01  1.19262970E-01  1.06471327E-01
 -2.92588359E-02 -2.69146949E-02 -8.57080448E-02  8.71733791E-05  3.11555403E-05
  9.42374608E-02 -9.58773495E-05 -3.32583779E-05 -1.14472922E-01  1.16607438E-04
 -3.81860318E-06  3.65264881E-01  5.67555203E-06 -5.79351054E-09 -1.09633120E-01
  2.23394642E-04 -4.93363657E-01 -2.71903418E-07  2.97470389E-10  8.73050005E-02
 -1.77935504E-04  9.49526652E-06  7.47709848E-02 -7.61910190E-05 -1.51025955E-05
  3.07423697E-08  8.40858359E-02 -2.56820657E-04 -8.32368196E-01  9.06546205E-01
  1.49476173E-01 -1.20949199E-01  8.94518795E-02  6.62095040E-04 -3.11265857E-06
 -1.23005519E-05 -3.37260888E-04  1.56173125E-06 -5.08004441E-08 -1.86669064E-05
  8.62637104E-08  6.57290403E-05 -4.74776594E-01  1.69918473E-05 -1.70180709E-08
  5.24117827E-04  6.76661688E-07  6.09628588E-01 -2.18474121E-05  2.20457885E-08
 -2.91051049E-04 -3.98216785E-07 -5.47298247E-05 -9.77780286E-05  4.05042445E-07
 -2.26195902E-06  4.42944220E-09 -8.76193835E-02  2.67678063E-04 -3.33875686E-01
  3.67225885E-01  6.09676216E-02 -9.71852150E-02  3.34459589E-02  1.04598388E-01
 -1.81741205E-01  5.03544075E-05 -6.69214794E-02  1.16316985E-01 -5.80164199E-05
 -1.95429257E-02  3.39408229E-02  1.45455000E-06  2.70284950E-03  6.22786472E-06
 -1.83816231E-05 -1.03742808E-01 -1.78696273E-01 -3.89582374E-02 -7.97986255E-06
  2.69480189E-05  1.49703507E-01  2.57891162E-01  8.97644821E-06  2.58395347E-03
 -4.50333751E-03  8.72392191E-06  1.14789906E-05  8.85131856E-02 -3.01557001E-04
 -3.33877621E-01  3.67228013E-01  6.09679697E-02 -9.71858284E-02  3.34460084E-02
  1.04968722E-01  1.81529093E-01  5.03544092E-05 -6.71585366E-02 -1.16181442E-01
 -5.80164018E-05 -1.96123695E-02 -3.39016679E-02  1.45447672E-06  2.70140502E-03
  6.26545327E-06  1.83690136E-05 -1.03015065E-01  1.79118333E-01 -3.89558200E-02
 -8.03499885E-06 -2.69318538E-05  1.48653293E-01 -2.58500428E-01  8.97648913E-06
  2.59357652E-03  4.49891202E-03  8.67705423E-06 -1.15144882E-05  8.85142184E-02
 -2.39100123E-04 -3.34341050E-01  3.67737475E-01  6.10526432E-02 -9.73316977E-02
  3.34571535E-02 -2.10014572E-01  2.14163336E-04  4.38267723E-05  1.34443014E-01
 -1.37148632E-04 -5.38343985E-05  3.93592256E-02 -4.01303006E-05  2.65888430E-06
  2.34869309E-03 -1.27769474E-05  1.29342266E-08  2.06949784E-01 -4.21878624E-04
 -3.83614519E-02  2.01845792E-05 -2.04148300E-08 -2.98714524E-01  6.08878887E-04
  8.57656207E-06 -5.43298532E-03  5.56151658E-06 -1.06732265E-05  2.16776545E-08
  8.87195079E-02 -2.71201875E-04  7.36680364E-04 -8.99667041E-04  4.88680975E-05
  1.24917027E-04 -1.41647720E-04  7.21454352E-01  4.36555611E-04  1.49313846E-05
 -4.21893531E-01 -2.55339106E-04 -8.68780977E-06  1.44819997E-01  8.76775852E-05
  2.90737123E-06  1.58777012E-04 -2.93570106E-05 -4.44152227E-08  3.95988663E-01
 -1.44950458E-03 -2.08279733E-04  2.17121689E-05  2.71868661E-08 -2.08686584E-01
  7.63913995E-04 -1.11655441E-06 -2.27861409E-02 -1.38011820E-05 -1.65746273E-05
  6.30717836E-08  1.17744915E-04 -1.34478318E-06  3.70263304E-01 -4.57371517E-01
  6.40581264E-02  1.66315144E-01 -4.88830702E-02  3.28512988E-02  8.07135387E-02
 -2.45199225E-06 -1.09062039E-01 -6.88276042E-02 -2.55141077E-07  1.56971625E-01
 -9.72525503E-02  8.15780244E-06  8.50930992E-02 -3.51579434E-06  1.33065890E-05
 -2.25922005E-04  1.33188152E-01 -1.58365924E-01  4.76875261E-06 -2.50274804E-05
 -1.65494432E-02 -2.38649887E-01 -9.24853466E-06 -4.73048860E-02  6.36148004E-02
 -8.13105718E-06 -7.97939343E-06 -8.78536377E-02 -3.85294389E-02  3.72350198E-01
 -4.59949373E-01  6.44192241E-02  1.67252582E-01 -4.91583685E-02  3.24241018E-02
 -8.09767996E-02 -2.47472732E-06 -1.08697729E-01  6.89536950E-02 -2.39737427E-07
  1.57487216E-01  9.78082153E-02  8.19214279E-06  8.55730058E-02 -3.58550720E-06
 -1.33508207E-05 -3.36604838E-04 -1.33686494E-01 -1.59259010E-01  4.90115013E-06
  2.51109028E-05 -1.63506403E-02  2.39667254E-01 -9.29760475E-06 -4.76418516E-02
 -6.39111262E-02 -8.12012506E-06  8.06628049E-06 -8.81114101E-02  3.89949525E-02
 -7.41813156E-01  9.16332251E-01 -1.28365430E-01 -3.33237674E-01  9.78235321E-02
 -1.07228191E-01  2.37920149E-04  3.85581008E-06  1.03479502E-02 -2.51716036E-04
 -3.50856820E-06  3.26051612E-01 -1.68008212E-04 -3.13900353E-06 -1.70649285E-01
 -7.83905543E-06  1.96969435E-08  2.30752273E-01 -3.44294437E-04  3.17561803E-01
  1.39294770E-05 -3.79569540E-08 -4.30464516E-01  6.78804559E-04  5.68656837E-06
 -1.57824041E-01  1.43360513E-04 -6.35560235E-06  2.27857726E-08  1.75840719E-01
 -4.64314924E-04 -3.82545457E-06  4.67299158E-06 -2.65340972E-07 -6.67447901E-07
  7.48691646E-07 -4.36575097E-04  7.21099850E-01 -2.41241607E-08  2.55351935E-04
 -4.21851381E-01  1.38740732E-08 -8.78387779E-05  1.45161711E-01 -4.36005296E-09
 -8.17636220E-07  1.08774491E-09 -4.57272286E-05 -1.44752087E-03 -3.95487702E-01
  1.07278472E-06 -4.37197239E-09  3.03293347E-05  7.62111531E-04  2.08228322E-01
  1.66593511E-09  1.38645555E-05 -2.29221210E-02  6.35654772E-08  1.80340179E-05
 -1.41705301E-06 -2.51496398E-04 -6.43517176E-01  7.95016624E-01 -1.11644216E-01
 -2.89244840E-01  8.49403199E-02  8.06675083E-02 -6.03657583E-02  6.99628310E-06
 -6.88170545E-02 -2.96917210E-02 -4.74435389E-06 -9.74838162E-02  2.70234270E-01
 -1.06016666E-05 -1.47738727E-01  1.30765549E-05 -1.58772394E-05 -1.33505641E-01
 -1.53506132E-01  2.75069247E-01 -2.49933590E-05  2.88049252E-05  2.39396088E-01
  2.92219308E-01  1.51323587E-05  6.37030917E-02 -1.21173407E-01  6.76406744E-06
  1.65608698E-05  1.52349549E-01 -2.26564797E-02  6.42309101E-01 -7.93524140E-01
  1.11434716E-01  2.88701955E-01 -8.47804564E-02 -8.08971084E-02 -5.99385296E-02
 -6.98778739E-06  6.91112877E-02 -3.00561933E-02  4.74439927E-06  9.75221345E-02
  2.69718890E-01  1.05752551E-05  1.47461937E-01 -1.30972345E-05 -1.58072931E-05
  1.32881090E-01 -1.53615652E-01 -2.74553802E-01  2.50360429E-05  2.86725024E-05
 -2.38151953E-01  2.92415317E-01 -1.51021730E-05 -6.37953449E-02 -1.20836370E-01
 -6.67020473E-06  1.65620965E-05 -1.52199596E-01 -2.18518512E-02  1.20389670E-03
 -1.48732334E-03  2.08909375E-04  5.41186588E-04 -1.58710422E-04  2.54241061E-04
  7.96795305E-02 -5.99871209E-09 -1.67885616E-04 -1.49140804E-01  5.32117452E-09
 -4.26433807E-04  1.01238467E-01  5.21363204E-09  2.76682495E-04  2.00381635E-08
  7.20154792E-06 -2.16541736E-04  7.73115073E-02 -5.15097928E-04 -3.74875530E-08
 -1.46192963E-05  4.50127637E-04 -1.21722136E-01 -9.22609836E-09  2.45212362E-04
 -1.06563554E-02  2.26603535E-08  6.05926961E-06 -1.48477402E-04  4.47742867E-02
  9.01571899E-06 -1.15976478E-05 -5.14288670E-06  1.04297688E-05  2.32317998E-05
  9.81039656E-06 -9.81144554E-09 -4.75277853E-01 -1.40133468E-05  1.41611951E-08
  6.76996300E-01  1.42989702E-05 -1.44867884E-08 -6.90404786E-01 -3.96731875E-05
  9.61142190E-05 -4.50061964E-07 -2.72738369E-08 -3.32162159E-11  7.51942124E-05
 -1.57044016E-04  6.73397985E-07  8.81296621E-09 -1.61555085E-11  2.46435672E-01
 -1.25098874E-05  1.27116752E-08 -6.30436590E-05  9.02764351E-08  1.22195330E-05
 -3.73298129E-08 -7.24356402E-05  9.26606353E-05 -2.16164927E-05 -4.02300068E-05
  1.77985988E-05  2.38327467E-05 -2.26946888E-05 -5.20114709E-01 -3.68757536E-05
  3.42994544E-05  8.27483472E-01  1.11505701E-05 -9.67166983E-06 -2.70086375E-01
  1.11935190E-05 -7.78721773E-03  1.34997242E-02 -1.83100067E-07 -8.84158757E-07
 -1.43231405E-05  2.40156655E-02 -4.16561789E-02  4.72217748E-06  9.88228757E-06
 -2.39877338E-02  4.14847216E-06 -6.16946006E-06 -9.54374443E-03 -1.64615717E-02
  1.31640431E-05  3.82254394E-07 -7.24351843E-05  9.26600521E-05 -2.16163692E-05
 -4.02297676E-05  1.77985257E-05  2.38788610E-05  2.26461877E-05 -5.20114529E-01
 -3.69454393E-05 -3.42244092E-05  8.27483208E-01  1.11702327E-05  9.64911066E-06
 -2.70085748E-01  1.11934855E-05 -7.81498574E-03 -1.34842288E-02 -1.79458905E-07
  8.84901179E-07 -1.43231354E-05  2.41009691E-02  4.16078564E-02  4.68176722E-06
 -9.90136588E-06 -2.39876562E-02  4.16097832E-06  6.16090494E-06 -9.47655663E-03
  1.65002933E-02  1.31613535E-05 -4.62690270E-07 -7.23408724E-05  9.25394029E-05
 -2.15915974E-05 -4.01829798E-05  1.77818233E-05 -1.53989364E-05  1.57706394E-08
 -5.20069677E-01  2.24139950E-05 -2.29664611E-08  8.27422875E-01 -5.58303247E-06
  5.77031556E-09 -2.69904919E-01  1.20301328E-05  1.57279022E-02 -1.59620832E-05
  3.65010163E-07 -7.18695358E-10 -1.69187369E-05 -4.83508033E-02  4.91310270E-05
 -9.38979531E-06  1.90776329E-08 -2.39852403E-02 -4.63400822E-06  4.71553644E-09
  1.90408187E-02 -3.87400480E-05  1.24154772E-05 -3.79182694E-08  2.77841919E-04
 -3.83324623E-04  1.15978709E-04  7.17457392E-05 -1.98378374E-04  1.91459573E-01
  1.46653704E-04  3.98176219E-06  2.70047979E-01  2.07256368E-04  5.59770662E-06
 -3.44544322E-01 -2.64314164E-04 -7.15692813E-06 -8.74006994E-05 -1.22568417E-05
 -3.94682331E-08  4.06126458E-01 -1.55220266E-03  1.27655621E-04 -2.98983092E-05
  1.68264174E-08 -5.36840578E-01  2.05165927E-03  4.41192987E-06  8.68265403E-02
  6.65625710E-05 -3.09870247E-05  1.08266631E-07 -2.86822220E-05 -5.06489300E-07
 -4.47478097E-02  6.33231521E-02 -4.64379248E-02 -1.08197465E-01 -4.54971605E-02
 -5.43276128E-01 -2.46153031E-01 -1.79675544E-05  8.46618174E-01  4.76493523E-01
  2.22367712E-05 -5.37466106E-01 -4.20896496E-01 -2.81350350E-05  5.91458895E-02
  8.41569250E-06  4.91047360E-06  1.11438419E-01  6.24220113E-02 -1.12670079E-01
 -2.41690899E-05 -4.08080769E-06 -2.68113540E-01 -8.26899804E-02  6.52559787E-09
 -1.87017506E-02  4.21801576E-02 -5.70819706E-06  4.63843952E-06 -5.34212754E-02
  3.36520182E-02 -4.50265922E-02  6.37176365E-02 -4.67267792E-02 -1.08869388E-01
 -4.57786683E-02 -5.41895754E-01  2.46335841E-01 -1.79908968E-05  8.43945242E-01
 -4.77163032E-01  2.22305186E-05 -5.35103437E-01  4.21810547E-01 -2.82093108E-05
  5.95128048E-02  8.38425391E-06 -4.92672681E-06  1.11406648E-01 -6.35336882E-02
 -1.13368869E-01 -2.41334780E-05  4.08571354E-06 -2.68070669E-01  8.50855830E-02
  4.81538378E-09 -1.89388311E-02 -4.23832979E-02 -5.71204698E-06 -4.60905825E-06
 -5.39576823E-02 -3.32548531E-02  9.05214108E-02 -1.28082702E-01  9.36587367E-02
  2.17514077E-01  9.08568562E-02 -1.16279751E-01 -1.10413533E-03  1.10252071E-05
  1.95525190E-02  1.98097385E-03 -8.97337096E-06  1.93206249E-01 -1.58820330E-03
  3.81208838E-05 -1.18663043E-01  1.08121896E-05  4.60033150E-09  2.20641442E-01
 -5.83239214E-04  2.25949979E-01 -3.53098817E-05  1.26678648E-09 -4.13468677E-01
  1.23376438E-03 -6.60125369E-06 -9.20285125E-02  1.03695620E-04  9.72300939E-06
 -7.71810643E-09  1.07382492E-01 -3.96961530E-04 -1.07733774E-06  1.48458610E-06
 -3.53896493E-07 -1.42869887E-07  1.13132574E-06 -1.46825702E-04  1.91238484E-01
 -7.12663219E-09 -2.07141765E-04  2.70328911E-01 -1.00307761E-08  2.63957017E-04
 -3.44323363E-01  1.28170056E-08  5.21228492E-07 -7.75038185E-09 -2.91051168E-05
 -1.55160132E-03 -4.05987044E-01 -8.42583539E-07  4.56177033E-08 -7.61709183E-06
  2.05163922E-03  5.36791747E-01 -7.85582335E-09 -6.65089338E-05  8.66993612E-02
  1.06785109E-07  2.52849060E-05 -2.87875637E-07 -1.95771627E-04  7.74533783E-02
 -1.09618832E-01  8.05290621E-02  1.87963186E-01  7.91671032E-02 -2.45672744E-01
 -2.57312726E-01  6.57392771E-06  4.75857596E-01  2.92979646E-01  1.70474541E-06
 -4.20825770E-01 -4.82642758E-02  2.08376729E-05 -1.02822814E-01  5.98616935E-06
  2.16147642E-07 -6.34949577E-02 -1.84184861E-01  1.95906921E-01 -7.61691057E-06
 -1.23601567E-05  8.49703318E-02  3.65093018E-01  4.87385250E-07  4.22697922E-02
 -6.77472745E-02 -4.17798712E-06  1.72219577E-06  9.31485484E-02  1.90676639E-02
 -7.72970867E-02  1.09397569E-01 -8.03653702E-02 -1.87578046E-01 -7.90022928E-02
  2.47083876E-01 -2.58695174E-01 -6.50965780E-06 -4.78275748E-01  2.95655722E-01
 -1.78427338E-06  4.22639382E-01 -5.06301117E-02 -2.07371193E-05  1.02611055E-01
 -6.01567461E-06  2.45968645E-07  6.23468682E-02 -1.84216830E-01 -1.95503053E-01
  7.67787908E-06 -1.23904269E-05 -8.25255832E-02  3.65134979E-01 -4.87374057E-07
 -4.23403322E-02 -6.75099627E-02  4.20542166E-06  1.72161144E-06 -9.28381770E-02
  1.97555743E-02 -1.61402269E-04  2.28391335E-04 -1.67105449E-04 -3.88186717E-04
 -1.62007640E-04 -4.90196209E-04 -6.84855612E-01 -1.96718652E-08  1.10718085E-03
  1.12091608E+00  1.60035778E-08 -1.13957453E-03 -7.79786708E-01 -6.80507455E-08
  2.11722208E-04 -1.03867206E-08  8.74952490E-06 -5.46908500E-04 -7.50863783E-02
 -4.03157301E-04  4.32169949E-08 -1.94455087E-05  1.18565352E-03  2.19645365E-01
  1.17751344E-08  1.69953728E-04  5.61452203E-03 -3.54508364E-09  6.77665578E-06
 -3.09849884E-04 -3.86790119E-02  3.29055254E-01 -4.69684197E-01  2.40781378E-01
  1.55048057E-01  2.76114907E-01 -5.50629466E-04  2.39841572E-06  5.32572284E-05
  6.15233837E-04 -3.05303187E-06 -9.21673207E-05  1.98530666E-05  2.06363370E-07
  2.43403972E-05  1.16231913E-01 -4.14231587E-06  4.09377126E-09 -2.15314523E-04
  3.75055413E-08 -3.17177414E-01  1.13365112E-05 -1.13464705E-08 -5.19726312E-05
 -5.40096637E-07  2.24329127E-05  9.00961925E-06 -7.62897903E-08  9.00507858E-06
 -1.83259333E-08  3.54307124E-01 -1.08241113E-03 -4.66072825E-01  6.73526107E-01
 -4.08701945E-01 -3.27647506E-01  3.11829361E-01 -1.70589055E-01  2.95652301E-01
  1.78714908E-05  2.08335193E-01 -3.60806592E-01 -4.48055962E-05 -1.97532428E-01
  3.42100079E-01  1.96550710E-05 -1.04012880E-03 -3.12460027E-06  7.25585737E-06
  2.46570044E-02  4.23052280E-02  7.37446930E-02 -1.43237911E-06 -7.38034884E-07
  1.90662340E-02  3.33464325E-02  2.13855892E-06  1.76175550E-02 -3.05469346E-02
  3.06893070E-06  4.70093145E-06  5.90985444E-02 -9.83555093E-05 -4.66075113E-01
  6.73529399E-01 -4.08703933E-01 -3.27648350E-01  3.11831045E-01 -1.71192949E-01
 -2.95304892E-01  1.78716024E-05  2.09073465E-01  3.60382879E-01 -4.48057303E-05
 -1.98232236E-01 -3.41698500E-01  1.96552916E-05 -1.04004612E-03 -3.13938717E-06
 -7.24952364E-06  2.44847440E-02 -4.24047560E-02  7.37444892E-02 -1.43080184E-06
  7.41115582E-07  1.89295268E-02 -3.34247460E-02  2.13851405E-06  1.76796851E-02
  3.05107851E-02  3.04970968E-06 -4.71332350E-06  5.90976350E-02 -2.62976791E-04
 -4.66659168E-01  6.74370659E-01 -4.09222009E-01 -3.27926385E-01  3.12207101E-01
  3.41763065E-01 -3.46526325E-04  2.85306999E-05 -4.17393048E-01  4.22375057E-04
 -5.78301830E-05  3.95689263E-01 -4.00654750E-04  3.20143900E-05 -9.76884847E-04
  6.39197788E-06 -6.51124857E-09 -4.89461639E-02  1.00196098E-04  7.36086795E-02
 -5.12923651E-06  5.22495550E-09 -3.83896069E-02  7.71007724E-05 -5.54247976E-07
 -3.51790866E-02  3.57618253E-05 -1.60802967E-06  3.28427708E-09  5.89649317E-02
 -1.79895059E-04 -2.04408150E-07  3.07339936E-07 -1.95417659E-07 -8.24638561E-08
  9.50621969E-10 -8.78505474E-04 -1.44712893E-01 -1.51604557E-08  7.67945423E-04
  1.26383084E-01  1.32568211E-08  1.94339274E-04  3.20725500E-02  3.35864722E-09
  2.37212500E-08  7.49443874E-08  1.44717702E-05 -1.88561943E-04  6.21910347E-02
  1.11400230E-08 -1.47406876E-07 -2.47039222E-05  4.48545130E-05 -1.45576951E-02
 -7.31603562E-09 -1.73018464E-04 -2.85329080E-02  7.50095936E-08  3.49640569E-05
  4.07420911E-03  1.33364737E+00 -5.73658519E-02  8.74500873E-02 -7.20922317E-02
 -4.99639129E-02  4.17124311E-02 -1.33202033E-01  2.96715149E-02  1.19893655E-05
  3.06912236E-01  2.28834395E-02 -2.17393001E-05  2.81193707E-01  2.59598206E-01
  3.76357974E-05  1.94428217E-02 -1.78669570E-05  3.51581444E-06 -1.98994247E-01
  1.44888031E-01 -3.43279251E-02  5.93525921E-05 -2.26528603E-06  6.95787222E-01
 -4.56673347E-01 -7.85145337E-06 -1.08502432E-01 -4.30320913E-02  3.98869461E-05
 -3.52905062E-05 -2.56398309E-02 -4.52995176E-01  5.77019630E-02 -8.79624593E-02
  7.25146402E-02  5.02564398E-02 -4.19569855E-02  1.33427453E-01  2.99287276E-02
 -1.20726285E-05 -3.07028027E-01  2.26994479E-02  2.19010035E-05 -2.80853126E-01
  2.60853183E-01 -3.78266375E-05 -1.95565515E-02  1.79038168E-05  3.51838225E-06
  1.99711726E-01  1.44322056E-01  3.45287970E-02 -5.94178731E-05 -2.23270291E-06
 -6.97940591E-01 -4.54316902E-01  7.86986802E-06  1.08505606E-01 -4.31915004E-02
 -4.00176107E-05 -3.51485732E-05  2.30135400E-02 -4.53290845E-01 -3.35986574E-04
  5.12181911E-04 -4.22259567E-04 -2.92419092E-04  2.44429713E-04  6.21351681E-04
  7.99042136E-02  9.78731324E-08 -1.01803713E-03 -2.32314807E-01 -1.81267399E-07
  2.77034556E-05 -4.59908091E-01  1.97197914E-07  1.13744980E-04  3.94045714E-08
  5.64298788E-06 -7.29703239E-04 -2.85154896E-01 -2.00937877E-04 -1.01923738E-07
 -2.27566739E-05  2.13593695E-03  9.16785720E-01 -8.78065625E-09  2.24846701E-04
  1.23728232E-01  6.90943014E-08  2.79009756E-05 -1.60361089E-03 -4.78265622E-01
  7.87963835E-04 -1.18565184E-03  7.57108151E-04  3.38869123E-04 -6.14363182E-06
  8.30729838E-01 -8.00197525E-05  1.72438189E-05 -7.26083328E-01  6.94359616E-05
 -1.50909492E-05 -1.83458644E-01  1.79213457E-05 -3.81127248E-06 -9.83547369E-05
 -6.96323259E-05 -7.11748902E-09  3.60582622E-01 -1.06765460E-03 -4.03676475E-05
  1.42790333E-04 -1.02924103E-08 -8.70366270E-02  2.58213766E-04  8.32573874E-06
  1.63576443E-01 -1.58612253E-05 -3.81514870E-06  3.77079318E-08  4.50499444E-04
  1.42963655E-03 -1.90460611E-01  2.90426725E-01 -2.39758454E-01 -1.66163257E-01
  1.38754334E-01 -9.31463546E-02  3.00853591E-01  4.89278881E-05  9.17816272E-02
 -4.60088998E-01 -9.48192207E-05  1.07876601E-01  3.88009600E-01  1.11987622E-04
  6.46456799E-02 -1.70824256E-05  2.27210443E-05 -7.22482250E-02  1.39607627E-01
 -1.14201792E-01  3.50800568E-05 -5.16430459E-05  1.68963255E-01 -2.74112904E-01
 -1.06829833E-05 -5.18671629E-02  3.50025895E-02 -7.45895163E-06 -1.19953006E-05
 -8.09954968E-02 -8.41258941E-02 -1.91070044E-01  2.91356024E-01 -2.40525646E-01
 -1.66694777E-01  1.39198291E-01 -9.41417724E-02 -3.01577054E-01  4.90826535E-05
  9.30830235E-02  4.61333162E-01 -9.51210640E-05  1.05621373E-01 -3.88424665E-01
  1.12308410E-04  6.48525990E-02 -1.71367219E-05 -2.27626761E-05 -7.20790154E-02
 -1.39200401E-01 -1.14567508E-01  3.51626922E-05  5.17514892E-05  1.67974545E-01
  2.72776020E-01 -1.07009361E-05 -5.17836469E-02 -3.51945280E-02 -7.52048920E-06
  1.19922584E-05 -8.07420493E-02  8.35401105E-02  3.81047610E-01 -5.81044706E-01
  4.79718011E-01  3.32407655E-01 -2.77491919E-01 -6.14307030E-01  8.00701895E-04
 -1.14630331E-04  8.88882663E-01 -1.34768157E-03  2.12192039E-04 -5.64152089E-01
  4.48239754E-04 -2.31569220E-04 -1.29529515E-01 -3.95129222E-05  4.77720907E-08
  1.69457843E-01 -4.81759855E-04  2.28997198E-01  9.27245119E-05 -1.25268446E-07
 -3.05817834E-01  1.24472329E-03  1.04166398E-05 -1.12730315E-01  2.12580449E-04
 -1.44597073E-05  6.55553447E-08  1.62058418E-01 -9.00966328E-04 -3.62864381E-06
  5.46171909E-06 -3.49411441E-06 -1.59192470E-06  3.45974677E-08 -7.52854767E-05
  8.18952248E-01 -1.89645510E-08  6.53667855E-05 -7.15239615E-01  1.66618042E-08
  1.68206349E-05 -1.80917610E-01  4.17645915E-09  4.64606451E-07 -8.65505454E-09
 -8.38949521E-05 -1.11851382E-03 -3.55632382E-01  1.78240768E-07 -9.43275408E-09
  1.45819824E-04  2.70525478E-04  8.61372090E-02 -9.18275780E-09 -1.49004491E-05
  1.61305667E-01  2.00423104E-09 -9.75128097E-07  7.17579794E-04  2.35602517E-01
  3.24917846E-01 -4.95535430E-01  4.09451123E-01  2.83832808E-01 -2.36761682E-01
  2.81466195E-01 -4.43480034E-01 -8.24551504E-05 -4.12184746E-01  6.38832684E-01
  1.59260438E-04  4.42616487E-01 -3.00873214E-01 -1.81356977E-04 -1.10693768E-01
  1.83622213E-05 -3.84479877E-05 -1.77044774E-01 -6.47706807E-02  1.95760406E-01
 -3.82727616E-05  8.56996871E-05  4.01369126E-01  6.95277800E-02  1.47671582E-05
  1.65498658E-02 -1.01681435E-01  1.84523769E-05  1.32398225E-05  1.38117624E-01
 -1.29528374E-01 -3.24500399E-01  4.94898771E-01 -4.08925190E-01 -2.83467985E-01
  2.36457212E-01 -2.82160331E-01 -4.42246578E-01  8.23462387E-05  4.13276921E-01
  6.36983904E-01 -1.59049516E-04 -4.43457795E-01 -2.99121090E-01  1.81107953E-04
  1.10552069E-01 -1.84027043E-05 -3.83602998E-05  1.76938040E-01 -6.51865621E-02
 -1.95510339E-01  3.83696574E-05  8.55073078E-05 -4.01452479E-01  7.05651112E-02
 -1.47436509E-05 -1.66435760E-02 -1.01570921E-01 -1.83817507E-05  1.32886100E-05
 -1.38730525E-01 -1.28865793E-01 -4.15225634E-04  6.33262915E-04 -5.23345624E-04
 -3.62703835E-04  3.02382821E-04  7.66840191E-04  9.49042268E-02  1.27121702E-07
 -1.18973104E-03 -2.16030456E-01 -2.35265714E-07  8.72637843E-04  2.53974410E-01
  2.56997705E-07  1.41804114E-04  4.61982378E-08  2.36262473E-06  2.73495984E-05
  1.04672433E-01 -2.51076197E-04 -1.13078152E-07 -9.98846389E-06 -8.90776101E-06
 -1.69440461E-01 -1.15748127E-08  1.13188105E-04 -1.01897963E-02  3.78315522E-08
  1.06943513E-05 -1.35794377E-04  1.38059630E-02  1.08663639E-07 -1.64742767E-07
  1.08013814E-07  4.24692859E-08 -3.34867272E-09  1.63439473E-04 -9.23003058E-08
  1.48277139E-04 -1.90803652E-04  1.06878343E-07 -2.34790033E-04  2.28164090E-05
 -1.19494665E-08 -1.13856453E-05  7.56904790E-06  2.11568763E-01 -1.16064417E-04
  5.01992619E-05 -1.28818666E-07 -2.30394299E-05 -6.42290318E-01  3.52577727E-04
 -5.68264851E-06  2.64465112E-08  8.54150160E-05  3.51578342E-05 -1.76030975E-08
 -7.19664667E-02  1.80338111E-04  1.89343584E-06  3.60647180E-10 -3.33425139E-05
  5.12167286E-05 -4.26444594E-05 -2.23951741E-05  3.26160872E-05  4.99374299E-06
  5.44496813E-05 -3.03075854E-01 -2.32245778E-05 -9.06948148E-05  5.51491054E-01
  4.07045997E-05  7.09469513E-05 -6.47427064E-01  1.72609638E-05  4.84705105E-02
 -9.16487644E-02 -1.36650794E-05  2.35995533E-05 -3.67743216E-05 -1.11841485E-01
  2.41655207E-01  2.93457369E-05 -4.77795635E-05  3.34876278E-02 -9.57901270E-06
  1.25187058E-05  4.56753059E-02  1.96978206E-02 -1.48519871E-05 -1.46743185E-05
 -3.33949545E-05  5.12972762E-05 -4.27114439E-05 -2.24299098E-05  3.26677963E-05
  4.84438932E-06 -5.45177937E-05 -3.03568812E-01 -2.29780610E-05  9.08267881E-05
  5.52388248E-01  4.05135494E-05 -7.10769252E-05 -6.48480174E-01  1.72885977E-05
  4.87433663E-02  9.16947734E-02 -1.37410813E-05 -2.35563800E-05 -3.68344780E-05
 -1.12560895E-01 -2.41793921E-01  2.94986176E-05  4.76826386E-05  3.35421951E-02
 -9.61651165E-06 -1.25229975E-05  4.56131565E-02 -1.99481786E-02 -1.47838772E-05
  1.47542152E-05  6.66797394E-05 -1.02424918E-04  8.52900127E-05  4.47713653E-05
 -6.52260420E-05 -1.08176963E-04  1.24676946E-07  6.06770001E-01  1.68233275E-04
 -2.02509818E-07 -1.10421551E+00 -1.22481418E-04  1.53779921E-07  1.29630674E+00
 -2.36070605E-05  2.07555828E-01 -2.13446539E-04  2.05755605E-05 -3.18273331E-08
  4.65026965E-05 -5.31218838E-01  5.53924071E-04 -3.59941658E-05  5.42282396E-08
 -6.71283592E-02 -2.39459118E-05  2.33854349E-08  8.00945197E-02 -1.79214549E-04
  2.53379761E-05 -7.20131195E-08 -4.56173207E-10  6.92026062E-10 -4.57532490E-10
 -1.91136189E-10  2.62383282E-11  8.84010361E-08  1.65555006E-04 -5.30064023E-07
 -1.03684976E-07 -1.92558021E-04  8.35202082E-07  1.28479144E-08  2.23480189E-05
  1.96726006E-07 -3.43561145E-09  1.16265615E-04  2.11473023E-01 -1.47077048E-07
 -5.99025658E-05  1.07023565E-08 -3.52841725E-04 -6.42183915E-01  6.94677957E-08
  3.25913966E-05 -3.60396913E-07  2.38582830E-08  4.03026240E-05  1.80410715E-04
  7.19983004E-02 -4.22314883E-10  2.35832424E-07  5.85015380E-05 -8.98669227E-05
  7.48746887E-05  3.94911777E-05 -5.70591169E-05  4.40303655E-05 -6.54650964E-05
  5.25585184E-01 -7.14296103E-05  9.49389265E-05 -9.56418310E-01  4.89826923E-05
 -5.52983373E-05  1.12293583E+00 -3.04925841E-05 -9.15730432E-02  1.54677477E-01
 -2.05089319E-05 -1.55783598E-05  6.60241519E-05  2.41472039E-01 -3.91872194E-01
  3.96489466E-05  3.01381905E-05 -5.81115912E-02  1.40979966E-05 -2.57206821E-05
 -2.00094300E-02 -6.85419476E-02  2.45599331E-05 -7.35778194E-06 -5.84686936E-05
  8.98164649E-05 -7.48326240E-05 -3.94686908E-05  5.70273205E-05 -4.41669271E-05
 -6.53216251E-05 -5.25300824E-01  7.16428523E-05  9.47042877E-05  9.55901191E-01
 -4.91335326E-05 -5.51285672E-05 -1.12232869E+00  3.04758208E-05  9.18422840E-02
  1.54405128E-01  2.04587727E-05 -1.56385453E-05 -6.59886622E-05 -2.42164272E-01
 -3.91153772E-01 -3.95549096E-05  3.02525914E-05  5.80804064E-02 -1.41409269E-05
 -2.56799203E-05  1.96875403E-02 -6.86044325E-02 -2.45899801E-05 -7.22209842E-06
 -3.26155556E-08  5.01045145E-08 -4.18066560E-08 -2.22663892E-08  3.15806334E-08
  8.39286562E-08  3.02968501E-05 -2.84834248E-04 -1.48126064E-07 -6.46545327E-05
  5.18377012E-04  1.28808718E-07  6.81814426E-05 -6.08776781E-04  1.16292611E-08
 -1.01912605E-04 -4.28894857E-03  4.10099357E-08  2.52613080E-05 -2.28604042E-08
  2.77415320E-04  2.72778001E-02 -8.69681980E-08 -5.17539009E-05  3.15746575E-05
  8.14185588E-09 -3.55076787E-06 -1.07278118E-04 -3.41699720E-02  3.86128031E-08
  1.67888168E-05  3.02860036E-01 -5.55417453E-01  9.45348698E-01  6.62689310E-01
 -4.78404884E-01 -5.98617788E-04  2.73232758E-06 -1.26692584E-04  3.84582134E-04
 -2.15258626E-06  2.95322956E-04 -3.91799080E-04  1.26623047E-06  3.09880626E-05
 -4.70836311E-01  1.68526601E-05 -1.70012008E-08 -3.28910846E-04 -3.78718017E-07
  1.05440674E+00 -3.76388119E-05  3.75499409E-08  5.17566331E-04 -4.43142341E-08
 -1.17008212E-04 -2.65786242E-05  2.38205749E-07 -7.30647193E-06  1.51013899E-08
 -2.90154791E-01  8.86423904E-04  1.98290705E-01 -3.59552373E-01  5.15642915E-01
  1.41348515E-01 -1.29626318E-01 -4.99635842E-02  8.68472730E-02  1.29029535E-05
  3.12782044E-01 -5.43152517E-01 -5.53068767E-06 -3.70930025E-01  6.44858982E-01
 -8.44196189E-05 -6.71308607E-02  2.37614693E-05 -4.64790819E-05 -1.31690206E-01
 -2.26889680E-01  7.06840038E-02 -5.57397615E-05  1.09972313E-04  2.46594896E-01
  4.24649092E-01  2.61766574E-05  1.33312053E-02 -2.31553691E-02  2.05231587E-05
  3.11124682E-05  1.32315982E-01 -4.24831292E-04  1.98291440E-01 -3.59553668E-01
  5.15644259E-01  1.41346302E-01 -1.29626896E-01 -5.01419415E-02 -8.67486748E-02
  1.29033286E-05  3.13890475E-01  5.42520587E-01 -5.53176314E-06 -3.72244296E-01
 -6.44107686E-01 -8.44192898E-05 -6.71306919E-02  2.38562315E-05  4.64307157E-05
 -1.30764688E-01  2.27423552E-01  7.06834241E-02 -5.59640625E-05 -1.09859003E-04
  2.44862407E-01 -4.25648097E-01  2.61766851E-05  1.33779814E-02  2.31274878E-02
  2.03962476E-05 -3.11958871E-05  1.32315059E-01 -3.83663578E-04  1.98517746E-01
 -3.59953588E-01  5.16081613E-01  1.40724293E-01 -1.29850856E-01  1.01210812E-01
 -1.03376211E-04  1.61356379E-05 -6.28656001E-01  6.40837687E-04 -2.53312019E-05
  7.45605425E-01 -7.60593347E-04 -6.11605672E-05 -6.70964612E-02 -4.04110905E-05
  4.10881521E-08  2.62182216E-01 -5.34107763E-04  7.05509496E-02  1.04198756E-04
 -1.05957197E-07 -4.90589562E-01  9.99514776E-04  2.41577724E-05 -2.65088841E-02
  2.69612890E-05 -3.08871929E-05  6.28632486E-08  1.32060371E-01 -4.03399106E-04
  1.51447885E-09 -2.80702696E-09  4.96547266E-09  3.46010545E-09 -2.48359168E-09
 -1.30689344E-07  1.95151428E-06 -4.20866855E-12  9.24784549E-07  1.79384718E-04
  1.91467241E-11 -4.42654265E-07 -2.83457754E-04 -2.35694990E-12 -2.42200114E-09
 -4.37127860E-11 -3.16694066E-09  3.34499429E-07 -1.96237395E-04  5.48794822E-09
  1.81726665E-10 -2.61582293E-08 -9.17215454E-07  2.36351807E-04 -3.86786780E-12
  1.70525664E-09  4.88631998E-05  2.08213060E-08  1.01669543E-05  1.22164919E-03
  3.99884843E-01  4.82768381E-05 -8.83175351E-05  1.40049665E-04  4.18306568E-05
 -1.51271682E-05 -3.86668089E-01 -2.22708179E-01 -8.01909179E-06  9.41206604E-01
  5.42021281E-01  1.95254870E-05 -1.06736364E+00 -6.14516873E-01 -2.21147046E-05
 -4.54578117E-05 -6.31029307E-07 -1.86465675E-06  6.27263022E-02 -3.64514708E-02
  1.06270575E-04  8.47428023E-06  5.98925830E-06 -4.67522143E-02  2.72917372E-02
 -9.13057926E-07 -1.79418106E-02 -1.03714652E-02  1.13054283E-05 -8.84737611E-06
 -3.09780416E-04 -1.16759293E-01 -4.82776635E-05  8.83227918E-05 -1.40098070E-04
 -4.21997955E-05  1.49808160E-05  3.86214158E-01 -2.23495847E-01  8.01903499E-06
 -9.40101851E-01  5.43938090E-01 -1.95253505E-05  1.06610957E+00 -6.16689591E-01
  2.21147005E-05  4.55601201E-05  6.27269247E-07 -1.86601281E-06 -6.28736426E-02
 -3.61954145E-02 -1.06508270E-04 -8.46210681E-06  6.00671144E-06  4.68617592E-02
  2.71005281E-02  9.13008573E-07  1.79206153E-02 -1.04081171E-02 -1.13414002E-05
 -8.80120532E-06 -4.03620840E-04 -1.16759086E-01  3.87904820E-09 -1.08426398E-08
  5.65880188E-08  3.71110956E-07  1.44373704E-07  4.54205568E-04  4.46329037E-01
  6.06061103E-11 -1.10592686E-03 -1.08632072E+00 -1.54682629E-10  1.25410619E-03
  1.23177516E+00 -1.00856623E-11 -1.03383152E-07  3.75414331E-09  3.73600023E-06
  1.47727206E-04  7.24870945E-02  2.38829977E-07 -1.20659701E-08 -1.20146236E-05
 -1.10315555E-04 -5.40913919E-02  4.19153409E-11  2.09653274E-05  2.07176402E-02
  1.77630156E-08  8.74604394E-06 -3.56573292E-04 -1.16718773E-01 -4.93201208E-06
  1.03824415E-05 -4.17390219E-05 -6.40863873E-05  8.18734968E-05  1.29009088E-05
 -1.13822223E-08 -6.49682901E-01 -3.95833797E-05  3.47762531E-08  1.99509131E+00
 -1.12403886E-05  1.58192511E-09  6.94064185E-01  9.77963408E-05 -1.37462583E-03
  5.85669516E-06  3.75328953E-07  2.45447399E-10 -3.62461721E-04  5.77842768E-03
 -2.43454525E-05 -1.96501282E-06 -1.35538199E-09 -7.49363783E-01  3.68706172E-05
 -3.34343801E-08  1.94818992E-03  1.86285165E-06  9.55775742E-05 -2.92141534E-07
 -2.40798430E-05  4.56056769E-05 -7.48616035E-05 -2.59343376E-05  9.78153574E-06
 -4.33504144E-06  2.39361191E-06  1.53703324E-01 -2.43094046E-05  5.57190755E-05
 -4.10195432E-01  5.70371277E-05 -8.43347827E-05 -5.42471188E-01  2.30347639E-05
  1.44596104E-01 -2.50345762E-01  1.94006757E-05  4.23171882E-05 -6.03091809E-05
 -4.48780921E-01  7.77401886E-01 -3.86775747E-05 -9.44238048E-05  1.92120450E-01
 -2.24406166E-05  3.54788255E-05  1.16398322E-01  2.01124484E-01 -2.68717404E-05
 -4.56811731E-06 -2.40859984E-05  4.56172087E-05 -7.48795663E-05 -2.59270697E-05
  9.78901270E-06 -4.33552147E-06 -2.37831148E-06  1.53711259E-01 -2.44343870E-05
 -5.56858669E-05 -4.10217301E-01  5.72159529E-05  8.42484199E-05 -5.42468981E-01
  2.30373455E-05  1.45109463E-01  2.50054899E-01  1.92316777E-05 -4.23968192E-05
 -6.03144954E-05 -4.50375444E-01 -7.76501252E-01 -3.83017688E-05  9.45812372E-05
  1.92124021E-01 -2.25125310E-05 -3.54333223E-05  1.15579915E-01 -2.01601686E-01
 -2.68439375E-05  4.73068713E-06 -2.57775979E-05  4.87863289E-05 -7.98194711E-05
 -2.39308392E-05  1.18476602E-05 -2.75494408E-06  2.09965482E-09  1.55865595E-01
  7.88584121E-05 -7.81197790E-08 -4.16177199E-01 -9.28468124E-05  1.03289946E-07
 -5.41939377E-01  8.07190337E-06 -2.90614820E-01  2.94742522E-04 -3.80301946E-05
  8.01775330E-08 -1.30957237E-05  9.02925389E-01 -9.16475707E-04  7.44662742E-05
 -1.59684783E-07  1.93127822E-01  1.57602297E-05 -1.64987033E-08 -2.33783554E-01
  4.75340271E-04 -1.81381236E-05  5.70878204E-08 -1.85427359E-04  3.62483523E-04
 -7.82374107E-04 -4.99529393E-04  3.86390930E-04  1.77252287E-01 -2.09479394E-04
  7.22914873E-07 -4.47195979E-01  5.28552113E-04  2.36425220E-07 -8.10670792E-01
  9.57628307E-04 -1.32266180E-05  3.47185338E-04  1.14149934E-04 -1.33764659E-07
 -4.84741232E-02  9.02011943E-05 -8.74791456E-04 -6.13492601E-04  7.21235027E-07
  3.85779689E-01 -7.21629902E-04  9.19959264E-06  2.52054567E-01 -2.97846177E-04
 -2.59168513E-04  4.90290316E-07  2.40276029E-04  1.08827143E-06 -1.59767799E-01
  3.03009561E-01 -4.94102466E-01  1.83186128E-01  1.92038650E-01  4.54468331E-02
 -1.79437908E-01  7.87150939E-05 -1.22389716E-01  5.15189858E-01 -2.31710818E-04
  8.91080398E-01 -3.24334301E-01  1.31634176E-05  5.22635992E-02 -1.08059503E-05
 -6.47109820E-05 -1.29980636E-01  1.49915228E-01 -9.07308812E-02 -7.75490379E-06
  2.31663798E-04  4.14042286E-01 -3.76143770E-01  4.73967636E-05 -1.92440730E-02
 -2.32541683E-02  5.51797031E-05  3.85123915E-05 -1.33050850E-02 -1.06607749E-01
 -1.59678045E-01  3.02839339E-01 -4.93825004E-01  1.83082840E-01  1.91930719E-01
  4.57539987E-02  1.79262741E-01  7.86729203E-05 -1.23272194E-01 -5.14706260E-01
 -2.31586179E-04  8.91633215E-01  3.22107989E-01  1.31630406E-05  5.22342495E-02
 -1.06945089E-05  6.47116998E-05 -1.30638722E-01 -1.49370538E-01 -9.06800874E-02
 -8.15340493E-06 -2.31558313E-04  4.15691853E-01  3.74447172E-01  4.73708428E-05
 -1.92041487E-02  2.32904692E-02  5.50105297E-05 -3.87052823E-05 -1.26461055E-02
  1.06706094E-01  3.18962510E-01 -6.04923892E-01  9.86411151E-01 -3.66492077E-01
 -3.83655792E-01  3.56271877E-01 -3.52761312E-04 -1.45931493E-04 -1.01359393E+00
  1.00205890E-03  4.31054305E-04  1.44957036E+00 -1.59078684E-03  3.27012041E-05
 -1.04273031E-01  1.13651019E-04 -1.09477032E-07  1.28283629E-01 -2.96967730E-04
  1.81160243E-01 -4.32855205E-04  4.24638168E-07 -2.34089727E-01  5.81256336E-04
 -9.28836082E-05  2.11332762E-02 -1.60243072E-05  1.21649909E-04 -2.43598488E-07
  2.56391933E-02 -9.91098547E-05  5.49897637E-07 -1.07282758E-06  2.27280638E-06
  1.26144204E-06 -1.13434217E-06  2.09357130E-04  1.77370890E-01  9.39923032E-09
 -5.28329323E-04 -4.47651093E-01 -2.99205783E-08 -9.57340461E-04 -8.10707939E-01
 -1.34598942E-08 -8.87409499E-07  1.37642995E-07  1.15598302E-04  9.22047411E-05
  4.88648435E-02  2.20968333E-06 -7.44197633E-07 -6.27156245E-04 -7.25837108E-04
 -3.86645775E-01  1.28379027E-08  2.97652903E-04  2.52146603E-01  4.48868051E-07
  2.41985956E-04  4.19426647E-07  4.14128858E-04  2.76277806E-01 -5.23976418E-01
  8.54400522E-01 -3.17357590E-01 -3.32277350E-01 -1.79167481E-01  2.52774865E-01
 -1.36627069E-04  5.14037784E-01 -7.16967561E-01  4.02579789E-04 -3.20970266E-01
  1.26415107E+00 -2.00674142E-06 -9.03263678E-02 -6.62012348E-05  6.90147411E-05
 -1.49740096E-01 -4.17924084E-02  1.56830306E-01  2.36772143E-04 -2.88614209E-04
  3.75638029E-01  1.68817609E-02 -8.31259141E-05 -2.33696266E-02  7.73189440E-03
 -3.83226706E-05 -1.01408945E-04  2.21332964E-02 -6.18571513E-02 -2.76329106E-01
  5.24073695E-01 -8.54559215E-01  3.17417818E-01  3.32339313E-01  1.79697440E-01
  2.52467872E-01  1.36649496E-04 -5.15537475E-01 -7.16085005E-01 -4.02646110E-04
  3.23833420E-01  1.26359710E+00  2.02802746E-06  9.03429635E-02  6.63338853E-05
  6.88947264E-05  1.49525743E-01 -4.24492935E-02 -1.56859491E-01 -2.37348801E-04
 -2.88187114E-04 -3.75430503E-01  1.85309663E-02  8.31361820E-05  2.33791032E-02
  7.69182113E-03  3.79245225E-05 -1.01571279E-04 -2.25142749E-02 -6.16862909E-02
  5.24061904E-05 -9.93999418E-05  1.62140600E-04 -5.93468284E-05 -6.28981729E-05
 -1.39797800E-06 -5.81990265E-02 -2.73386105E-08  1.22705889E-05  1.75042228E-01
  8.01983317E-08  9.54510826E-04  7.04221904E-01  1.36133099E-08 -1.72203398E-05
 -1.76911308E-08 -4.06688683E-05  4.63006174E-04  2.16791109E-01  2.98731977E-05
  1.93362556E-08  1.04889208E-04 -1.32579485E-03 -6.31710612E-01 -1.86830555E-08
 -2.99985559E-05 -3.26523740E-02 -3.09344182E-08 -2.70781250E-05  3.80692148E-04
  1.23147814E-01  3.61492335E-08 -6.99166236E-08  5.54279397E-08 -2.94473505E-08
 -1.69247604E-07  6.94835896E-05  7.80406480E-08  1.68588179E-03 -7.33093401E-05
 -8.27521164E-08 -6.26873313E-03 -2.30389201E-04 -2.58522507E-07 -3.02799371E-03
 -1.46035935E-05 -4.02452739E-01 -4.50836961E-04  5.03826488E-05 -1.74643767E-07
  7.66946200E-05  2.11683923E+00  2.37207443E-03 -8.20438878E-05  1.54592683E-07
  2.49168487E-03 -1.68881572E-05 -1.19294150E-07  7.18210738E-01 -2.99941037E-03
 -1.83294482E-05  9.52055160E-08 -6.83588981E-05  1.34586305E-04 -2.47926301E-04
  8.35751819E-05  7.52895805E-05  2.90628491E-05 -4.70307092E-05 -2.25704145E-01
 -1.20168613E-04  1.87729336E-04  6.94061870E-01  2.80099927E-04 -1.41933872E-04
 -3.87157880E-03  8.61946447E-06  7.57820194E-03  1.99209736E-01 -2.78558234E-05
  3.63950735E-05  1.53333412E-05  8.86624385E-02 -7.09005844E-01  8.33882323E-05
 -5.80243706E-05 -1.31103948E-01  8.94718304E-06 -2.29253099E-05 -1.53194644E-01
 -1.16740037E-01  5.55400321E-06 -4.88750475E-06 -6.88671652E-05  1.35586992E-04
 -2.49769783E-04  8.41963758E-05  7.58498173E-05  2.93952791E-05  4.73087567E-05
 -2.27379505E-01 -1.21464042E-04 -1.88867452E-04  6.99213452E-01  2.81000552E-04
  1.43267357E-04 -3.91543858E-03  8.65129607E-06  6.32018416E-03 -2.00174991E-01
 -2.78125741E-05 -3.63438510E-05  1.55311529E-05  9.31410152E-02  7.12702019E-01
  8.32491135E-05  5.75992233E-05 -1.32074634E-01  9.10841732E-06  2.30726451E-05
 -1.53216034E-01  1.18596073E-01  5.60838097E-06  4.80260212E-06  1.37121986E-04
 -2.69969100E-04  4.97358084E-04 -1.67537429E-04 -1.51168896E-04  9.66663578E-05
 -1.04300524E-07  4.51784192E-01 -4.03143720E-04  4.15795793E-07 -1.38906373E+00
  5.27006458E-04 -1.13093420E-07  1.38610841E-02 -2.89415797E-05 -3.36403199E-01
  6.03984331E-04  4.95833012E-05  2.85029328E-09  2.32945122E-05  1.31338201E+00
 -2.02078492E-03 -6.82062881E-05 -1.18814901E-07  2.61373615E-01  1.52600733E-05
 -1.74522421E-08 -3.54777534E-01  9.05101433E-04  5.81261634E-06 -3.03287369E-09
 -1.72836977E-10  3.32979372E-10 -2.22986838E-10  1.57081751E-10  8.55589520E-10
 -7.74991289E-08  6.94083917E-05 -8.86330322E-06  8.08760669E-08 -7.30687193E-05
  3.32339127E-05  2.56648156E-07 -2.29500487E-04  1.62349297E-05  3.16940514E-08
  4.50844454E-04 -4.02158260E-01 -1.76661339E-07 -3.37536551E-05 -1.66276099E-07
 -2.37294044E-03  2.11735225E+00  1.65885377E-07 -5.30670421E-06 -1.32062338E-05
 -2.81013960E-08 -6.41708407E-05 -3.00072804E-03 -7.18720312E-01  9.53548770E-08
  1.82854178E-05  1.18611727E-04 -2.33560741E-04  4.30476064E-04 -1.45027616E-04
 -1.30693621E-04 -5.49821571E-05  7.87045388E-05  3.92073116E-01  2.12438293E-04
 -3.23247920E-04 -1.20607412E+00 -1.42462909E-04  4.44061027E-04  1.01335003E-02
 -7.35111837E-06  1.98705258E-01 -2.22955038E-01 -4.45046268E-05 -1.44879367E-05
 -4.65007902E-05 -7.07839979E-01  9.09891217E-01  8.68187288E-05 -2.00826334E-05
  2.27259141E-01 -2.66981517E-05  3.88196507E-05  1.17985703E-01  2.88106154E-01
 -5.86097852E-06 -1.17562742E-05 -1.18318868E-04  2.32984068E-04 -4.29413319E-04
  1.44669237E-04  1.30371413E-04  5.50171714E-05  7.83915021E-05 -3.91101448E-01
 -2.12578450E-04 -3.22011540E-04  1.20308437E+00  1.42171296E-04  4.43162579E-04
 -1.01302036E-02  7.31473098E-06 -1.99185024E-01 -2.21691193E-01  4.45639552E-05
 -1.45148337E-05  4.64328776E-05  7.09289660E-01  9.05390664E-01 -8.72546837E-05
 -1.99721649E-05 -2.26692212E-01  2.67378117E-05  3.86661540E-05 -1.16154390E-01
  2.88075300E-01  5.76460390E-06 -1.18118086E-05 -2.92353740E-07  5.75680588E-07
 -1.06111138E-06  3.57267419E-07  3.22305351E-07 -2.08249737E-07 -2.66534837E-06
 -9.64944613E-04  8.61295758E-07  2.21185623E-06  2.96773769E-03 -9.22216061E-07
  1.97194063E-04 -3.58820402E-05  6.16291848E-08  8.41279248E-04  1.22177141E-01
 -7.45690355E-09  4.82900034E-05 -4.94677622E-08 -3.12623840E-03 -3.19372608E-01
 -9.82224126E-08 -1.19726809E-04 -5.57338150E-04 -3.32589921E-08 -8.53047856E-07
  9.30465036E-04  8.52744794E-02  8.05916409E-09  6.73658092E-06  5.78710793E-01
 -1.16787073E+00  1.95095722E+00  8.67835203E-02 -5.41967959E-01 -6.85733914E-04
  2.99418046E-06 -2.86027162E-05  6.22644598E-04 -2.83315802E-06 -4.34428990E-05
 -7.02251082E-05  3.62198903E-07 -1.35541078E-04 -2.92950412E-01  1.06332301E-05
 -1.12343011E-08 -2.05594132E-04 -3.60061476E-07 -2.05009608E-01  6.86564266E-06
 -5.36493813E-09 -4.51728614E-05 -4.01345016E-07  2.86283305E-05 -1.21565520E-04
  5.10381638E-07  7.08859117E-06 -1.49088943E-08  2.84690328E-01 -8.69730749E-04
 -1.38901845E-01  2.76314683E-01 -4.58070469E-01  3.43580426E-01 -2.52628710E-01
  1.68376045E-01 -2.92080779E-01  3.27926171E-05 -5.01344401E-01  8.69776391E-01
 -9.12483468E-05  2.07753394E-01 -3.60497460E-01  1.07387105E-04 -5.87137427E-02
  2.04904671E-06 -3.89230927E-06 -5.50237759E-02 -9.50236448E-02  2.61352479E-01
 -1.50671835E-05  2.68770889E-05  2.35394924E-01  4.06337064E-01  1.92610200E-05
  7.28907785E-02 -1.26488326E-01  1.34980614E-05  2.21138957E-05  2.14370467E-01
 -5.49891749E-04 -1.38901442E-01  2.76313882E-01 -4.58069174E-01  3.43579622E-01
 -2.52628962E-01  1.68970592E-01  2.91736500E-01  3.27920282E-05 -5.03114611E-01
 -8.68751147E-01 -9.12464767E-05  2.08486691E-01  3.60072177E-01  1.07386964E-04
 -5.87136901E-02  2.05668787E-06  3.88779742E-06 -5.46359406E-02  9.52470013E-02
  2.61351890E-01 -1.51208302E-05 -2.68449159E-05  2.33736446E-01 -4.07291802E-01
  1.92606328E-05  7.31480319E-02  1.26339104E-01  1.34076407E-05 -2.21681931E-05
  2.14368837E-01 -7.60141515E-04 -1.38844745E-01  2.76201624E-01 -4.57914032E-01
  3.43451569E-01 -2.52660470E-01 -3.37014661E-01  3.42795376E-04  2.21576775E-05
  1.00353175E+00 -1.02090687E-03 -5.95541350E-05 -4.15865884E-01  4.23201429E-04
  9.44283932E-05 -5.86906068E-02  2.29499983E-06 -2.24891735E-09  1.09758138E-01
 -2.23257936E-04  2.61192267E-01  1.67656087E-06 -1.94096786E-09 -4.69261238E-01
  9.54891504E-04  8.04788940E-06 -1.45852026E-01  1.48453629E-04 -1.04297895E-05
  2.13092384E-08  2.14127215E-01 -6.53927668E-04  6.27882216E-05 -1.40629578E-04
  3.28189019E-04 -1.57912842E-04  2.18958407E-04 -1.05997989E-05  1.15726286E-08
  5.01163079E-01  3.38487880E-05 -4.41592188E-08 -1.50916614E+00 -6.51552366E-05
  6.10671661E-08  3.21186166E+00 -2.69974409E-06 -2.92271087E-05  1.43276899E-07
  1.95347352E-06  3.38069328E-09 -6.07050622E-05  6.71349703E-04 -3.00100163E-06
 -9.15404098E-06 -1.57746428E-08  1.54162922E-01 -8.29374927E-06  1.02460186E-08
  2.92872511E-04  5.04189635E-07 -5.21220526E-06  1.58950877E-08  7.84912441E-06
 -1.76638870E-05  5.48516566E-05 -5.54302033E-05 -3.58505524E-05  1.87479728E-05
 -2.14235794E-05 -2.46214712E-01 -6.32887343E-05  7.46833498E-05  7.47411313E-01
  3.86493676E-05 -1.53668931E-05 -1.46784554E+00 -5.06610421E-06  1.37074075E-02
 -2.37137982E-02 -6.59400117E-06 -1.23226345E-05  3.47352170E-05  9.12046393E-03
 -1.60542154E-02  2.51806504E-05  5.21563775E-05 -7.93901689E-02  1.91781947E-05
 -3.03579680E-05 -4.02784921E-02 -6.94076299E-02  2.20265034E-05  2.72371683E-06
  7.85391448E-06 -1.76746419E-05  5.48803903E-05 -5.54434331E-05 -3.58502522E-05
  1.87974691E-05  2.13857338E-05 -2.46213830E-01 -6.34521636E-05 -7.45381422E-05
  7.47407884E-01  3.86753185E-05  1.52836610E-05 -1.46784408E+00 -5.06811996E-06
  1.37560546E-02  2.36862325E-02 -6.54063917E-06  1.23524320E-05  3.47396524E-05
  9.15137245E-03  1.60332572E-02  2.49523320E-05 -5.22665963E-05 -7.93895070E-02
  1.92424126E-05  3.03208639E-05 -3.99950783E-02  6.95703417E-02  2.20090478E-05
 -2.86269019E-06  8.95582486E-06 -2.01485865E-05  6.14883193E-05 -5.85037862E-05
 -3.57871288E-05 -2.10251563E-05  1.64768922E-08 -2.46010272E-01  7.11771948E-05
 -5.44102063E-08  7.46605669E-01  1.45318736E-05 -1.25146302E-08 -1.46757462E+00
 -7.01266904E-06 -2.75334924E-02  2.79114446E-05  1.50699587E-05 -2.64645951E-08
  3.47965989E-05 -1.77184372E-02  1.83977639E-05 -5.70026600E-05  9.84249700E-08
 -7.92261848E-02 -2.65875846E-05  2.59753856E-08  8.00410609E-02 -1.63092782E-04
  1.88769501E-05 -5.32020541E-08  1.11826936E-07 -2.94274691E-07  1.11056010E-06
  1.74941303E-06 -2.93454200E-06  5.35389505E-06 -5.03666527E-02  9.07217425E-09
 -8.71993988E-05  7.97528955E-01 -4.31577224E-08 -4.78812928E-05  4.39510036E-01
  3.96506163E-08 -5.63289834E-07 -3.25463589E-08  3.15739983E-05 -1.96753623E-03
 -6.21576335E-01  1.19554324E-06  1.62978050E-07 -2.48698832E-04  9.16454263E-03
  2.89551561E+00  1.02357222E-08  1.42991755E-05 -1.30800007E-01 -3.27026631E-08
 -7.29880729E-06 -3.05206947E-06 -7.54973717E-04  1.96820164E-01 -4.42797266E-01
  1.18984233E+00 -5.48835235E-01  2.12253857E-02  2.49487892E-01 -2.16485166E-02
 -3.60152208E-05 -4.93094455E-01 -6.56669811E-01  1.78019904E-04 -2.11970763E-01
  1.73593743E-01 -2.44851060E-05 -8.70014664E-02 -4.11208052E-06  2.29556905E-05
  1.29201608E-01 -1.28862901E-01  2.01581117E-01  2.98298948E-05 -1.19979929E-04
 -6.50474008E-01  3.50610596E-01 -2.42279811E-07  1.06431107E-01 -9.35417916E-02
 -1.86405643E-05 -6.67370108E-06 -1.04570247E-02  1.85872779E-01 -1.96564365E-01
  4.42221747E-01 -1.18829502E+00  5.48126248E-01 -2.11996353E-02 -2.50133384E-01
 -2.05752235E-02  3.59413196E-05  4.94523589E-01 -6.58790594E-01 -1.77693328E-04
  2.12485146E-01  1.72683047E-01  2.44168750E-05  8.68879981E-02  4.11827377E-06
  2.29194480E-05 -1.30354787E-01 -1.28626600E-01 -2.01317507E-01 -2.98762523E-05
 -1.19773231E-04  6.54389213E-01  3.49422878E-01  2.28968538E-07 -1.06687781E-01
 -9.30839403E-02  1.86198307E-05 -6.70321975E-06  1.15808499E-02  1.86532647E-01
 -2.56480987E-04  5.77005584E-04 -1.55021205E-03  7.17022767E-04 -2.83658219E-05
  6.05076397E-04  4.11317938E-01  5.36377146E-08 -1.11866275E-03 -1.51171030E+00
 -2.24512495E-07 -5.31795733E-04 -1.94433654E-01 -3.55112495E-09  1.13220559E-04
 -3.99676620E-08  1.08286538E-06 -7.80425908E-04 -3.53424094E-01 -2.62136043E-04
  1.75779263E-07 -8.76651523E-06  2.98179270E-03  1.47893628E+00  1.49595023E-08
  2.67320660E-04  9.11013945E-02 -3.25556399E-08 -1.21735354E-06 -1.12174801E-03
 -3.71873264E-01 -3.39657096E-05  6.83002118E-05 -5.05254628E-05  3.55086664E-04
 -6.69436014E-04  5.05750066E-02  5.74661340E-06  2.67173120E-06 -7.97188997E-01
 -8.81817972E-05 -2.15525207E-05 -4.42497443E-01 -4.91204206E-05  1.05599314E-06
 -4.80335484E-05 -5.73622648E-05  2.27464077E-08 -6.21007342E-01  1.96522134E-03
  1.94049385E-04  3.68607249E-04 -9.51402752E-08  2.89614029E+00 -9.16595641E-03
  7.22101646E-06  1.31029285E-01  1.44958653E-05 -1.60385581E-05  4.12213616E-08
 -3.13434711E-04  4.73515669E-06  1.13253266E-01 -2.54819930E-01  6.84892059E-01
 -3.16146020E-01  1.24699242E-02 -2.67700682E-01 -2.49419204E-01 -3.00412424E-05
  1.22866878E+00  4.93131454E-01  1.36235082E-04  7.37568015E-02  2.11977970E-01
 -1.47266113E-05 -4.99885499E-02 -1.80725565E-05  1.25318828E-05 -2.78486719E-01
  1.30537561E-01  1.15748401E-01  8.73658715E-05 -6.41494959E-05  1.10271667E+00
 -6.55253556E-01 -5.02682610E-06 -2.99219197E-02 -1.06313782E-01  3.31952230E-06
 -1.97670625E-05 -7.38422314E-03 -3.22461625E-01  1.13697117E-01 -2.55818575E-01
  6.87575743E-01 -3.17387379E-01  1.25197444E-02 -2.66628072E-01  2.50010147E-01
 -3.01223130E-05  1.22654580E+00 -4.94144121E-01  1.36635826E-04  7.28454354E-02
 -2.12515026E-01 -1.47819724E-05 -5.01842584E-02 -1.81073033E-05 -1.25467538E-05
 -2.78722038E-01 -1.29112404E-01  1.16201204E-01  8.75635014E-05  6.42416291E-05
  1.10389794E+00  6.49969365E-01 -5.02730196E-06 -2.94645881E-02  1.06584173E-01
  3.35788827E-06  1.97683884E-05 -5.44058527E-03  3.22079050E-01 -2.27187202E-01
  5.11159717E-01 -1.37367570E+00  6.35697707E-01 -2.55539168E-02  1.65078460E-01
 -6.31728660E-04  5.01228921E-05  3.73099673E-01  1.32416839E-03 -2.06858600E-04
 -2.94566974E-01  5.21499598E-04  1.24666606E-05  1.00163218E-01 -3.60991677E-05
  3.55319632E-08 -5.35861084E-02  5.07925169E-04 -2.31793256E-01  1.63862105E-04
 -1.56990941E-07 -2.75317157E-02 -1.61197795E-03  1.40934476E-05  1.54606980E-01
 -2.60060418E-04 -2.74967887E-05  5.74322008E-08  1.28769013E-02  3.79518825E-04
  4.91340436E-08 -8.19349675E-08 -6.16204155E-07 -2.91000305E-06  3.29717518E-06
 -2.25814680E-04  3.39410822E-01 -1.18173496E-08  1.56889505E-03 -2.35744725E+00
  8.22892198E-08 -1.95056887E-03  2.93264585E+00 -1.02705531E-07  4.22612156E-07
 -1.64307354E-09  3.11092654E-05  1.01570766E-03  2.72957554E-01 -1.30072705E-06
 -1.92378890E-08 -2.02866264E-05 -1.74254015E-03 -4.68013933E-01 -1.14011259E-08
 -8.91254477E-05  1.33811596E-01  6.16115974E-08  1.25834852E-05  9.88598825E-07
  2.59055215E-04  1.61165299E-01 -3.73333118E-01  1.05610080E+00 -1.63604662E+00
  5.65437570E-01 -1.51486479E-01  3.01170525E-02 -2.29189639E-05  6.01481212E-01
 -2.12561673E-01  8.61076880E-05 -2.35620013E-01 -8.70763098E-01 -8.10382827E-05
  1.25643357E-01 -1.04711198E-05  7.81725850E-06  4.70234698E-02  1.00959292E-01
 -4.49619816E-01  4.89071790E-05 -4.66857501E-05 -1.35943623E-01 -4.81191570E-01
 -1.80973213E-05 -6.52550674E-02  6.72524884E-02 -4.11405023E-07 -2.23231135E-05
 -3.96644301E-02 -7.72127445E-02 -1.60851724E-01  3.72606728E-01 -1.05404584E+00
  1.63286413E+00 -5.64338684E-01  1.52037034E-01  2.92971546E-02  2.28907503E-05
 -6.03542722E-01 -2.09306062E-01 -8.59985936E-05  2.37698041E-01 -8.72039652E-01
  8.09705537E-05 -1.25399361E-01  1.04893052E-05  7.76925824E-06 -4.64536419E-02
  1.00992388E-01  4.48746469E-01 -4.90086019E-05 -4.64566327E-05  1.32885048E-01
 -4.81286373E-01  1.80700368E-05  6.54198404E-02  6.68995135E-02  2.62254819E-07
 -2.23237428E-05  3.91139996E-02 -7.79056085E-02 -3.12686554E-04  7.24321089E-04
 -2.04888641E-03  3.17501263E-03 -1.09775747E-03 -4.35024226E-04 -2.33000090E-01
  3.43177943E-08  1.78800818E-03  8.31909029E-01 -1.23471849E-07 -6.75536443E-05
 -1.28042300E+00  1.73712084E-07 -2.44082167E-04 -9.10735222E-09 -5.90276836E-06
  2.56250616E-04  2.00230389E-02  8.73337822E-04  6.55483043E-08  1.99113465E-05
 -1.44609916E-03 -2.48062432E-01  1.97431578E-08 -2.23460874E-04 -4.60309024E-02
 -4.48894360E-08 -1.01250790E-05  5.49889283E-04  1.54900037E-01  1.49093894E-05
 -4.09972114E-05  2.81259550E-04  3.65338293E-04 -4.91902934E-04  3.39696340E-01
  2.25989840E-04  7.03151943E-06 -2.35882799E+00 -1.56880400E-03 -4.88871619E-05
  2.93193347E+00  1.95108756E-03  6.08120153E-05 -8.01842969E-05  1.97429574E-05
  3.22149742E-08 -2.73320742E-01  1.01661377E-03  2.25019959E-04 -5.14957317E-07
 -3.32342670E-08  4.70612751E-01 -1.74943539E-03  6.79615753E-06  1.34025583E-01
  8.90643982E-05 -2.13789261E-05  6.47543914E-08 -8.31301141E-05  1.91012492E-06
 -9.26561227E-02  2.14635321E-01 -6.07181172E-01  9.41114862E-01 -3.25311308E-01
 -1.46102357E-01 -1.51753143E-01  8.32906831E-06  4.87261388E-01  6.02065252E-01
 -3.21614486E-05 -1.14465929E+00 -2.36522194E-01  2.00496046E-05 -7.22992096E-02
 -7.26432584E-07 -7.88935394E-06 -4.73065643E-02 -4.63545366E-02  2.58682058E-01
  2.15937390E-06  3.82706824E-05  3.27120166E-01  1.32408299E-01  8.06714620E-06
 -8.55296916E-03 -6.52900554E-02  1.72912309E-05  1.30521717E-07  2.22797525E-02
 -1.34736333E-01 -9.31978753E-02  2.15890276E-01 -6.10731302E-01  9.46617497E-01
 -3.27213935E-01 -1.45280941E-01  1.52149852E-01  8.40611320E-06  4.84001760E-01
 -6.03762114E-01 -3.24507514E-05 -1.14338020E+00  2.35917415E-01  2.03223054E-05
 -7.27220644E-02 -6.75045082E-07  7.91696688E-06 -4.72736988E-02  4.68875562E-02
  2.60194944E-01  1.91641298E-06 -3.84312764E-05  3.27024714E-01 -1.35362580E-01
  8.12802679E-06 -8.19935078E-03  6.55330841E-02  1.72914173E-05 -2.76140556E-07
  2.32344033E-02  1.34335012E-01  1.85712549E-01 -4.30196636E-01  1.21694980E+00
 -1.88657510E+00  6.52363021E-01  1.17531369E-01 -5.12326070E-04 -2.03379109E-05
 -5.58524382E-01  1.97074900E-03  7.31476813E-05 -7.34600398E-01 -1.40701125E-03
 -1.03071311E-04  1.45024324E-01  1.81974552E-06 -1.17835086E-08 -1.28030193E-01
  2.94894074E-04 -5.18842904E-01 -2.67798233E-05  6.07688601E-08  5.58867802E-01
 -1.55740044E-03 -1.17118748E-05  1.04947738E-01 -1.84414898E-04  1.43906094E-05
 -4.63302682E-08 -4.55104052E-02  3.99989662E-04 -2.77753969E-01  6.56510002E-01
 -1.81521572E+00  2.30003560E+00 -1.98688280E+00  1.40195341E-04 -5.73257109E-07
  3.77292441E-05  6.38365426E-04 -3.21827100E-06 -7.05500062E-05 -3.18609026E-04
  2.71849430E-06  3.63328324E-04 -1.83263175E-02  6.66338538E-07 -6.19711829E-10
  3.85499493E-04  4.01510122E-07  4.83163035E-01 -1.74389821E-05  1.77235152E-08
 -1.43184350E-03 -6.68232925E-07 -4.42928426E-06 -9.04655356E-06 -1.74502827E-08
 -2.39999075E-07  6.39900045E-10 -1.11434313E-02  3.40429543E-05 -1.84251930E-01
  4.35809789E-01 -1.40512188E+00  1.99462469E+00 -3.92435980E-01 -5.32586077E-02
  9.27785554E-02 -2.43773017E-05  1.68538948E-01 -2.93908254E-01  8.15813421E-05
 -6.68919008E-02  1.16336751E-01 -1.67617243E-04  1.51199522E-02  2.31864382E-06
 -5.39535648E-06 -6.14133827E-03 -1.08003715E-02 -8.10802928E-02  4.76047102E-07
  3.95508380E-06 -3.23173185E-03 -4.49275310E-03 -1.62796106E-05 -4.03506097E-02
  7.01139206E-02 -6.22446855E-06 -1.31338980E-05 -4.91844744E-02  2.91688489E-04
 -1.84251995E-01  4.35809925E-01 -1.40512210E+00  1.99462774E+00 -3.92437525E-01
 -5.34465979E-02 -9.26694585E-02 -2.43772299E-05  1.69134909E-01  2.93564692E-01
  8.15811719E-05 -6.71283621E-02 -1.16201620E-01 -1.67616944E-04  1.51194446E-02
  2.32968374E-06  5.39064611E-06 -6.09726128E-03  1.08257979E-02 -8.10785778E-02
  4.67753791E-07 -3.95617268E-06 -3.21403169E-03  4.50392562E-03 -1.62794685E-05
 -4.04928164E-02 -7.00309454E-02 -6.17088974E-06  1.31589935E-05 -4.91848526E-02
  8.36525219E-06 -1.84207713E-01  4.35700121E-01 -1.40473445E+00  1.99491402E+00
 -3.92578570E-01  1.06754050E-01 -1.09236088E-04 -2.10583403E-05 -3.38712724E-01
  3.47050163E-04  7.10915879E-05  1.34264406E-01 -1.37693357E-04 -1.63397381E-04
  1.50086804E-02 -6.25295267E-06  6.34743811E-09  1.25066392E-02 -2.51941210E-05
 -8.07148942E-02  7.69810050E-06 -7.77353433E-09  5.29075146E-03 -1.22934757E-05
 -1.01046331E-05  8.06807435E-02 -8.22744035E-05  8.62451573E-06 -1.75792349E-08
 -4.90786205E-02  1.50400845E-04  2.59574216E-02 -7.48507450E-02  1.21840167E+00
 -3.65436592E+00  1.28792739E+01  4.13243721E-04 -2.04885826E-06 -2.62068598E-05
 -2.99454585E-03  1.59095776E-05  1.69790081E-04  4.39784809E-03 -2.18922244E-05
 -7.40260837E-04  2.59869223E-01 -9.31372317E-06  9.42785253E-09  7.76813325E-05
 -2.91561644E-08  7.56151664E-02 -2.74050063E-06  2.41486877E-09 -2.27882662E-03
 -3.21634537E-06 -3.61876222E-05  3.01433446E-04 -1.63822679E-06 -8.29125859E-06
  1.71118163E-08 -3.28213539E-01  1.00269451E-03 -9.28135577E-02  2.50757416E-01
 -1.40006821E+00  3.54632347E+00 -5.91037517E+00 -5.77223857E-02  1.00309756E-01
  6.95186850E-06  3.96550966E-01 -6.89105619E-01 -9.38666707E-06 -1.01686289E+00
  1.76339623E+00  9.93861574E-05  3.11412109E-02 -5.43428245E-06  4.77050300E-06
 -3.82487388E-02 -6.61274858E-02 -2.16377553E-01  2.28692922E-05 -2.73581500E-05
 -1.50260912E-02 -2.50110372E-02  1.74032572E-06 -2.83786738E-02  4.92562525E-02
 -9.57569323E-07 -2.47950487E-06 -5.42836425E-02  2.04615113E-04 -9.28141850E-02
  2.50759136E-01 -1.40007937E+00  3.54635587E+00 -5.91040456E+00 -5.79271873E-02
 -1.00193292E-01  6.95169275E-06  3.97959803E-01  6.88309334E-01 -9.38549389E-06
 -1.02046010E+00 -1.76132813E+00  9.93848823E-05  3.11410881E-02 -5.44394059E-06
 -4.75947370E-06 -3.79786897E-02  6.62825872E-02 -2.16379345E-01  2.29250605E-05
  2.73121304E-05 -1.49277213E-02  2.50755498E-02  1.74019987E-06 -2.84792502E-02
 -4.91988339E-02 -9.47570577E-07  2.48351722E-06 -5.42849430E-02  1.26936277E-04
 -9.29504075E-02  2.51132304E-01 -1.40249452E+00  3.55353780E+00 -5.91708253E+00
  1.16024884E-01 -1.18265410E-04  1.05174817E-05 -7.98102116E-01  8.13786674E-04
 -3.39224668E-05  2.03786683E+00 -2.07169519E-03  1.62512544E-04  3.10984656E-02
  7.55527591E-06 -7.74105368E-09  7.63206219E-02 -1.55190110E-04 -2.16698535E-01
 -2.26656045E-05  2.32304420E-08  3.02251980E-02 -6.29588172E-05  6.05262394E-06
  5.69539934E-02 -5.79650300E-05 -2.21230250E-06  4.48739702E-09 -5.45250564E-02
  1.66700972E-04  8.32027553E-05 -2.98316059E-04  9.74332442E-03 -2.93342614E-02
 -4.36411443E-03  3.41409058E-01  6.04964770E-04  7.00935634E-06 -6.01339541E+00
 -1.06815150E-02 -1.23721055E-04 -1.10560111E+01 -1.97555314E-02 -2.29042263E-04
  2.93937696E-04 -2.83188376E-05 -4.96560671E-08 -8.67277891E-03  4.20817389E-05
  6.91494088E-03  3.25249498E-04  9.51728270E-07 -3.20893936E+00  1.55002692E-02
  2.61221076E-05  5.19389773E-01  9.21959737E-04  7.11422570E-05 -4.39020610E-07
 -2.99450927E-03  8.86982773E-06 -2.73491886E-02  6.97972207E-02 -5.31905185E-02
 -6.21733432E-02 -7.01744535E+00  1.21584230E-01 -1.38510563E-01 -5.93285154E-07
 -1.18320376E+00  1.43564770E+00 -5.44316444E-05  4.40097993E-01  2.85087802E+00
 -1.80573933E-04 -3.97473025E-02 -2.78176891E-06 -1.20257979E-05 -1.02285829E-01
 -4.54584209E-02  4.21447904E-01 -3.18199943E-05  6.55979730E-05  4.68771104E-01
  6.80102047E-01  4.93851616E-06  6.06920035E-02 -3.70578701E-02 -9.86276628E-06
  1.32543479E-05  1.13761047E-01  4.20334938E-02 -2.76161143E-02  7.04783803E-02
 -5.37065539E-02 -6.27635938E-02 -7.08600405E+00  1.22650283E-01  1.39850675E-01
 -6.07439635E-07 -1.19423884E+00 -1.44924018E+00 -5.48915342E-05  4.18218858E-01
 -2.86788157E+00 -1.82758976E-04 -4.01376584E-02 -2.68600657E-06  1.21099655E-05
 -1.02355898E-01  4.67475945E-02  4.25573544E-01 -3.23136803E-05 -6.61638017E-05
  4.69820176E-01 -6.89084433E-01  4.96767562E-06  6.09789630E-02  3.75196155E-02
 -9.83408002E-06 -1.32408341E-05  1.14611818E-01 -4.25949349E-02  5.45279303E-02
 -1.39029935E-01  9.59243900E-02  1.51021675E-01  1.41139966E+01  3.65922916E-01
 -2.55943369E-04  1.37288084E-05 -3.70930148E+00  2.78415020E-03 -1.57858125E-05
 -4.52986976E+00  1.04482552E-02  2.87341996E-04  8.05071879E-02  1.05897576E-05
 -3.02602552E-08 -1.82529297E-01  5.84614167E-04 -8.53586685E-01 -5.19113233E-05
  5.82492776E-08  1.66353901E+00 -3.60020466E-03  2.54847531E-06  1.27126630E-01
 -1.93154594E-05 -1.59757687E-06  4.39157357E-08 -2.29800718E-01  5.65555591E-04
 -5.10875378E-07  1.85211321E-06 -6.25764278E-05  1.89106466E-04  2.82421536E-05
 -6.08508682E-04  3.38264733E-01 -1.93106012E-08  1.07273909E-02 -5.97792263E+00
  3.42449439E-07  1.97453124E-02 -1.10690604E+01  6.42100899E-07 -1.88071571E-06
  5.10000151E-08 -2.80335147E-05  4.24878305E-05  8.79894505E-03 -4.47910061E-05
 -4.44825405E-07  4.56808745E-04  1.54586303E-02  3.18699288E+00 -7.20774256E-08
 -9.26286977E-04  5.15828375E-01 -4.11587788E-07 -1.04583536E-04  1.90460518E-05
 -1.09456770E-04  4.79059633E-02 -1.22307744E-01  9.72786404E-02  8.98700764E-02
  1.22539281E+01 -1.39258876E-01  2.83128334E-01  2.59226501E-06  1.44055304E+00
 -2.85297647E+00  8.16010361E-05  2.86034205E+00 -2.88879644E+00  3.90430675E-04
  6.97574975E-02 -1.26939554E-05  1.40368186E-05  4.64083166E-02  1.55468829E-01
 -7.35490321E-01  6.40308463E-05 -1.12442823E-04 -6.85960096E-01 -1.25881413E+00
 -5.16866203E-06 -3.75454530E-02  1.04325924E-01 -1.46574584E-05 -4.69629906E-06
 -1.97369952E-01  2.47244176E-02 -4.77500348E-02  1.21909296E-01 -9.69353073E-02
 -8.96350434E-02 -1.22143869E+01  1.39154795E-01  2.82072162E-01 -2.58831422E-06
 -1.43973362E+00 -2.84202456E+00 -8.12996500E-05 -2.86861931E+00 -2.86693432E+00
 -3.89411911E-04 -6.95348082E-02  1.27381284E-05  1.39433378E-05 -4.52015433E-02
  1.55398658E-01  7.33135855E-01 -6.40824363E-05 -1.11945880E-04  6.78214202E-01
 -1.25778412E+00  5.14158279E-06  3.74191067E-02  1.04044910E-01  1.46938084E-05
 -4.68263117E-06  1.96883477E-01  2.37566525E-02 -1.53056656E-04  3.90274549E-04
 -2.71669477E-04 -4.06116575E-04 -3.96083145E-02 -9.84319529E-04  4.15192017E-02
 -3.85490989E-08  1.00376768E-02 -3.53241770E-01  4.44716635E-08  1.48346742E-02
  2.08265073E+00 -8.06270422E-07 -2.26509344E-04 -3.68240316E-08 -6.99162826E-06
  6.66458470E-04  7.60780869E-02  2.39638903E-03  1.47756544E-07  2.07857583E-06
 -4.81946794E-03 -7.67079610E-02 -7.10186352E-09 -3.17552670E-04  3.92741766E-02
  3.39523496E-08  1.44664541E-05  4.95402740E-04 -4.85590259E-02  2.25302885E-04
 -8.09424494E-04  2.77537665E-02 -8.87665674E-02 -3.73869087E-02  8.90620535E-01
  6.55348841E-04  1.82810261E-05 -1.19971922E+01 -8.82929938E-03 -2.45825911E-04
  4.31806548E+00  3.15613064E-03  9.09613968E-05  6.80526418E-04  3.70930001E-05
  3.08687286E-08 -4.93975070E-02  1.87291571E-04  2.03397372E-02  2.84850420E-04
  7.22541836E-07 -7.03061705E+00  2.66543024E-02  5.55362161E-05  1.10836105E+00
  8.15657096E-04  1.49283423E-04 -6.93800212E-07 -8.39968334E-03  2.52607941E-05
  8.03282541E-02 -2.26431505E-01  1.91502352E+00 -6.27142566E+00  2.16587399E+00
  2.06046705E-01 -2.33190153E-01  2.60745657E-05 -2.45133286E+00  2.96766927E+00
 -2.45889630E-04 -4.54805606E-01 -9.08876146E-01  5.69961408E-05  1.75311806E-02
  2.68443528E-05  8.60661678E-06  4.39733961E-02 -1.06000314E-01  5.71260943E-01
 -1.67240666E-04  7.54979984E-05  1.22365019E-01  1.49915579E+00  1.72535863E-05
  6.09237482E-02 -9.20683686E-02 -3.53897931E-06  3.83767426E-05  2.57566768E-01
  7.64480106E-02  8.08193991E-02 -2.27816164E-01  1.92674664E+00 -6.30977408E+00
  2.17889620E+00  2.07351360E-01  2.34455199E-01  2.62253018E-05 -2.46789946E+00
 -2.98346028E+00 -2.47302374E-04 -4.49794073E-01  9.11840914E-01  5.74641445E-05
  1.76349248E-02  2.67776576E-05 -8.60582035E-06  4.40321193E-02  1.06099042E-01
  5.74780473E-01 -1.67570652E-04 -7.60024965E-05  1.21541803E-01 -1.50621471E+00
  1.73575789E-05  6.14404760E-02  9.25406657E-02 -3.54843180E-06 -3.84859788E-05
  2.58672302E-01 -7.78692987E-02 -1.62069162E-01  4.56927259E-01 -3.86901677E+00
  1.26476166E+01 -4.27848014E+00  6.19406369E-01 -5.05046821E-04 -3.12569337E-05
 -7.67861223E+00  6.52032857E-03  2.35183122E-04  1.09762726E+00 -2.82902785E-03
 -1.09985168E-04 -3.37181705E-02  6.26751146E-06  4.72205828E-08 -1.40971173E-01
  1.02698947E-04 -1.16414170E+00 -1.30378601E-04 -5.67680140E-08  2.75003072E+00
 -4.29456428E-03 -1.74488831E-05  2.25831849E-01 -2.16051853E-04  2.97585158E-05
 -1.69454930E-08 -5.20306662E-01  1.43337263E-03  1.17066274E-06 -4.27307019E-06
  1.54310967E-04 -4.98012399E-04 -2.09648693E-04  6.54704126E-04 -8.91345288E-01
  3.13756029E-08 -8.83234425E-03  1.20265707E+01 -4.20686595E-07  3.16525777E-03
 -4.28079813E+00  1.64176015E-07  4.05895162E-06  2.50247587E-08 -3.91269925E-05
 -1.89264837E-04 -4.99533162E-02  1.13476601E-04 -9.09561444E-08 -5.79046884E-04
 -2.66939060E-02 -7.04472334E+00  9.46308580E-08  8.15546091E-04 -1.11043961E+00
  7.14659443E-07  2.22588742E-04 -4.64519218E-05  2.11768517E-04  1.40046695E-01
 -3.94869403E-01  3.34652309E+00 -1.09525640E+01  3.68727777E+00  2.36416874E-01
 -4.82034814E-01  4.30225528E-05 -3.00019702E+00  5.94949420E+00 -4.03737712E-04
  8.91647607E-01 -5.78099291E-01  1.32601504E-04  2.95261314E-02 -1.39591844E-05
 -1.57890110E-05 -1.06590731E-01 -7.95457066E-02  1.00670874E+00 -5.03893073E-05
  2.41608269E-04  1.51651615E+00  1.87468251E+00  2.96973767E-05  9.37243194E-02
 -1.70726245E-01  4.20672886E-05  3.52509600E-05  4.50467158E-01 -4.57679126E-02
 -1.39766737E-01  3.94080376E-01 -3.33985515E+00  1.09306586E+01 -3.67954875E+00
 -2.36681303E-01 -4.80749004E-01 -4.29319780E-05  3.00374104E+00  5.93306962E+00
  4.02881670E-04 -8.94367456E-01 -5.73053051E-01 -1.32400470E-04 -2.94608926E-02
  1.40206654E-05 -1.58480017E-05  1.06421724E-01 -7.96101713E-02 -1.00474137E+00
  5.02977830E-05  2.41246159E-04 -1.50847775E+00  1.87562197E+00 -2.96382817E-05
 -9.38624647E-02 -1.70221904E-01 -4.19369496E-05  3.52886111E-05 -4.49843323E-01
 -4.32886438E-02 -2.85069142E-04  8.03900069E-04 -6.81990527E-03  2.22762127E-02
 -7.35619228E-03  1.02432548E-03 -7.18045217E-02 -5.50158036E-08 -1.28163351E-02
  7.42175325E-01  4.14885998E-07  2.85853268E-03  9.70800121E-01 -1.91802709E-07
 -5.70665536E-05 -2.00036524E-08 -3.05621839E-05 -3.56387437E-05  1.04985232E-01
 -2.06899921E-03 -1.20601361E-07  1.08135558E-04  3.34593229E-03 -7.45122288E-01
 -3.09520572E-08  3.94468879E-04 -8.06264468E-03  1.69967101E-09 -2.49576997E-05
 -6.45850978E-04  8.92608179E-02 -1.44950730E-02  7.57317281E-02 -5.50394658E+00
  1.93873809E+01  6.06528592E+00  4.78305494E-03 -2.32113781E-05  3.32900738E-05
 -7.71027190E-02  3.70490753E-04 -6.61640953E-04  2.25530115E-03 -1.39343719E-05
 -2.17326341E-04 -2.29471319E-01  8.39952426E-06 -9.28130190E-09 -7.03012765E-04
 -9.30837045E-07 -4.23846526E+00  1.54443917E-04 -1.72391615E-07 -4.21511923E-02
 -7.92952005E-05  1.57033739E-04  6.78678229E-03 -3.26253169E-05  4.47004363E-05
 -8.58536171E-08  1.72537334E+00 -5.27102119E-03  6.76867417E-02 -1.96173221E-01
  1.98787699E+00 -5.32057923E+00 -3.82176391E+00  2.56758520E-01 -4.45096909E-01
  2.90408015E-05 -2.36892204E+00  4.10544827E+00 -2.77922894E-04 -8.10209687E-01
  1.40404508E+00 -5.68709731E-05 -9.44522097E-02  8.00252343E-06 -1.01797188E-05
 -3.37597031E-02 -5.88399161E-02  1.26033553E+00 -1.18725769E-04  1.88994497E-04
  8.69880542E-01  1.50570522E+00  4.39830222E-05  1.63472781E-01 -2.83603049E-01
  1.92905868E-05  4.02911138E-05  2.69374277E-01 -3.90573887E-04  6.76820350E-02
 -1.96159745E-01  1.98774451E+00 -5.32012255E+00 -3.82174109E+00  2.57653623E-01
  4.44551127E-01  2.90391607E-05 -2.37713228E+00 -4.10032984E+00 -2.77904771E-04
 -8.13064094E-01 -1.40237503E+00 -5.68709751E-05 -9.44529442E-02  8.02367463E-06
  1.01626651E-05 -3.35154430E-02  5.89725764E-02  1.26028439E+00 -1.19107367E-04
 -1.88740882E-04  8.63670830E-01 -1.50914284E+00  4.39818053E-05  1.64045934E-01
  2.83261691E-01  1.91244450E-05 -4.03678911E-05  2.69351257E-01 -1.25706022E-03
  6.66242900E-02 -1.93130549E-01  1.95788552E+00 -5.21739178E+00 -3.81519104E+00
 -5.08282473E-01  5.16027684E-04  1.28577786E-05  4.66725290E+00 -4.73651860E-03
 -1.28584385E-04  1.61688445E+00 -1.64101739E-03 -6.50146458E-06 -9.46118854E-02
 -5.54970596E-06  5.08475977E-09  6.64970370E-02 -1.33871902E-04  1.24866991E+00
  9.98317227E-05 -9.95066938E-08 -1.71277710E+00  3.47469955E-03  1.89158618E-05
 -3.25305316E-01  3.30905410E-04 -1.79424602E-05  3.59415510E-08  2.64784625E-01
 -8.07089631E-04
Total SCF Density                          R   N=        7750
  4.22522109E-01  6.08473168E-01  8.90910754E-01 -4.85445554E-02 -1.34478090E-01
  2.90216843E-01 -8.81920913E-02 -1.93721392E-01  3.03800131E-01  3.44748030E-01
 -4.25510182E-03 -1.42744488E-02  3.64986924E-02  3.66887557E-02  4.79554594E-03
 -1.51069398E-06 -3.20508198E-06 -6.36664996E-07  7.37044982E-05  7.73775720E-05
  2.65785232E-01  6.61983720E-09  1.38944027E-08  1.67031404E-09 -3.16916043E-07
 -3.40584862E-07 -3.31987102E-09  2.65800081E-01 -7.84476958E-07 -1.75937781E-06
  2.82364731E-06  5.40765066E-06  1.30930970E-05  2.74696725E-07 -2.87935676E-10
  2.52653846E-01 -1.83779781E-05 -3.11910769E-05  1.97535573E-05  6.30137294E-05
  5.50309041E-05  1.72263130E-01  5.11409834E-08 -7.12568062E-07  1.14063299E-01
  7.75661723E-08  1.31769503E-07 -8.36487728E-08 -2.70855447E-07 -2.38876516E-07
  4.72860077E-08  1.72228074E-01  7.14646497E-10  6.01518188E-08  1.14015516E-01
 -1.32658717E-06 -2.80051788E-06  4.05255423E-06  5.83993926E-06  1.09562354E-05
 -7.13418266E-07  7.30677364E-10  2.06652779E-01 -1.14045634E-06  1.15795042E-09
  1.69027196E-01 -4.90942575E-07 -2.74590570E-06  1.05988856E-05  3.87521789E-06
 -1.54452910E-05 -1.29632439E-02  3.02080206E-08 -2.12176635E-06 -8.22391066E-03
  6.65905445E-09 -1.68531037E-06  1.98335358E-02  1.04045026E-08  3.09202589E-08
 -7.23706245E-08 -6.65514738E-08  6.77579373E-08  2.78512386E-08 -1.29758273E-02
  2.15108109E-09  2.59655843E-08 -8.22617817E-03  1.70563488E-09 -3.69114815E-08
  1.98471530E-02 -1.13110368E-06 -2.56558469E-06  4.23859572E-06  5.45857088E-06
  5.01735396E-06 -2.11964585E-06  2.16088939E-09  8.92463334E-02 -1.68439906E-06
  1.71241118E-09  7.29971199E-02 -2.40251570E-07  2.27288827E-10  3.15249870E-02
  1.02877596E-03  2.99158058E-03 -6.77913648E-03 -6.02597284E-03 -8.88565829E-04
  4.15773610E-06 -1.80909690E-08 -4.08686865E-07  2.04217176E-06 -8.89821646E-09
 -3.94102864E-07 -4.26073904E-07  2.45364846E-09 -2.15349028E-07  2.12194466E-04
 -3.69363259E-08 -1.07476377E-07  2.43749850E-07  2.16220544E-07  3.11359945E-08
 -9.33304561E-07 -4.30760433E-10 -5.28699538E-06 -5.48563802E-07 -2.44828989E-10
 -3.98136238E-06  8.87362872E-07  1.87439178E-10 -2.79509603E-07  1.19045736E-08
  5.43503982E-04  3.76724802E-11  1.09860233E-10 -2.49768086E-10 -2.20497393E-10
 -2.75834226E-11 -4.30741626E-10 -1.35731109E-06  2.27080879E-08 -2.44783026E-10
 -7.88797625E-07  1.70538179E-08  1.93041895E-10  1.07581032E-06 -2.37198819E-11
 -1.21330054E-11 -4.65459486E-10  5.43990546E-04  2.60326690E-07  1.12767129E-06
 -3.88842078E-06  7.55738965E-07  4.39567129E-06  1.02092967E-02 -3.12306828E-05
  2.12081077E-07  5.79286582E-03 -1.77102948E-05  1.20276237E-07 -4.54189430E-03
  1.38827829E-05 -9.41767580E-08  2.55303881E-07 -3.34760800E-08  1.84243007E-10
  1.51086780E-03  4.13765756E-10  2.02692840E-09 -5.50454296E-09 -4.89899331E-09
  7.45753897E-09 -3.11820017E-05 -1.02210304E-02 -4.30555063E-10 -1.76923896E-05
 -5.79762773E-03 -2.44388421E-10  1.38713349E-05  4.54302579E-03  1.91672605E-10
  3.61444676E-10  1.43025998E-10  7.36421479E-08  5.00428781E-10  1.51107423E-03
 -8.95313238E-04 -1.01501653E-03 -1.08242024E-03  1.64249203E-04 -1.33348308E-04
 -3.52209098E-07 -5.72275934E-11 -1.43781921E-06 -2.86928518E-07  1.32609517E-09
 -1.20152590E-06  9.21984385E-07  3.32242444E-09 -5.15965265E-07  9.68294289E-05
  5.16015774E-08 -5.28796789E-11 -2.41457825E-07  1.60761525E-09  1.18425329E-04
  3.25057460E-08  3.69698967E-08  3.88562431E-08 -6.24791413E-09  3.85535190E-09
  4.46748297E-07 -2.22295195E-10 -7.02430789E-06  4.06691778E-07 -8.33855692E-11
 -4.77850812E-06  2.19620294E-06  4.18449263E-10  1.99502078E-06  5.16179077E-08
  1.53199799E-03 -8.11837137E-10  6.94654513E-08 -1.60276384E-10  1.50945798E-07
  4.31830875E-03 -3.50685402E-11 -4.04663653E-11 -3.94320449E-11  5.78799913E-12
  2.34412403E-12 -2.24210754E-10  2.28236911E-07  2.50694575E-08 -8.40734530E-11
  3.25329343E-07  1.62233322E-08  4.35464309E-10  2.61605507E-06 -1.38103216E-08
 -5.28394030E-11 -6.53925811E-10  1.53275042E-03 -1.08809521E-10 -1.85243228E-08
 -1.54442260E-10 -4.35142762E-10  4.31868515E-03 -5.86212055E-06 -7.98655757E-06
 -2.21119274E-06  2.55918238E-06  6.41649950E-06  5.26878842E-03 -1.60824086E-05
  1.10002682E-07  1.96976018E-03 -5.99082359E-06  4.13676043E-08 -1.01488921E-02
  3.10333357E-05 -2.10187454E-07  8.57862774E-08  4.50591658E-08 -3.41168420E-11
  2.76189957E-03 -1.51187583E-09 -6.17950440E-07  2.89980167E-07 -7.39029899E-10
  6.07520415E-03 -6.21354156E-09 -8.15389677E-09 -3.79783345E-10 -7.50128858E-09
  1.23346678E-08 -1.61122962E-05 -5.26774750E-03 -2.17746766E-10 -6.02102991E-06
 -1.96621606E-03 -7.89000343E-11  3.10017747E-05  1.01515256E-02  4.30796442E-10
  5.81423523E-11 -8.56709451E-11  5.82632651E-09 -6.79720996E-09  2.76084114E-03
  3.52152024E-09 -8.11516734E-10 -2.17345961E-07 -5.04782959E-09  6.07327454E-03
 -9.75856277E-09 -1.02791305E-07  3.92171448E-07  3.56151935E-07 -1.97576344E-07
 -7.85880836E-08  8.00318325E-11 -4.87140162E-03 -3.28326810E-08  3.34196279E-11
 -3.98445817E-03  4.24939862E-08 -4.32735802E-11 -1.72075246E-03 -3.04272326E-09
  1.07738174E-07 -4.53859248E-10 -6.98142352E-09  1.41569228E-11  2.47250301E-08
  1.51782001E-07 -5.28508970E-10 -3.70141966E-09  7.38366707E-12  9.39251642E-05
  8.63076946E-07  1.07437630E-06  7.12134650E-07 -1.18190895E-07 -8.73958517E-07
 -3.53541327E-03  1.61386121E-11  1.74247375E-07 -2.27357857E-03 -6.80774302E-10
  1.55352206E-07  1.33438947E-04 -1.00251688E-09  9.01550266E-08 -6.02347735E-08
 -1.43256432E-08 -9.75684189E-12 -1.37377484E-04  4.19447936E-07  1.38224974E-08
 -8.12628218E-08 -4.07684130E-11 -7.29529408E-05  2.22775602E-07 -2.30142422E-09
  4.86519987E-05 -3.68977676E-09 -4.66513959E-09 -2.71356898E-09  7.62684036E-10
  3.94242358E-09  4.01089246E-10 -3.53596850E-03 -1.77666268E-10 -2.80280409E-10
 -2.27339742E-03 -1.58428846E-10 -7.18463781E-11  1.33618015E-04 -9.14764642E-11
  2.48950155E-10 -9.72968896E-12 -2.39511377E-08  4.20092039E-07  1.37526608E-04
 -5.14127474E-11 -4.07317011E-11 -1.21411662E-07  2.22260779E-07  7.28986586E-05
  2.34816889E-12 -6.26136139E-13  4.86610699E-05 -2.13762266E-08 -7.26224317E-08
  1.86785130E-07  1.88793687E-07  2.31175199E-08 -1.38750299E-07  8.96429290E-10
 -1.19338520E-06 -4.70836197E-08  4.46987325E-10 -8.28840959E-07  5.69735824E-07
 -1.76045195E-09  2.60223650E-07  3.67698464E-09  2.33329106E-04 -7.13535496E-07
 -5.22767566E-08  1.35760655E-12  2.23745770E-08  6.57694796E-04 -2.01017898E-06
 -8.88568742E-08  4.60854952E-11  2.54996003E-08 -9.90116605E-09  3.71862054E-11
  1.00170350E-04  4.39786295E-11  1.48303695E-10 -3.79359800E-10 -3.83814819E-10
 -4.87823375E-11  6.60092492E-10  3.70739005E-07 -3.30765189E-09  2.95702763E-10
  1.96123275E-07 -2.50296267E-09 -1.75040096E-09 -5.78523717E-07  2.02117168E-10
 -7.48718389E-12 -7.12747434E-07 -2.33529071E-04  1.44863348E-12 -5.16027084E-08
 -4.54415461E-11 -2.00926651E-06 -6.57992654E-04  4.61380028E-11 -6.62862861E-08
  6.30461961E-11  3.36868711E-11  1.32915425E-08  2.40832980E-10  1.00252360E-04
 -8.45573954E-04 -2.86386017E-03  7.34835598E-03  7.43483406E-03  9.22730399E-04
 -1.10974812E-06  4.75069211E-09  1.52895768E-09 -2.04794995E-07  1.31781385E-10
  4.86823357E-08  3.72474799E-07 -5.25361294E-09  8.18311124E-08 -1.85356011E-04
  7.32522833E-10  1.73251768E-11 -1.43663936E-07 -1.43122011E-09 -5.02433295E-05
 -1.49305137E-08  6.63483475E-11 -7.71763062E-08 -1.63676818E-09  1.15725415E-08
  2.92281374E-08 -9.76387881E-11  2.29993829E-09  1.69211406E-11  1.90708823E-04
  2.58288845E-06  8.74828210E-06 -2.24466050E-05 -2.27156691E-05 -2.81762628E-06
 -1.95984316E-09 -4.46291459E-07 -4.50449859E-12 -3.33156394E-09 -4.91923330E-07
 -1.48364013E-10 -4.58003648E-09 -7.40481066E-07 -2.50440077E-10  5.66156299E-07
  3.84379908E-12  5.92707824E-09  5.33946117E-10 -3.25449929E-07  1.54815523E-07
  6.26007100E-11  1.67093966E-08  1.10808152E-09 -3.76061150E-07 -3.53673598E-11
 -1.30568296E-11  1.19076794E-08  7.31587679E-12  7.06585921E-09  5.72319547E-07
  3.78132347E-04  9.35442681E-04  1.84757729E-03 -4.92722683E-03  1.98663415E-02
 -5.63059047E-03  6.07375882E-03 -1.05430173E-02  8.10392813E-07 -3.27004289E-03
  5.67876187E-03 -1.37617692E-07  4.72166693E-03 -8.19344299E-03  5.86545823E-07
  4.77603587E-04 -5.96389132E-08  1.35916881E-07  8.66092969E-04  1.49340344E-03
 -1.00327529E-03  7.31381637E-08 -1.10476421E-07 -6.43441770E-04 -1.11065956E-03
  3.10963912E-08  1.01892816E-04 -1.76765875E-04 -4.54330659E-09 -1.40209045E-09
  1.16539024E-04 -5.74653391E-07  4.01175640E-01  1.90671662E-03  3.75430355E-03
 -8.60428187E-03  3.90504820E-02 -8.91375608E-03  1.38991393E-02 -2.41263631E-02
  1.87446133E-06 -4.00805188E-03  6.96241846E-03  7.25485318E-08  7.54922030E-03
 -1.30978302E-02  1.11748863E-06  1.28790331E-03 -1.60662938E-07  3.52773856E-07
  2.14788190E-03  3.70348439E-03 -7.68155327E-04  2.60963462E-08  2.44848399E-08
  3.02710838E-04  5.19928725E-04  2.29884703E-08  3.94640580E-05 -6.82791023E-05
 -3.67412171E-08 -5.90825051E-08  3.96969988E-06 -5.00565987E-07  6.09713876E-01
  9.43440251E-01 -1.00811789E-05 -1.23012892E-04  6.51894124E-04 -4.26362159E-02
  1.53783637E-03 -1.73799522E-02  3.01665319E-02 -2.54118277E-06 -2.12448605E-03
  3.68134563E-03 -1.03945856E-06 -1.90201993E-03  3.29115479E-03 -9.90851691E-07
 -2.21194144E-03  2.83139416E-07 -5.98907967E-07 -3.41760712E-03 -5.89245852E-03
 -2.91188480E-03  3.50650658E-07 -7.97813750E-07 -5.16540080E-03 -8.90554937E-03
  8.41108933E-08  4.24005074E-04 -7.36273507E-04  1.21706772E-07  2.32896388E-07
  5.72125697E-04 -1.08041989E-06 -4.59355870E-02 -1.37137821E-01  2.75422117E-01
 -2.95682049E-03 -3.83376233E-03 -8.43604246E-04 -6.12476558E-02  2.65966260E-03
 -1.95210288E-02  3.38816889E-02 -3.28053360E-06  4.51684888E-04 -7.91935057E-04
 -1.22050405E-06 -4.51346830E-03  7.82449486E-03 -1.41468027E-06 -2.89446154E-03
  3.13726761E-07 -6.65656949E-07 -4.19856198E-03 -7.23840100E-03 -3.58300475E-03
  3.22403237E-07 -7.63024994E-07 -5.93911194E-03 -1.02382520E-02  9.49843422E-08
  4.75841838E-04 -8.26370884E-04  1.23417775E-07  2.38217921E-07  6.53888746E-04
 -1.06969995E-06 -1.33550728E-01 -2.89717057E-01  3.63488456E-01  4.93739354E-01
  1.31757014E-02  3.16216234E-02 -5.70215337E-02 -9.36432367E-02 -5.84066350E-03
  6.11131118E-03 -1.06382301E-02  1.37073095E-07  1.07388182E-02 -1.86681926E-02
  5.00904731E-07  5.48329339E-03 -9.53257708E-03 -6.75758061E-07 -3.34199959E-04
  4.51220392E-07 -1.00586840E-06 -3.39548859E-03 -5.85244163E-03 -1.93577032E-03
  1.22207519E-06 -2.52586817E-06 -7.33786357E-03 -1.26505619E-02 -7.33510050E-08
  3.12946364E-05 -5.43779004E-05  2.78296977E-07  5.28603493E-07 -1.03400504E-03
  4.58868696E-06 -3.81303391E-02 -1.03847438E-01  1.90399683E-01  2.52458399E-01
  1.61437820E-01 -1.46857899E-02 -3.36426262E-02  5.66883047E-02  6.70811769E-02
  6.73403159E-03 -2.81273728E-02  1.04031224E-01 -8.37716835E-06 -1.33345850E-02
  7.28151181E-02 -6.44000335E-06  6.00957323E-02  1.39060872E-02 -8.32327984E-07
 -9.71398284E-04  2.48431258E-07 -9.11784457E-07 -1.48054706E-02  1.82168689E-03
  2.41253033E-04 -2.78890779E-07 -1.36006920E-06 -3.30334689E-02  1.09939731E-02
  2.48270022E-07  2.67744445E-04 -1.35546676E-03  7.44696287E-07 -1.16939717E-08
  1.32643331E-03 -7.22167674E-03  8.12283963E-03  1.85193803E-02 -2.79688276E-02
 -4.25554786E-02 -3.60019193E-02  4.13224768E-01  2.54896475E-02  5.83921261E-02
 -9.83826079E-02 -1.16461159E-01 -1.17397552E-02  1.04021379E-01 -1.48809557E-01
  1.14673498E-05  7.28121148E-02 -9.77852891E-02  8.75892334E-06  1.38940007E-02
  4.39923783E-02  2.40605084E-06  1.68593947E-03 -8.10868795E-07  1.47826907E-06
 -1.73849988E-03  1.27588283E-02 -4.13063557E-04 -1.13495822E-06  1.53044280E-06
 -1.08296463E-02  2.04617393E-02 -3.95043651E-07 -1.35527903E-03  1.83973188E-03
 -4.58605916E-08 -8.59941909E-07 -2.35279240E-03 -4.15167661E-03 -1.40993122E-02
 -3.21449546E-02  4.85459065E-02  7.38733603E-02  6.24585954E-02  8.52575682E-02
  3.14365939E-01 -2.26943957E-06 -5.18789799E-06  8.70083510E-06  1.03965890E-05
  6.99133431E-06 -8.66519778E-06  1.19694446E-05  1.17157174E-01 -6.54705325E-06
  8.94743687E-06  9.58220375E-02 -9.82306310E-06  1.80104104E-05  4.13648367E-02
 -5.93504009E-07 -6.53277383E-03  1.13450637E-02 -5.01773991E-07 -7.66998467E-07
 -1.35143820E-06 -1.84105484E-02  3.19658818E-02 -1.42850667E-06 -2.37623100E-06
 -2.25896950E-03  5.19821270E-07 -1.04174454E-06 -2.81893197E-03 -4.86174008E-03
  2.58005862E-07 -2.66929263E-08  1.31738824E-06  3.06495751E-06 -4.99735277E-06
 -4.83390133E-06 -2.39402633E-05 -4.45012838E-06  1.10699147E-05  3.69393398E-01
 -1.21015215E-02 -2.65882332E-02  4.17609620E-02  4.83720651E-02  5.05406075E-03
 -1.98490959E-02  8.18465842E-02 -6.53636917E-06 -8.70813570E-03  5.68491131E-02
 -5.01005939E-06  4.70774551E-02  1.16938096E-02 -6.97106164E-07 -7.60746519E-04
  2.11501901E-07 -7.30594018E-07 -1.16364107E-02  1.45409829E-03  1.43091834E-04
 -1.50132602E-07 -1.10165134E-06 -2.60527109E-02  8.81230913E-03  1.88975415E-07
  1.81134913E-04 -1.06861688E-03  5.94644031E-07 -1.37900647E-08  9.80750440E-04
 -5.91489359E-03 -7.03477274E-04  2.46583759E-03 -1.58238275E-02 -2.40558083E-02
 -2.34292138E-02  3.28451432E-01  7.44579063E-02 -4.07395546E-06  2.61500390E-01
  2.10035340E-02  4.61470187E-02 -7.24752395E-02 -8.39799280E-02 -8.81202878E-03
  8.18394208E-02 -1.14797550E-01  8.90546948E-06  5.68471058E-02 -7.46426350E-02
  6.76269020E-06  1.16837540E-02  3.35345060E-02  1.93794693E-06  1.32040261E-03
 -6.47478172E-07  1.18657030E-06 -1.38863272E-03  1.00022367E-02 -2.43863847E-04
 -9.21903740E-07  1.28980057E-06 -8.68298976E-03  1.59742794E-02 -3.00479992E-07
 -1.06844256E-03  1.42048546E-03 -3.27235813E-08 -6.86747683E-07 -1.74367597E-03
 -3.40124822E-03  1.22328234E-03 -4.27586110E-03  2.74624469E-02  4.17566351E-02
  4.06394641E-02  7.44566637E-02  2.42114040E-01  9.71919997E-06  6.39704663E-02
  1.87322074E-01 -1.87415322E-06 -4.16714456E-06  6.67410493E-06  7.87901503E-06
  5.63686763E-06 -6.67830887E-06  9.15346435E-06  9.50718198E-02 -5.05170059E-06
  6.83714261E-06  7.77586060E-02 -8.02321604E-06  1.46533026E-05  3.35672521E-02
 -4.77800902E-07 -5.26047866E-03  9.13560237E-03 -3.81475162E-07 -5.89158355E-07
 -1.09723765E-06 -1.48249657E-02  2.57404974E-02 -1.11090715E-06 -1.86592565E-06
 -1.83312966E-03  4.15306468E-07 -8.32702377E-07 -2.26992576E-03 -3.91491187E-03
  2.00181187E-07 -2.35367802E-08  2.22593809E-07  1.06314915E-06 -3.39014831E-06
 -2.88197187E-06 -1.87618199E-05 -4.11497192E-06  9.79031526E-06  2.97792157E-01
 -3.65964951E-06  8.45047730E-06  2.40071524E-01 -3.85815091E-03 -8.85646276E-03
  1.49468774E-02  2.04866903E-02  1.63583708E-03 -1.98810061E-02  4.44152724E-02
 -3.57600723E-06 -1.00289741E-02  3.23749276E-02 -2.79149061E-06  4.00028803E-02
  5.92920278E-03 -9.60846392E-08 -1.19648877E-04  1.14026159E-07 -6.96520014E-07
 -9.74389592E-03  1.22831013E-03  2.36074183E-04 -2.86106302E-07 -1.48622064E-06
 -2.17198564E-02  5.50585251E-03  9.17615995E-08  1.85792719E-04 -5.61052469E-04
  4.62927307E-07  7.21709466E-08  3.07605902E-04 -5.13239491E-03  8.69758369E-03
  1.89459483E-02 -2.47196699E-02 -3.63840325E-02 -1.76719270E-02  2.62003891E-01
  7.18585688E-02 -7.11454335E-06  2.08550606E-01  6.12571014E-02 -6.03843626E-06
  1.71277115E-01  6.69494278E-03  1.53690470E-02 -2.59342313E-02 -3.55817169E-02
 -2.87884722E-03  4.44136130E-02 -7.13996474E-02  4.76750573E-06  3.23752919E-02
 -4.75673905E-02  3.81076021E-06  5.92138332E-03  3.31459710E-02  1.14772300E-06
  2.07134374E-04 -5.87463951E-07  1.03417110E-06 -1.17221054E-03  8.36393802E-03
 -4.06225591E-04 -1.22946100E-06  1.53627556E-06 -5.39110814E-03  1.54430407E-02
 -1.39802197E-07 -5.60926416E-04  8.36344076E-04 -1.11907587E-07 -6.54119696E-07
 -5.69689728E-04 -2.95552955E-03 -1.50975062E-02 -3.28865410E-02  4.29072848E-02
  6.31593325E-02  3.06500115E-02  7.18648563E-02  1.78683103E-01  1.44949680E-05
  6.12627535E-02  1.37520875E-01  1.21875208E-05  5.12117391E-02  1.11905660E-01
 -5.62861530E-07 -1.28999775E-06  2.17017724E-06  2.77477838E-06  2.57416047E-06
 -4.04546759E-06  5.58241004E-06  4.56708620E-02 -3.17246817E-06  4.47315558E-06
  3.73525642E-02 -6.66555527E-06  1.25498243E-05  1.61189709E-02 -2.76504354E-07
 -4.61621419E-03  8.01750065E-03 -3.10639745E-07 -4.93056967E-07 -7.30789796E-07
 -1.30104911E-02  2.25901368E-02 -1.00522813E-06 -1.77670443E-06 -8.80626264E-04
  3.13182408E-07 -6.97138291E-07 -1.99208391E-03 -3.43576830E-03  9.20244199E-08
 -1.92128245E-08  1.25492391E-06  2.76888451E-06 -3.91485733E-06 -3.88746728E-06
 -1.60231382E-05 -4.06596276E-06  9.20144490E-06  2.43837895E-01 -3.57620091E-06
  7.91222437E-06  1.96482005E-01 -5.31362744E-06  1.04903871E-05  1.65611117E-01
  7.22336901E-04  1.65998540E-03 -2.81158854E-03 -3.07868650E-03 -3.42994520E-04
  2.04269713E-03 -3.54647719E-03  5.95648641E-07  1.33376270E-03 -2.31535671E-03
  4.65280957E-07 -1.63461574E-04  2.83745527E-04  1.59670763E-07  6.09872145E-05
 -1.80361358E-08  3.47956808E-08  8.86243254E-05  1.52853582E-04  5.46828223E-06
 -2.08588921E-08  4.32820380E-08  6.67301835E-05  1.14958227E-04 -1.63478825E-08
 -2.68569947E-05  4.66214137E-05 -7.20301748E-09 -1.27841455E-08 -7.01892385E-05
  2.16645332E-07 -6.94372379E-05 -4.85322639E-05 -1.16249456E-04  2.30084602E-05
  9.59840949E-04 -2.30198112E-03  3.99595602E-03  4.18429662E-07 -1.74986381E-03
  3.03757013E-03  3.53018122E-07 -1.01575633E-03  1.76317733E-03  2.95407309E-07
  9.20746317E-05 -8.30804276E-08 -1.90270340E-07  3.20268705E-07  3.61769941E-07
  1.52794200E-07 -1.58803139E-07  4.80258571E-07  2.24494637E-03 -1.06036195E-07
  3.21526516E-07  1.83618742E-03  1.05019756E-08  1.17202240E-07  7.92910705E-04
 -1.15145563E-08 -2.85105633E-05  7.55592842E-05 -2.07737536E-08 -1.61403551E-08
 -1.67929649E-08 -8.02938880E-05  2.12895839E-04 -4.38811398E-08 -1.35886224E-08
 -4.32849637E-05  5.07053983E-09 -1.22663811E-08 -1.23292516E-05 -3.23993636E-05
  7.78396554E-09 -4.83878713E-09  5.95984399E-09  2.38930376E-09  1.35812430E-08
  1.27216702E-08 -1.97347983E-07  4.45230347E-07 -6.50190651E-08  2.95879378E-03
  3.47611258E-07 -3.47087578E-08  2.38905982E-03  2.21636315E-07  6.02925454E-08
  1.76112198E-03 -2.63562946E-09  3.19330257E-05  1.43615124E-07  3.29359938E-07
 -5.55702310E-07 -6.24656128E-07 -2.65452462E-07  5.14807677E-07 -7.01272021E-07
 -3.89720496E-03  3.53940843E-07 -4.61013607E-07 -3.18758701E-03  1.25171008E-07
 -1.11157625E-07 -1.37640925E-03  2.10485900E-08  7.55760003E-05 -1.16125456E-04
  1.74052488E-08  4.13506165E-08  3.19189594E-08  2.12907715E-04 -3.27194976E-04
  1.80351786E-08  6.22807194E-08  7.51425519E-05 -1.33336362E-08  1.83616359E-08
  3.25808486E-05  4.97522326E-05 -1.38480113E-08 -2.94584123E-09 -5.49734619E-09
  9.37947983E-09 -4.90580584E-08 -5.48196179E-08  3.18023794E-07 -7.22086661E-08
  5.24400743E-07 -5.13605590E-03 -4.02467181E-08  3.91688460E-07 -4.14707531E-03
  5.14399427E-08  1.54290105E-07 -3.05703604E-03  4.68322547E-09 -5.47116637E-05
  9.53901955E-05  6.18885948E-04  1.42898789E-03 -2.43981233E-03 -2.62870095E-03
 -3.00652225E-04  3.82997545E-03 -1.97187297E-03  2.37538062E-07  2.58045648E-03
 -1.20292504E-03  1.69065042E-07  4.84722783E-04  7.42440877E-04  3.80832253E-08
  5.46969562E-05 -2.04890854E-08  1.70122061E-08 -2.37310507E-05  2.34959413E-04
  6.47471243E-06 -1.50497847E-08  8.42557499E-09 -3.20877053E-04  4.13484603E-04
 -9.40965056E-09 -5.15733743E-05  2.56806098E-05  1.92180449E-09 -1.17439472E-08
 -6.14167242E-05 -6.35599688E-05  7.20991909E-06  1.46318211E-04 -4.56166348E-04
 -4.36255384E-04  4.91979149E-04  2.55409512E-03  6.20545542E-03 -4.83750736E-09
  2.13050949E-03  4.84000035E-03  8.93269981E-09  1.94709781E-03  3.26883340E-03
  3.51180569E-08  8.11496922E-05 -1.58833949E-09  1.41625022E-08  1.52055839E-04
  1.06716026E-03  2.46413673E-03 -4.20750812E-03 -4.53370614E-03 -5.18850716E-04
  1.94208606E-03 -6.08509014E-03  4.73981367E-07  1.18350771E-03 -3.95505596E-03
  3.55548275E-07 -7.42626447E-04  3.70759172E-04  8.98297180E-08  9.42615864E-05
 -1.36363446E-08  4.18194127E-08  2.34968764E-04  2.45238511E-04  1.10787168E-05
 -4.41116928E-10  2.46434376E-08  4.13581000E-04  1.52228382E-04 -1.60965528E-08
 -2.52928575E-05  8.09402825E-05 -1.24870637E-08 -1.26005268E-08 -1.05451363E-04
  3.72722216E-05  1.24809863E-05  2.52366868E-04 -7.86546822E-04 -7.52342311E-04
  8.48773313E-04 -6.19926194E-03  4.59197374E-03 -1.58642943E-08 -4.83595889E-03
  3.44364565E-03  1.04010171E-08 -3.26891190E-03  1.81909733E-03  4.95589704E-08
  1.39928942E-04 -1.35737800E-08  1.73103338E-08  7.95762464E-05  2.43122755E-04
  2.43509221E-03  4.83908752E-03 -6.16756115E-03 -6.34651271E-03 -7.98077359E-04
  5.12729975E-03 -8.90259698E-03  1.62403713E-06  3.30799113E-03 -5.74304962E-03
  1.26647997E-06 -3.50286075E-04  6.08466436E-04  4.60781791E-07  1.50828761E-04
 -5.44476507E-08  1.06277756E-07  2.20998920E-04  3.81287092E-04  2.05993140E-05
 -7.84875004E-08  1.60859496E-07  1.52652258E-04  2.63200190E-04 -4.17904626E-08
 -6.71166334E-05  1.16531135E-04 -2.11789283E-08 -3.96046393E-08 -1.54877609E-04
  4.48285612E-07  2.08919384E-03  3.54179610E-03 -1.46084184E-03 -1.89261163E-03
  1.38559416E-03 -5.34426399E-03  9.27926525E-03  1.64024717E-06 -4.12633790E-03
  7.16471786E-03  1.35265635E-06 -2.30152036E-03  3.99658367E-03  1.13111167E-06
  2.18746919E-04 -1.31593859E-09  2.71372153E-09  1.93994183E-04  3.34488983E-04
  5.42849044E-04 -2.62887278E-07 -5.35824978E-07  7.23803837E-07  7.80329460E-07
  4.31084709E-07 -2.21684254E-07  1.21114970E-06  6.67919801E-03 -1.37680397E-07
  8.12305123E-07  5.46306001E-03 -1.70776950E-08  4.45304885E-07  2.35911546E-03
 -3.08117290E-08 -7.23693352E-05  2.73192929E-04 -4.44087279E-08 -4.24652364E-08
 -4.96335694E-08 -2.03782055E-04  7.69748646E-04 -1.01265174E-07 -4.70214751E-08
 -1.28781940E-04  1.10837307E-08 -3.74857511E-08 -3.13983191E-05 -1.17183760E-04
  1.74847214E-08 -1.98682144E-08 -2.19678544E-07 -3.80669517E-07  1.82888355E-07
  2.87310528E-07 -4.61527764E-07  1.06585351E-06  2.29510875E-07  9.66252842E-03
  8.46869754E-07  2.12088729E-07  7.80006382E-03  5.08955200E-07  4.14071057E-07
  5.84710053E-03  1.09527312E-09  1.01076262E-04 -1.71378113E-04  2.22914107E-09
 -2.81815202E-08  1.66779864E-08  3.23368675E-04  4.59866188E-07  9.37988030E-07
 -1.26884848E-06 -1.36334270E-06 -7.49600812E-07  1.28458102E-06 -1.59967565E-06
 -1.15959805E-02  8.86006977E-07 -1.03010162E-06 -9.48450950E-03  4.75363204E-07
 -4.81910194E-07 -4.09530978E-03  5.94076088E-08  2.73239108E-04 -3.89250877E-04
  4.31287795E-08  1.03325389E-07  1.01740624E-07  7.69828953E-04 -1.09675310E-03
  5.32932524E-08  1.70591906E-07  2.23584234E-04 -3.89259314E-08  5.16703268E-08
  1.17764016E-04  1.66742657E-04 -3.25367588E-08 -1.25927264E-08  4.23671674E-07
  7.55687189E-07 -4.45619050E-07 -6.68378962E-07  6.89104091E-07  2.60639613E-07
  8.39950004E-07 -1.67751335E-02  2.36246063E-07  6.37189109E-07 -1.35416932E-02
  4.25247131E-07  5.54395307E-08 -1.01512151E-02 -1.38753770E-09 -1.71398523E-04
  2.99881666E-04  3.05243570E-08  3.05208520E-08 -2.69869100E-08 -5.38314723E-04
  9.47866272E-04  2.16646555E-03  4.31606700E-03 -5.53103302E-03 -5.63505712E-03
 -7.09752334E-04  1.17859347E-02 -3.72699582E-03  5.91895809E-07  7.82373108E-03
 -2.03640777E-03  4.06703969E-07  1.15946188E-03  1.85320135E-03  8.56863122E-08
  1.39571085E-04 -7.53821210E-08  3.97531145E-08  3.23606300E-05  6.11251298E-04
  2.66097583E-05 -7.96337559E-08  2.48347772E-08 -7.57379210E-04  1.13358902E-03
 -2.30442055E-08 -1.58370947E-04  4.82094186E-05 -2.86746408E-09 -3.06784013E-08
 -1.41136889E-04 -1.95520925E-04  2.40542682E-03  4.40017600E-03 -3.05575479E-03
 -4.00889714E-03 -3.60274998E-04  8.03520590E-03  1.56783533E-02  2.08260898E-07
  6.58564380E-03  1.23967845E-02  1.90948017E-07  5.82901040E-03  8.26627451E-03
  2.42749975E-07  1.95228988E-04 -8.12434646E-10  3.38545641E-08  4.10452016E-04
  1.73263753E-04  4.87602701E-04  1.33559776E-08  7.64083340E-08  1.15788466E-03
  3.73677631E-03  7.44409977E-03 -9.53848215E-03 -9.72033518E-03 -1.22632497E-03
  3.64200455E-03 -1.60307617E-02  1.15365579E-06  1.98194675E-03 -1.01371518E-02
  8.54451522E-07 -1.85348134E-03  9.75324980E-04  2.37100971E-07  2.40462705E-04
 -3.38295814E-08  1.33197343E-07  6.11317761E-04  7.31978985E-04  4.56797332E-05
 -1.09341672E-08  1.20769954E-07  1.13393382E-03  5.39395134E-04 -3.74872097E-08
 -4.70931689E-05  2.13275421E-04 -3.36123206E-08 -4.30642177E-08 -2.41962970E-04
  1.14290712E-04  4.14719970E-03  7.58638984E-03 -5.26855004E-03 -6.91225593E-03
 -6.19592385E-04 -1.56717660E-02  1.00223020E-02  4.40187024E-07 -1.23928915E-02
  7.69326530E-03  3.96492564E-07 -8.27162078E-03  3.69647032E-03  4.58247055E-07
  3.36599021E-04 -3.15598686E-08  3.73341614E-08  1.73204917E-04  6.08684837E-04
  8.40633976E-04 -6.75803698E-08  6.58279963E-08  3.99814654E-04  1.61535138E-03
  1.32743272E-07  2.50559688E-07 -2.77222602E-07 -3.00868851E-07 -1.32398917E-07
  2.29504108E-07 -3.79819831E-07 -1.92012701E-03  1.53077615E-07 -2.42618429E-07
 -1.57051038E-03  2.84590105E-08 -2.99388925E-08 -6.78182106E-04  1.06247742E-08
  2.55255303E-05 -4.42775159E-05  1.24060087E-08  2.33884126E-08  1.48682353E-08
  7.18900043E-05 -1.24756227E-04  1.77476809E-08  3.25748484E-08  3.70221110E-05
 -5.66319332E-09  8.49651758E-09  1.10081258E-05  1.89743640E-05 -6.80398830E-09
 -9.36021287E-10  8.17286627E-08  1.49933281E-07 -1.02373844E-07 -1.39286123E-07
  6.92128200E-08 -1.11327212E-07  2.55507255E-07 -2.12000101E-03 -8.34339972E-08
  1.95521633E-07 -1.71268302E-03 -2.50090611E-08  8.28455132E-08 -1.21607649E-03
  3.14772293E-09 -2.45459203E-05  4.26099366E-05  6.47382632E-09  1.01656315E-08
  4.85868520E-09 -7.63837865E-05  1.32610961E-04  1.63478711E-08  2.51064068E-08
  1.93915637E-05  4.50672076E-04  8.24567041E-04 -8.27625474E-04 -8.35623986E-04
 -1.07356512E-04  2.65024915E-04 -1.45395109E-03  3.03433135E-07  1.52938403E-04
 -9.23197660E-04  2.40422562E-07 -1.06573438E-04  8.69177419E-05  9.39140224E-08
  2.16249857E-05 -5.89053988E-09  1.75323753E-08  3.59212113E-05  6.51645376E-05
  4.38922588E-06 -1.04450232E-08  2.64573141E-08  6.36033127E-05  4.69956878E-05
 -7.14397064E-09 -3.46455861E-06  1.94134790E-05 -3.59476672E-09 -6.72844187E-09
 -2.10696627E-05 -9.24411511E-06  3.14564537E-04  5.89054832E-04 -4.48784591E-04
 -5.83434784E-04 -2.08330626E-05 -8.30830009E-04  1.16495158E-03  2.97480650E-07
 -6.47209515E-04  9.07250669E-04  2.43778650E-07 -3.44358326E-04  5.11996292E-04
  1.93555884E-07  2.95190482E-05  4.29124891E-10 -1.38280632E-09  2.02395154E-05
  4.99394628E-05  7.42112879E-05  4.17864295E-09 -8.62418947E-09  4.89245638E-05
  1.31608227E-04  5.33746666E-11  1.19550814E-05 -7.82305996E-04 -1.43133714E-03
  1.43665504E-03  1.45030579E-03  1.86155866E-04 -1.45392633E-03  1.95171082E-03
 -5.41397700E-07 -9.23312345E-04  1.22392993E-03 -4.26123818E-07  8.68463571E-05
 -2.07356747E-04 -1.62954786E-07 -3.75537665E-05  1.68682657E-08 -2.92471758E-08
 -6.55594640E-05 -1.11214357E-04 -7.62569648E-06  2.67327502E-08 -5.01329904E-08
 -4.75397479E-05 -1.18012057E-04  1.29673005E-08  1.94131239E-05 -2.59850561E-05
  6.48824458E-09  1.16484330E-08  3.65123711E-05 -5.46764077E-06 -5.46100707E-04
 -1.02262556E-03  7.79096649E-04  1.01284126E-03  3.61465443E-05  1.16486535E-03
 -2.18205290E-03 -5.76031251E-07  9.07164465E-04 -1.69952555E-03 -4.71034203E-07
  5.11924892E-04 -9.38194575E-04 -3.76728984E-07 -5.12449311E-05 -1.92443651E-09
  2.75705139E-09 -5.02262726E-05 -7.79402346E-05 -1.28829059E-04 -1.05670561E-08
  1.65639916E-08 -1.32349740E-04 -2.00957709E-04  2.53258847E-10 -1.74025825E-05
  3.21411835E-05  8.80193595E-08  1.64961636E-07 -1.78412037E-07 -1.99909239E-07
 -9.50861523E-08  3.03148191E-07 -2.26745000E-07 -1.43968511E-03  2.10463173E-07
 -1.40979719E-07 -1.17753234E-03  1.08326469E-07 -9.88680510E-09 -5.08422312E-04
  7.91333227E-09  4.28326008E-05 -4.51093538E-05  5.05075444E-11  2.42975923E-08
  1.32831200E-08  1.20689173E-04 -1.27100069E-04 -1.46246369E-08  4.56636387E-08
  2.77589285E-05 -7.23216447E-09  6.45214281E-09  1.84412809E-05  1.93087587E-05
 -4.60394436E-09 -4.82111236E-09  5.18812487E-08  9.26918230E-08 -5.35666877E-08
 -7.62718291E-08  9.37833189E-08  2.53834675E-07  3.55967038E-07 -2.12263501E-03
  2.09138269E-07  2.77044165E-07 -1.71341228E-03  1.93890850E-07  1.55914615E-07
 -1.28854130E-03  1.61815217E-09 -2.12994223E-05  3.77820653E-05  1.00505240E-08
  4.05422485E-09  8.79783080E-10 -6.64018874E-05  1.19853710E-04  2.66199246E-08
  7.91818703E-09  1.66200083E-05 -8.21350944E-10  8.21334878E-10  1.53150832E-05
  1.50143598E-07  2.82096022E-07 -3.07594364E-07 -3.39348745E-07 -1.64330533E-07
  2.12313905E-07 -5.19667654E-07 -2.48211024E-03  1.38723770E-07 -3.41011527E-07
 -2.03016023E-03  1.89173846E-08 -1.28342597E-07 -8.76637791E-04  1.28086253E-08
  4.47230477E-05 -9.45806460E-05  2.29675389E-08  2.45298068E-08  2.01584731E-08
  1.25985306E-04 -2.66490466E-04  4.61010335E-08  3.16489874E-08  4.78578777E-05
 -6.71350047E-09  1.42874612E-08  1.93132892E-05  4.05437554E-05 -7.62190028E-09
  3.35850601E-09  8.85698375E-08  1.58837304E-07 -9.41270272E-08 -1.36016497E-07
  1.62633325E-07 -3.62789478E-07  9.45706159E-08 -3.66019936E-03 -2.83421992E-07
  6.25189056E-08 -2.95455092E-03 -1.63193979E-07 -5.32786188E-08 -2.22196373E-03
  2.00089892E-09 -3.75311525E-05  6.46816734E-05  3.11827966E-09  1.35662133E-08
 -4.15361927E-10 -1.19052400E-04  2.04035051E-04  5.85090846E-09  3.27181630E-08
  2.86565239E-05 -7.35341203E-10  2.44039719E-09  2.55045310E-05  4.45003235E-05
  1.20348889E-03  2.18722380E-03 -2.14163494E-03 -2.28323554E-03 -2.68327544E-04
  2.28386866E-03 -3.98101292E-03  3.34267832E-07  1.43419533E-03 -2.50043215E-03
  2.50006165E-07 -3.11523717E-04  5.36526145E-04  7.05228337E-08  5.10592912E-05
 -1.57724122E-08  3.38665262E-08  1.44282149E-04  2.48135071E-04  6.52120109E-06
 -1.07305276E-08  2.84355468E-08  1.71564859E-04  2.92983547E-04 -1.02347707E-08
 -3.00477369E-05  5.23827944E-05 -7.53926077E-09 -1.37131995E-08 -5.35693806E-05
  3.09718706E-07  8.33717862E-04  1.54581418E-03 -1.12014498E-03 -1.40593052E-03
 -7.42746154E-05 -2.42395674E-03  4.17846429E-03  1.23683849E-07 -1.87764642E-03
  3.23593966E-03  1.13218864E-07 -1.15250015E-03  1.98255519E-03  1.21067122E-07
  9.36820915E-05 -6.50338033E-09  1.15596271E-08  8.56696520E-05  1.48257228E-04
  2.32209792E-04 -1.15362667E-08  2.12549207E-08  2.21175256E-04  3.82908520E-04
  7.02517028E-09  3.30855603E-05 -5.73856419E-05  4.82263959E-09  7.37325960E-09
  1.08405306E-04 -3.44387201E-06 -6.26301344E-06  6.13489979E-06  6.23106397E-06
  5.31800695E-07 -2.29079569E-03 -1.30376638E-03  1.47653430E-08 -1.57896462E-03
 -8.99503554E-04  1.82404436E-08 -6.47549298E-04 -3.75177784E-04  8.64339825E-09
 -1.78395811E-07  1.18803305E-08  7.36251390E-09  1.00440483E-04 -5.91749992E-05
 -5.33146348E-08  1.45181471E-08  7.41113070E-09  3.94872607E-04 -2.30163895E-04
  3.97055695E-10  3.12552305E-05  1.77996537E-05 -5.72595047E-09  2.37426985E-09
  3.40491298E-07  5.89098674E-05 -2.50069606E-06 -4.64022771E-06  3.38368747E-06
  4.20342971E-06  4.52083929E-07 -4.41224578E-03 -2.55809874E-03  1.13341695E-09
 -3.54269501E-03 -2.05347497E-03  1.27062371E-09 -2.73687031E-03 -1.58445591E-03
 -6.29337263E-10 -2.75244763E-07 -4.62347155E-09 -3.00649344E-09 -7.94073277E-05
  4.54699181E-05 -6.90867772E-07 -1.36281692E-08 -9.26404828E-09 -2.34413087E-04
  1.34464886E-04 -3.90539811E-10  6.97130062E-06  4.24180988E-06 -5.65493381E-09
  3.49756474E-09 -8.49248098E-08  7.95753051E-05  9.35434275E-04  1.84756039E-03
 -4.92720376E-03  1.98663091E-02 -5.63055750E-03  6.09519533E-03  1.05305810E-02
  8.10390049E-07 -3.28158082E-03 -5.67205596E-03 -1.37616548E-07  4.73834668E-03
  8.18379610E-03  5.86546120E-07  4.77603002E-04 -5.99153358E-08 -1.35794833E-07
  8.60002848E-04 -1.49691751E-03 -1.00327211E-03  7.33622556E-08  1.10324533E-07
 -6.38904045E-04  1.11324814E-03  3.10965972E-08  1.02252629E-04  1.76557339E-04
 -4.53751888E-09  1.42079126E-09  1.16542902E-04 -1.37350538E-07 -3.09455393E-04
 -7.24414274E-04  8.60600122E-04  2.61971801E-03 -4.92452669E-03 -3.85645644E-03
 -6.81785562E-03 -2.71105370E-07 -3.18156877E-03 -5.19966196E-03 -1.78808103E-07
 -4.94162396E-03 -2.63090851E-03 -5.63683222E-07 -1.77394006E-04  3.06767236E-08
 -1.75265541E-08 -1.28807949E-04 -1.25847330E-04  2.39997756E-04 -1.09221512E-07
 -8.21717058E-08 -5.78569846E-04 -4.22327666E-04 -6.42711864E-09 -3.94829752E-06
 -5.04887177E-05 -3.98310751E-08 -3.62143395E-09 -2.37267701E-04 -1.14463313E-05
  4.01175643E-01  1.90669806E-03  3.75426492E-03 -8.60422558E-03  3.90504276E-02
 -8.91369363E-03  1.39481907E-02  2.40978980E-02  1.87445471E-06 -4.02219097E-03
 -6.95418584E-03  7.25496960E-08  7.57588953E-03  1.30824023E-02  1.11748992E-06
  1.28790157E-03 -1.61380397E-07 -3.52445112E-07  2.13277864E-03 -3.71219834E-03
 -7.68150983E-04  2.60452513E-08 -2.45432751E-08  3.00605807E-04 -5.21204626E-04
  2.29888235E-08  3.96029040E-05  6.81967786E-05 -3.65001784E-08  5.92321967E-08
  3.97711203E-06  4.76359904E-07 -7.24414020E-04 -1.70013470E-03  2.14589380E-03
  4.81350804E-03 -8.83438796E-03 -9.34218338E-03 -1.63637207E-02 -6.63676057E-07
 -7.73386499E-03 -1.23084947E-02 -4.92775762E-07 -1.04520026E-02 -6.64885635E-03
 -1.18322016E-06 -3.44318694E-04  4.90385759E-08 -4.56962659E-08 -3.36695268E-04
 -3.03446176E-04  2.93041587E-04 -1.78035557E-07 -1.62708495E-07 -1.19521278E-03
 -9.19498955E-04 -1.90143878E-08 -3.42201990E-05 -4.93831703E-05 -7.30757231E-08
 -1.03131692E-08 -4.71788848E-04  1.01525705E-05  6.09713884E-01  9.43440270E-01
 -1.00700729E-05 -1.22976236E-04  6.51801481E-04 -4.26362082E-02  1.53777752E-03
 -1.74412635E-02 -3.01308945E-02 -2.54117189E-06 -2.13197822E-03 -3.67701678E-03
 -1.03945533E-06 -1.90874213E-03 -3.28725913E-03 -9.90855099E-07 -2.21193851E-03
  2.84357431E-07  5.98328836E-07 -3.39357688E-03  5.90632042E-03 -2.91188328E-03
  3.52274933E-07  7.97103723E-07 -5.12909442E-03  8.92656239E-03  8.41106761E-08
  4.25504303E-04  7.35411741E-04  1.20757034E-07 -2.33391133E-07  5.72119079E-04
 -2.41634688E-06  8.60594097E-04  2.14588136E-03 -3.22229993E-03 -3.30317605E-03
  6.56653216E-03  1.59849159E-02  2.62925797E-02  1.25889002E-06  1.33080399E-02
  1.93482267E-02  1.08555324E-06  1.33272537E-02  1.14984195E-02  1.53680822E-06
  3.33693538E-04 -8.84026016E-09  7.84778871E-08  6.46254070E-04  4.55955987E-04
  2.79874632E-04  7.70487869E-08  1.58850401E-07  1.52880537E-03  1.10924822E-03
  3.73947007E-08  1.08883996E-04 -1.14890942E-04  5.75481083E-08  1.53569924E-08
  4.78589631E-04 -1.65495981E-04 -4.59356172E-02 -1.37137883E-01  2.75422213E-01
 -2.95674400E-03 -3.83364823E-03 -8.43631173E-04 -6.12475192E-02  2.65956885E-03
 -1.95898976E-02 -3.38416957E-02 -3.28052274E-06  4.53272557E-04  7.90956084E-04
 -1.22050250E-06 -4.52940855E-03 -7.81520686E-03 -1.41468180E-06 -2.89445898E-03
  3.15081012E-07  6.65014325E-07 -4.16904316E-03  7.25544268E-03 -3.58300284E-03
  3.23958041E-07  7.62370749E-07 -5.89737662E-03  1.02624483E-02  9.49842592E-08
  4.77524992E-04  8.25405395E-04  1.22446649E-07 -2.38719653E-07  6.53881935E-04
 -2.91968754E-06  2.61973901E-03  4.81355705E-03 -3.30326671E-03 -3.87456794E-03
  1.08051058E-02  1.82874185E-02  2.95417465E-02  6.02674878E-07  1.53659951E-02
  2.15323524E-02  5.60358159E-07  1.60084787E-02  1.13672418E-02  1.31832101E-06
  4.18067286E-04 -2.23329427E-08  1.03303210E-07  7.90351000E-04  5.43316449E-04
  1.99136440E-04  9.81298825E-08  2.28459960E-07  1.95807717E-03  1.28313995E-03
  4.68512402E-08  1.15480205E-04 -1.09066880E-04  7.66899433E-08  2.43674429E-08
  5.83945764E-04 -2.00984847E-04 -1.33550669E-01 -2.89716963E-01  3.63488473E-01
  4.93739185E-01  1.31757120E-02  3.16216491E-02 -5.70215749E-02 -9.36432665E-02
 -5.84069997E-03  6.13303536E-03  1.06260057E-02  1.37030311E-07  1.07768471E-02
  1.86463775E-02  5.00865519E-07  5.50259396E-03  9.52136331E-03 -6.75796090E-07
 -3.34201425E-04  4.53260350E-07  1.00494667E-06 -3.37161340E-03  5.86621245E-03
 -1.93576320E-03  1.22720151E-06  2.52338092E-06 -7.28622689E-03  1.26803599E-02
 -7.33503219E-08  3.14048216E-05  5.43161841E-05  2.76137890E-07 -5.29733823E-07
 -1.03401512E-03  1.72118410E-06 -4.92452547E-03 -8.83438699E-03  6.56651775E-03
  1.08051938E-02  1.38133812E-02  4.78715120E-02  6.29413832E-02  1.09104327E-05
  3.95353711E-02  4.72694002E-02  8.93594074E-06  3.20467299E-02  3.31469482E-02
  8.20538150E-06  5.78379229E-04  1.09623678E-07  2.11692939E-08  1.72012729E-03
  3.56571899E-04  7.70062560E-04  4.96807516E-07 -8.52568764E-08  4.47027067E-03
  4.26831363E-04  5.99856139E-09  5.37009316E-05 -2.98844925E-04  8.71007549E-08
 -1.10201535E-07  6.14956379E-04 -1.06344529E-03 -3.81303783E-02 -1.03847512E-01
  1.90399762E-01  2.52458442E-01  1.61437790E-01 -1.47376606E-02 -3.37614527E-02
  5.68885396E-02  6.73181720E-02  6.75810108E-03 -2.85516903E-02 -1.04275998E-01
 -8.40048860E-06 -1.36316642E-02 -7.29865382E-02 -6.45781664E-06  6.00390044E-02
 -1.39389650E-02 -8.37252659E-07 -9.74821438E-04  2.51945054E-07  9.14278168E-07
 -1.48090509E-02 -1.73538596E-03  2.42133712E-04 -2.73804232E-07  1.36374939E-06
 -3.30556771E-02 -1.08176654E-02  2.49073401E-07  2.73273644E-04  1.35865667E-03
  7.44821095E-07  6.90841269E-09  1.37525489E-03  7.20493390E-03 -3.84255357E-03
 -9.30881390E-03  1.59312804E-02  1.82272173E-02  4.77432864E-02 -5.05905240E-03
 -2.02712957E-02  4.39889811E-06 -9.21472158E-03 -1.69449439E-02  3.28246318E-06
 -7.00677717E-04 -3.52946259E-02  4.97121578E-06  3.40877581E-04 -3.04854032E-08
  5.26669782E-08  7.18789857E-05 -1.23590788E-04  1.24100624E-03 -2.81818195E-07
  1.67695721E-08 -1.39598002E-03 -1.78140099E-04 -6.85915789E-09 -1.58166058E-04
 -1.74661194E-04  2.29198334E-08 -1.45599180E-08 -2.89600213E-04 -4.72721811E-05
  8.15152923E-03  1.85847902E-02 -2.80676316E-02 -4.27056601E-02 -3.61293158E-02
  4.12877011E-01 -2.54596540E-02 -5.83234141E-02  9.82667824E-02  1.16324453E-01
  1.17264575E-02 -1.04266150E-01 -1.48385310E-01 -1.14502191E-05 -7.29834710E-02
 -9.74883717E-02 -8.74577102E-06 -1.39267271E-02  4.40490599E-02 -2.40435057E-06
 -1.68393760E-03  8.13361814E-07  1.47475270E-06  1.82060638E-03  1.27551826E-02
  4.12557451E-04  1.13863154E-06  1.52535179E-06  1.09802203E-02  2.04395293E-02
  3.94536217E-07  1.35846418E-03  1.83419985E-03  4.08408707E-08 -8.60135972E-07
  2.32458020E-03 -4.18065385E-03  6.82569894E-03  1.63827222E-02 -2.63250961E-02
 -2.95789663E-02 -6.30388967E-02  2.04658231E-02  9.03687996E-02  7.93804228E-07
  1.71708220E-02  7.22272604E-02  8.84559754E-07  1.59747421E-02  8.50363191E-02
  1.16880458E-06  4.32594474E-04 -1.41933119E-07  2.33579945E-07 -2.43358555E-04
  1.68245694E-03  1.43398840E-03 -3.34923528E-07  6.19892346E-07 -1.27194902E-03
  5.90341050E-03  1.75788470E-07  7.03543712E-04 -2.58247882E-04  9.71483732E-08
  2.06212587E-07  1.50524552E-03  1.11879225E-03  1.40827325E-02  3.21071556E-02
 -4.84888423E-02 -7.37864094E-02 -6.23850664E-02 -8.54583406E-02  3.14713395E-01
 -2.26943803E-06 -5.18789432E-06  8.70082898E-06  1.03966007E-05  6.99126928E-06
 -8.68954911E-06 -1.19517445E-05  1.17156984E-01 -6.56525674E-06 -8.93407429E-06
  9.58219308E-02 -9.85983633E-06 -1.79903263E-05  4.13650374E-02 -5.93499417E-07
 -6.55584601E-03 -1.13317146E-02 -4.98644296E-07  7.69033089E-07 -1.35142685E-06
 -1.84756038E-02 -3.19283212E-02 -1.41880951E-06  2.38203189E-06 -2.25896542E-03
  5.21940445E-07  1.04068230E-06 -2.79910088E-03  4.87317815E-03  2.58161975E-07
  2.51163033E-08 -2.71104434E-07 -6.63673468E-07  1.25887971E-06  6.02698975E-07
  1.09103704E-05  4.39727794E-06 -8.02764927E-07 -1.03258902E-01  3.22110271E-06
 -1.22915130E-06 -8.28106816E-02  8.64696665E-06 -2.99056303E-06 -9.01832536E-02
  5.83769593E-08 -1.89753116E-04 -2.98471447E-04  3.87218332E-08  1.26629818E-07
 -5.10715614E-08 -1.72269807E-03 -5.60462219E-04  1.49265069E-07  7.30155537E-09
 -2.75337789E-04  1.39874583E-08 -2.84565862E-09 -2.44030150E-04  2.80582351E-04
  4.35147384E-08 -5.46854388E-09  1.31738647E-06  3.06495380E-06 -4.99735285E-06
 -4.83386480E-06 -2.39402542E-05 -4.47267457E-06 -1.10608626E-05  3.69393510E-01
 -1.21442435E-02 -2.66821159E-02  4.19084819E-02  4.85429763E-02  5.07213128E-03
 -2.01829288E-02 -8.20391590E-02 -6.55448517E-06 -8.94008035E-03 -5.69829462E-02
 -5.02381746E-06  4.70297495E-02 -1.17214280E-02 -7.01074907E-07 -7.63427481E-04
  2.14312466E-07  7.32570964E-07 -1.16392683E-02 -1.38631746E-03  1.43621335E-04
 -1.46008265E-07  1.10457948E-06 -2.60705117E-02 -8.67358103E-03  1.89586590E-07
  1.85494000E-04  1.07113192E-03  5.94753670E-07  9.96851872E-09  1.02036675E-03
  5.90182774E-03 -3.17095627E-03 -7.70874394E-03  1.32685392E-02  1.53220860E-02
  3.94390301E-02 -9.21485247E-03 -1.70048057E-02  3.22359068E-06 -1.14308407E-02
 -1.43482014E-02  2.39644763E-06 -3.88204541E-03 -2.94441625E-02  3.80146804E-06
  3.14806293E-04 -3.07268840E-08  4.87494277E-08  7.27353449E-05 -2.15412503E-05
  1.05643665E-03 -2.34112422E-07  2.74918763E-08 -1.07075593E-03  1.90668079E-05
 -2.78134506E-09 -1.23655878E-04 -1.59345474E-04  1.97993144E-08 -6.33078231E-09
 -1.95335550E-04 -1.98281550E-05 -7.05950401E-04  2.47456741E-03 -1.58797439E-02
 -2.41406980E-02 -2.35121535E-02  3.28147732E-01 -7.46331960E-02 -4.09374157E-06
  2.61239463E-01 -2.09787858E-02 -4.60926747E-02  7.23899378E-02  8.38814071E-02
  8.80205523E-03 -8.20319940E-02 -1.14463784E-01 -8.89211580E-06 -5.69808944E-02
 -7.44108328E-02 -6.75246917E-06 -1.17112763E-02  3.35821924E-02 -1.93652748E-06
 -1.31883525E-03  6.49454230E-07  1.18375736E-06  1.45306236E-03  9.99933027E-03
  2.43560153E-04  9.24825879E-07  1.28567137E-06  8.80108213E-03  1.59564852E-02
  3.00094037E-07  1.07095374E-03  1.41612467E-03  2.87147571E-08 -6.86895943E-07
  1.72078407E-03 -3.42386105E-03  5.20614692E-03  1.23242573E-02 -1.93753432E-02
 -2.15636829E-02 -4.73499818E-02  1.71109084E-02  7.22273664E-02  1.22257900E-06
  1.44888678E-02  5.75967823E-02  1.18344841E-06  1.37103907E-02  6.70694980E-02
  1.37748723E-06  3.63419224E-04 -1.07515495E-07  1.79246945E-07 -1.57556049E-04
  1.34432018E-03  1.12167734E-03 -2.33716687E-07  4.69898019E-07 -9.03189468E-04
  4.63979139E-03  1.35614619E-07  5.55898941E-04 -1.99131297E-04  7.53908810E-08
  1.55160096E-07  1.18764836E-03  8.66811673E-04 -1.22181361E-03  4.27088832E-03
 -2.74302064E-02 -4.17075368E-02 -4.05916301E-02 -7.46319735E-02  2.42417559E-01
 -9.71090275E-06 -6.41210526E-02  1.87582889E-01 -1.87414979E-06 -4.16713909E-06
  6.67410257E-06  7.87902721E-06  5.63681400E-06 -6.69693172E-06 -9.13982378E-06
  9.50716708E-02 -5.06561093E-06 -6.82683285E-06  7.77585234E-02 -8.05313178E-06
 -1.46368954E-05  3.35674152E-02 -4.77797265E-07 -5.27905694E-03 -9.12485220E-03
 -3.79071306E-07  5.90705487E-07 -1.09722848E-06 -1.48773499E-02 -2.57102497E-02
 -1.10329281E-06  1.87043766E-06 -1.83312645E-03  4.17000387E-07  8.31853678E-07
 -2.25395655E-03  3.92412192E-03  2.00319591E-07  2.23136201E-08 -1.78806553E-07
 -4.92771887E-07  1.08554246E-06  5.60374529E-07  8.93588722E-06  3.28066006E-06
 -8.91243381E-07 -8.28106696E-02  2.39403979E-06 -1.18833240E-06 -6.64085600E-02
  6.80083243E-06 -2.62562175E-06 -7.24882159E-02  4.79749939E-08 -1.46304610E-04
 -2.51614940E-04  3.05897370E-08  1.01691048E-07 -4.20014893E-08 -1.36787912E-03
 -4.84844178E-04  1.22511972E-07  2.09704825E-10 -2.27269696E-04  1.07532241E-08
 -2.76783434E-09 -2.00667461E-04  2.18759868E-04  3.33259345E-08 -4.63280993E-09
  2.22595003E-07  1.06315040E-06 -3.39014955E-06 -2.88194599E-06 -1.87618110E-05
 -4.13490459E-06 -9.78193625E-06  2.97792226E-01 -3.67684795E-06 -8.44301895E-06
  2.40071561E-01 -3.87177842E-03 -8.88774521E-03  1.49996858E-02  2.05590611E-02
  1.64179145E-03 -2.00621691E-02 -4.45198057E-02 -3.58572261E-06 -1.01610593E-02
 -3.24511709E-02 -2.79925635E-06  3.99786834E-02 -5.94324285E-03 -9.84529087E-08
 -1.20067928E-04  1.16643689E-07  6.98386775E-07 -9.74631742E-03 -1.17157789E-03
  2.36932067E-04 -2.80573012E-07  1.48992396E-06 -2.17309380E-02 -5.38588473E-03
  9.20461057E-08  1.88081143E-04  5.62373628E-04  4.62849414E-07 -7.53892830E-08
  3.40072334E-04  5.12438108E-03 -4.93625159E-03 -1.04384303E-02  1.33037816E-02
  1.59853274E-02  3.19792109E-02 -6.61021314E-04 -1.58000691E-02  8.65303018E-06
 -3.84973253E-03 -1.35658790E-02  6.80615876E-06 -4.55241652E-04 -2.43948615E-02
  6.99290286E-06  1.34812220E-04  4.54999122E-08 -5.91845972E-08  1.21473710E-04
 -2.62977143E-04  5.04837405E-04  1.61886471E-08 -2.85762894E-07 -6.97012471E-04
 -6.72454393E-04 -4.69010333E-08 -1.77455229E-04 -7.66592797E-05 -1.61403849E-08
 -8.63881544E-08 -3.14669073E-04 -1.80812625E-04  8.72830815E-03  1.90128755E-02
 -2.48070070E-02 -3.65124730E-02 -1.77345173E-02  2.61710883E-01 -7.20277259E-02
 -7.14404630E-06  2.08300825E-01 -6.14012878E-02 -6.06323830E-06  1.71068347E-01
 -6.68706975E-03 -1.53509735E-02  2.59037035E-02  3.55400657E-02  2.87578534E-03
 -4.45181596E-02 -7.12185204E-02 -4.76020951E-06 -3.24514904E-02 -4.74353564E-02
 -3.80507509E-06 -5.93534284E-03  3.31701461E-02 -1.14753633E-06 -2.06881068E-04
  5.89328823E-07  1.03155219E-06  1.22610897E-03  8.36149266E-03  4.05735752E-04
  1.23315792E-06  1.53073934E-06  5.49823536E-03  1.54319529E-02  1.39614968E-07
  5.62244091E-04  8.34054071E-04  1.08299407E-07 -6.54417970E-07  5.50928483E-04
 -2.96940075E-03  2.64097269E-03  6.67014345E-03 -1.15255656E-02 -1.13998538E-02
 -3.32122653E-02  3.54693097E-02  8.49966021E-02  2.97297029E-06  2.95887306E-02
  6.70371552E-02  2.61178685E-06  2.45360167E-02  6.88015498E-02  2.40145774E-06
  5.16490859E-04 -3.83366081E-08  1.57399228E-07  6.77205722E-04  1.09849133E-03
  1.38681909E-03 -1.15407080E-08  3.80660576E-07  1.52556163E-03  3.48571299E-03
  1.09029634E-07  4.41001658E-04 -3.22054906E-04  1.00793536E-07  8.22118476E-08
  1.13528930E-03  7.72568018E-05  1.50797560E-02  3.28478771E-02 -4.28568554E-02
 -6.30850345E-02 -3.06139546E-02 -7.20341214E-02  1.78976199E-01 -1.44804944E-05
 -6.14070137E-02  1.37770762E-01 -1.21752309E-05 -5.13323404E-02  1.12114615E-01
 -5.62862858E-07 -1.29000044E-06  2.17018151E-06  2.77479206E-06  2.57411884E-06
 -4.05683083E-06 -5.57414782E-06  4.56708729E-02 -3.18157186E-06 -4.46667857E-06
  3.73526075E-02 -6.69118828E-06 -1.25361903E-05  1.61191640E-02 -2.76501866E-07
 -4.63252159E-03 -8.00807440E-03 -3.08627666E-07  4.94316963E-07 -7.30782706E-07
 -1.30564721E-02 -2.25636026E-02 -9.97976186E-07  1.78078437E-06 -8.80626175E-04
  3.14600897E-07  6.96498384E-07 -1.97807040E-03  3.44385366E-03  9.21388387E-08
  1.86503805E-08 -5.63682148E-07 -1.18321741E-06  1.53679971E-06  1.31833756E-06
  8.20532870E-06  4.96881422E-06 -1.17893074E-06 -9.01832156E-02  3.79864854E-06
 -1.38523341E-06 -7.24881929E-02  6.98799179E-06 -2.41567616E-06 -7.04400460E-02
 -3.17781395E-08 -4.63940210E-04  3.61660067E-04  4.35812991E-08  2.14266486E-08
 -2.51153454E-07 -2.19878250E-03  1.30761070E-03  1.70357409E-07 -1.91060227E-07
  8.75373017E-05 -3.79955061E-08  6.73423565E-08  3.90590941E-05  5.62966943E-04
 -1.13766637E-08 -4.71885813E-08  1.25492299E-06  2.76888292E-06 -3.91485994E-06
 -3.88744531E-06 -1.60231322E-05 -4.08471112E-06 -9.19316632E-06  2.43838129E-01
 -3.59231468E-06 -7.90493528E-06  1.96482178E-01 -5.33498335E-06 -1.04795749E-05
  1.65611349E-01  7.22334992E-04  1.65998155E-03 -2.81158306E-03 -3.07868649E-03
 -3.43001477E-04  2.04991020E-03  3.54230325E-03  5.95645698E-07  1.33847417E-03
  2.31263385E-03  4.65278945E-07 -1.64038110E-04 -2.83409168E-04  1.59670363E-07
  6.09867398E-05 -1.81068650E-08 -3.47586638E-08  8.80005302E-05 -1.53212490E-04
  5.46824055E-06 -2.09469248E-08 -4.32393157E-08  6.62618971E-05 -1.15228971E-04
 -1.63478189E-08 -2.69517986E-05 -4.65664852E-05 -7.15086786E-09  1.28133032E-08
 -7.01889783E-05  2.12119322E-07 -1.77394088E-04 -3.44318832E-04  3.33693644E-04
  4.18067645E-04  5.78379730E-04  3.39995056E-04 -4.33286213E-04  5.83770832E-08
  3.14064880E-04 -3.64058422E-04  4.79750689E-08  1.33758719E-04 -5.16763667E-04
 -3.17780296E-08 -4.05978805E-06  5.49050812E-09 -7.48035453E-09  2.23365715E-05
 -2.32774327E-05 -2.06574134E-05  1.63577020E-08 -2.09326078E-08  8.22355268E-05
 -8.96591239E-05 -4.48549693E-09 -9.15710122E-06  1.46620129E-06 -2.18867252E-09
 -6.12653894E-09 -1.53328016E-05 -3.08371434E-05 -6.94375886E-05 -4.85331959E-05
 -1.16247712E-04  2.30078723E-05  9.59841848E-04 -2.31011060E-03 -3.99124692E-03
  4.18428325E-07 -1.75604381E-03 -3.03399103E-03  3.53016910E-07 -1.01934444E-03
 -1.76110011E-03  2.95406788E-07  9.20742649E-05 -8.33724997E-08 -1.90940249E-07
  3.21399198E-07  3.63041348E-07  1.53334389E-07 -1.60831562E-07 -4.81357695E-07
  2.25287035E-03 -1.07413383E-07 -3.22246070E-07  1.84266891E-03  1.00069335E-08
 -1.17449245E-07  7.95711077E-04 -1.15573067E-08 -2.88185347E-05 -7.57366268E-05
 -2.07427648E-08  1.63090619E-08 -1.68577898E-08 -8.11618721E-05 -2.13396282E-04
 -4.38614194E-08  1.38942696E-08 -4.34377444E-05  5.12271037E-09  1.22933035E-08
 -1.22630370E-05  3.25506881E-05  7.84148657E-09  4.78492373E-09  3.07124120E-08
  4.91316700E-08 -9.00033000E-09 -2.25433219E-08  1.09579994E-07 -3.03022404E-08
  1.42470146E-07 -1.89144624E-04 -3.06060299E-08  1.07942436E-07 -1.45791822E-04
  4.56993482E-08  3.85640679E-08 -4.64675625E-04  5.50572662E-09  1.10048900E-05
 -2.25796765E-05  1.79665367E-09  6.52075281E-09  1.39614437E-08  2.53457712E-05
 -6.36578010E-05  1.57898909E-09  1.59333050E-08 -1.23060607E-05  2.64086333E-09
 -3.85705964E-09 -8.82294225E-06 -1.13293780E-05  4.23953875E-09  1.59078733E-09
  5.97108176E-09  2.37031865E-09  1.36809356E-08  1.28335506E-08 -1.97995866E-07
  4.45508512E-07  6.51794341E-08  2.96924015E-03  3.47762793E-07  3.47980172E-08
  2.39749457E-03  2.21407548E-07 -6.04295841E-08  1.76734178E-03 -2.64516831E-09
  3.21559540E-05 -1.43445219E-07 -3.28970848E-07  5.55047375E-07  6.23917582E-07
  2.65140577E-07 -5.15906526E-07 -6.99241213E-07  3.89261049E-03 -3.54660110E-07
 -4.59635830E-07  3.18382960E-03 -1.25418748E-07 -1.10663396E-07  1.37478923E-03
 -2.10249331E-08 -7.57534198E-05 -1.15816465E-04 -1.71943849E-08  4.13878194E-08
 -3.18844859E-08 -2.13408171E-04 -3.26325744E-04 -1.76920514E-08  6.23255058E-08
 -7.50539613E-05  1.33605395E-08  1.83093727E-08 -3.23528895E-05  4.98180789E-05
  1.38137358E-08 -3.04011518E-09  1.74640130E-08  4.55962340E-08 -7.84597129E-08
 -1.03257065E-07 -2.13928743E-08 -5.21293100E-08  2.33396377E-07  2.98856036E-04
 -4.83217170E-08  1.79125670E-07  2.51911187E-04  5.94124455E-08  1.57199837E-07
 -3.60715490E-04  7.46915911E-09  2.24639226E-05 -4.58315981E-05 -7.20975753E-10
  1.02741844E-08  1.94577528E-08  5.47989065E-05 -1.33795106E-04 -5.59327185E-09
  2.78435134E-08 -2.37047631E-05  5.11349071E-09 -5.96757899E-09 -1.85366016E-05
 -2.43247657E-05  6.81493958E-09  5.32805672E-09  5.48518111E-09 -9.38430870E-09
  4.90301051E-08  5.47940955E-08 -3.17621141E-07  7.23694063E-08  5.24118782E-07
  5.13000575E-03  4.03363534E-08  3.91534023E-07  4.14218995E-03 -5.15764154E-08
  1.54516805E-07  3.05343835E-03 -4.67784892E-09  5.48401263E-05  9.51665208E-05
  6.14532284E-04  1.41893514E-03 -2.42264707E-03 -2.61021017E-03 -2.98541814E-04
  3.82597717E-03  1.93928270E-03  2.35604206E-07  2.57801804E-03  1.18155968E-03
  1.67614702E-07  4.86234256E-04 -7.41915631E-04  3.77167957E-08  5.43121747E-05
 -2.04674899E-08 -1.67999730E-08 -2.56405768E-05 -2.33855055E-04  6.42965232E-06
 -1.50646825E-08 -8.29433877E-09 -3.24237375E-04 -4.11543341E-04 -9.34397185E-09
 -5.15212221E-05 -2.52457369E-05  2.02026969E-09  1.16843315E-08 -6.05960848E-05
  6.40823304E-05 -1.28293906E-04 -3.35455542E-04  6.44389782E-04  7.88129321E-04
  1.71866036E-03  7.28924668E-05  2.50060668E-04  3.82060155E-08  7.31550966E-05
  1.62880882E-04  3.01754527E-08  1.21173772E-04 -6.72974007E-04  4.34939391E-08
  2.24311299E-05  1.77164345E-09  7.59200910E-10  5.38949437E-05 -2.14005356E-06
  5.00781078E-05  6.66352367E-09 -9.10873264E-10  1.56240111E-04 -5.17220777E-05
 -1.02765545E-09 -6.48379218E-06 -1.34230023E-05  1.44538422E-09 -2.77611420E-09
 -2.31195528E-07 -4.63060227E-05  7.15848626E-06  1.45287686E-04 -4.52956401E-04
 -4.33186457E-04  4.88515768E-04  2.56671470E-03 -6.19192499E-03 -4.77337674E-09
  2.14035182E-03 -4.83029168E-03  8.88974372E-09  1.95374685E-03 -3.26537816E-03
  3.49153166E-08  8.05786876E-05 -1.56173892E-09 -1.40886622E-08  1.51408403E-04
 -1.06966975E-03 -2.46993152E-03  4.21740267E-03  4.54437608E-03  5.20082609E-04
 -1.97007293E-03 -6.08905686E-03 -4.74942228E-07 -1.20207379E-03 -3.95747737E-03
 -3.56232256E-07  7.41402300E-04  3.72265870E-04 -8.99838475E-08 -9.44828147E-05
  1.38048970E-08  4.18600752E-08 -2.33864270E-04  2.47147156E-04 -1.11047121E-05
  5.52652716E-10  2.46764250E-08 -4.11640090E-04  1.55589871E-04  1.61346842E-08
  2.56676684E-05  8.09918806E-05  1.24274789E-08 -1.26989144E-08  1.05924327E-04
  3.63663998E-05  1.26371179E-04  3.04815581E-04 -4.58585507E-04 -5.46531940E-04
 -3.63577306E-04  1.26722372E-04  1.68119272E-03 -1.26786735E-07  2.39824462E-05
  1.34361740E-03 -1.01814991E-07  2.64724215E-04  1.10070228E-03 -2.16041218E-08
  2.31862146E-05 -6.50708860E-09  1.02844314E-08  2.09679743E-06  4.33124901E-05
  7.30419649E-05 -2.08132520E-08  2.61653381E-08 -3.35222006E-05  1.45617512E-04
  5.52047405E-09  1.47138915E-05 -1.27303593E-05  4.01054485E-09  7.39583145E-09
  3.55255454E-05  2.31882602E-05 -1.25096874E-05 -2.52959143E-04  7.88395099E-04
  7.54113590E-04 -8.50774711E-04  6.19818147E-03  4.60458464E-03  1.58841268E-08
  4.83427163E-03  3.45348377E-03 -1.04369023E-08  3.26467210E-03  1.82574665E-03
 -4.97015733E-08 -1.40257770E-04  1.36154270E-08  1.73401280E-08 -7.92023921E-05
  2.43768453E-04  2.43508059E-03  4.83906836E-03 -6.16754801E-03 -6.34651509E-03
 -7.98094127E-04  5.14541327E-03  8.89212317E-03  1.62403474E-06  3.31968334E-03
  5.73629852E-03  1.26647915E-06 -3.51518295E-04 -6.07752489E-04  4.60783001E-07
  1.50827500E-04 -5.46636065E-08 -1.06166197E-07  2.19441849E-04 -3.82183836E-04
  2.05991685E-05 -7.88144540E-08 -1.60699105E-07  1.51577573E-04 -2.63823728E-04
 -4.17904024E-08 -6.73536912E-05 -1.16393953E-04 -2.10172836E-08  3.96904782E-08
 -1.54876775E-04  4.97668015E-07  2.39994572E-04  2.93034592E-04  2.79884144E-04
  1.99147926E-04  7.70077321E-04  1.23809116E-03 -1.43651238E-03 -5.10706189E-08
  1.05415632E-03 -1.12382594E-03 -4.20008516E-08  5.02016323E-04 -1.38784773E-03
 -2.51153408E-07 -2.06574552E-05  1.39218492E-08 -1.94862141E-08  4.97803836E-05
 -7.32457056E-05 -6.06607549E-05  3.67483226E-08 -5.10435932E-08  1.99731241E-04
 -2.44245659E-04 -1.14493590E-08 -2.38574920E-05  4.66183413E-06 -5.63938875E-09
 -1.46061630E-08 -4.29439725E-05 -7.93111943E-05  2.08918740E-03  3.54178395E-03
 -1.46083162E-03 -1.89260209E-03  1.38559845E-03 -5.36312443E-03 -9.26835546E-03
  1.64024537E-06 -4.14090013E-03 -7.15629518E-03  1.35265465E-06 -2.30964363E-03
 -3.99189197E-03  1.13111090E-06  2.18746165E-04 -1.32143545E-09 -2.71103086E-09
  1.92629766E-04 -3.35275051E-04  5.42847373E-04 -2.63822038E-07 -5.37731867E-07
  7.26384157E-07  7.83103664E-07  4.32609605E-07 -2.26773251E-07 -1.21394099E-06
  6.70278329E-03 -1.41143934E-07 -8.14113427E-07  5.48235192E-03 -1.89578173E-08
 -4.46246583E-07  2.36745146E-03 -3.09323681E-08 -7.34828183E-05 -2.73834742E-04
 -4.43219399E-08  4.28566266E-08 -4.98401742E-08 -2.06920444E-04 -7.71559257E-04
 -1.01179273E-07  4.77825235E-08 -1.29236682E-04  1.12394777E-08  3.75679863E-08
 -3.11589244E-05  1.17650580E-04  1.76716885E-08  1.97349929E-08 -1.09053615E-07
 -1.77703047E-07  7.67236177E-08  9.76638925E-08  4.96977375E-07 -2.81166890E-07
  3.36758821E-07 -1.72155034E-03 -2.33689534E-07  2.35149145E-07 -1.36688714E-03
  1.67954890E-08  1.22829455E-08 -2.20144001E-03  1.64003017E-08  2.53631977E-05
 -5.51231289E-05  6.75029074E-09  2.08391924E-08  3.68520510E-08  4.94225476E-05
 -1.48533414E-04  8.48160969E-09  4.41761209E-08 -3.20906886E-05  6.45951029E-09
 -1.02734045E-08 -2.12628941E-05 -2.42671401E-05  1.23034120E-08  3.80708598E-09
 -2.20540301E-07 -3.82206643E-07  1.83794838E-07  2.88671412E-07 -4.62930882E-07
  1.06485056E-06 -2.29968108E-07  9.69665566E-03  8.45952821E-07 -2.12513350E-07
  7.82761258E-03  5.07242538E-07 -4.14991007E-07  5.86775782E-03  1.09806615E-09
  1.01774702E-04  1.71780749E-04  2.28191730E-09  2.82344335E-08  1.67330004E-08
  3.25562719E-04 -4.59327479E-07 -9.36890960E-07  1.26736922E-06  1.36175138E-06
  7.48720379E-07 -1.28737362E-06 -1.59458365E-06  1.15823300E-02 -8.87816117E-07
 -1.02663865E-06  9.47334613E-03 -4.76309850E-07 -4.80031635E-07  4.09049755E-03
 -5.93443453E-08 -2.73881190E-04 -3.88134793E-04 -4.26171242E-08  1.03412936E-07
 -1.01638834E-07 -7.71639958E-04 -1.09361265E-03 -5.23917449E-08  1.70711512E-07
 -2.23321024E-04  3.90081475E-08  5.15144148E-08 -1.17020336E-04  1.66981180E-04
  3.24231246E-08 -1.28313586E-08  8.23944852E-08  1.63071920E-07 -1.59008931E-07
 -2.28660404E-07  8.42416923E-08 -1.49351806E-08  6.19239975E-07  5.63964580E-04
 -2.60591999E-08  4.69473970E-07  4.87624497E-04  2.86504001E-07  3.80053679E-07
 -1.30313678E-03  2.08992901E-08  6.33337466E-05 -1.33812681E-04  1.00369252E-09
  2.61190895E-08  5.09685539E-08  1.47635797E-04 -3.91308090E-04 -3.49944274E-09
  6.56395966E-08 -6.92631507E-05  1.34047256E-08 -1.63731158E-08 -5.53635540E-05
 -6.87943275E-05  1.72834642E-08  1.09575935E-08 -4.23221942E-07 -7.54907623E-07
  4.45243384E-07  6.67790690E-07 -6.88163782E-07 -2.61098049E-07  8.40947298E-07
  1.67554049E-02 -2.36671385E-07  6.38101414E-07  1.35257665E-02 -4.26167108E-07
  5.71496670E-08  1.01392874E-02  1.38526051E-09  1.71801291E-04  2.99181507E-04
 -3.04044296E-08  3.05874222E-08  2.69529022E-08  5.39580458E-04  9.45668765E-04
  2.15121632E-03  4.28569410E-03 -5.49213015E-03 -5.59542500E-03 -7.04763643E-04
  1.17784024E-02  3.63770573E-03  5.87191483E-07  7.81962143E-03  1.97919910E-03
  4.03220702E-07  1.16323426E-03 -1.85158184E-03  8.47200209E-08  1.38589893E-04
 -7.53231765E-08 -3.90568597E-08  2.73927471E-05 -6.08378451E-04  2.64239865E-05
 -7.96380723E-08 -2.41806886E-08 -7.66592884E-04 -1.12826727E-03 -2.28913054E-08
 -1.58273337E-04 -4.70181072E-05 -2.60629806E-09  3.05135275E-08 -1.38950004E-04
  1.96836625E-04 -5.76846366E-04 -1.19146082E-03  1.52427768E-03  1.95283943E-03
  4.46849680E-03 -1.39258941E-03  1.29882540E-03  1.49234400E-07 -1.06893630E-03
  9.24260797E-04  1.22510245E-07 -6.97339819E-04 -1.50993036E-03  1.71134142E-07
  8.25998443E-05  1.52575514E-09  5.70348752E-09  1.56587360E-04  3.34769859E-05
  2.00723789E-04  8.30935116E-09  3.74976762E-09  4.50254802E-04 -3.79398616E-05
 -3.46072073E-10 -9.60418363E-06 -5.21181070E-05  4.45286034E-09 -4.02320534E-09
  2.78355561E-05 -1.18045914E-04  2.38850819E-03  4.36922615E-03 -3.03425679E-03
 -3.98069460E-03 -3.57741966E-04  8.06708474E-03 -1.56538393E-02  2.06469781E-07
  6.61084950E-03 -1.23788176E-02  1.89334194E-07  5.84582477E-03 -8.26306736E-03
  2.40883503E-07  1.93855783E-04 -7.52529564E-10 -3.37005679E-08  4.09042440E-04
 -1.72450531E-04  4.84174534E-04  1.34758862E-08 -7.61668150E-08  1.15463093E-03
 -3.74555157E-03 -7.46158958E-03  9.56091790E-03  9.74322000E-03  1.22923621E-03
 -3.72264538E-03 -1.60382326E-02 -1.15605771E-06 -2.03446504E-03 -1.01412329E-02
 -8.56103100E-07  1.85073197E-03  9.79093132E-04 -2.37450544E-07 -2.41027182E-04
  3.44074574E-08  1.33287868E-07 -6.08444404E-04  7.36946581E-04 -4.57866789E-05
  1.15040109E-08  1.20847054E-07 -1.12861295E-03  5.48615313E-04  3.75807580E-08
  4.81723667E-05  2.13372015E-04  3.34473461E-08 -4.33253444E-08  2.43223568E-04
  1.12009977E-04  4.24685467E-04  9.24370150E-04 -1.11548172E-03 -1.29112097E-03
 -4.45055547E-04  1.95824028E-04  5.89778485E-03 -7.91144566E-09 -5.27285414E-06
  4.63608526E-03 -7.10197781E-10  6.82390537E-04  3.49051320E-03  1.90364559E-07
  8.93234609E-05 -1.58829968E-08  2.78530145E-08  5.16771482E-05  1.45270820E-04
  2.43429383E-04 -4.40767365E-08  6.57148228E-08  3.79110831E-05  4.43482565E-04
  1.48456173E-08  4.23828537E-05 -4.76974713E-05  1.21858649E-08  1.74097131E-08
  1.20179296E-04  3.98737015E-05 -4.15695093E-03 -7.60422615E-03  5.28093117E-03
  6.92850629E-03  6.21033748E-04  1.56593920E-02  1.00541933E-02 -4.41032460E-07
  1.23816904E-02  7.71848375E-03 -3.97267323E-07  8.25538429E-03  3.71330173E-03
 -4.59232060E-07 -3.37390363E-04  3.16389968E-08  3.74072136E-08 -1.72391369E-04
  6.10090578E-04 -8.42610170E-04  6.76595202E-08  6.60005991E-08 -3.97938319E-04
  1.61859594E-03  1.32742896E-07  2.50559055E-07 -2.77222115E-07 -3.00869077E-07
 -1.32399186E-07  2.30277069E-07  3.79351452E-07 -1.92012322E-03  1.53571567E-07
  2.42306459E-07 -1.57050747E-03  2.85203575E-08  2.98809144E-08 -6.78181813E-04
  1.06247023E-08  2.56155422E-05  4.42251521E-05  1.23106261E-08 -2.34387261E-08
  1.48681594E-08  7.21438059E-05  1.24609340E-04  1.76148828E-08 -3.26470487E-08
  3.70220363E-05 -5.68047317E-09 -8.48495484E-09  1.09307147E-05 -1.90189622E-05
 -6.79810910E-09  9.77545243E-10 -6.42716891E-09 -1.90145191E-08  3.73949741E-08
  4.68513564E-08  5.99879217E-09 -7.21699960E-09 -1.75774127E-07 -2.75337160E-04
 -3.05747399E-09 -1.35608527E-07 -2.27269109E-04 -4.71230684E-08 -1.08933882E-07
  8.75382879E-05 -4.48550907E-09 -1.22577774E-05  2.37298136E-05 -1.05012979E-09
 -5.51626261E-09 -1.14493409E-08 -3.19495667E-05  6.93283653E-05 -4.06503545E-10
 -1.48440694E-08  1.21922073E-05 -2.69668845E-09  3.41280623E-09  9.28818983E-06
  1.32764520E-05 -3.98930283E-09 -1.87420008E-09  8.17285466E-08  1.49933025E-07
 -1.02373496E-07 -1.39285929E-07  6.92133537E-08 -1.11847882E-07 -2.55279828E-07
 -2.11999844E-03 -8.38324601E-08 -1.95351133E-07 -1.71268088E-03 -2.51781183E-08
 -8.27942647E-08 -1.21607656E-03  3.14773214E-09 -2.46325409E-05 -4.25596693E-05
  6.43235524E-09 -1.01919091E-08  4.85868567E-09 -7.66534500E-05 -1.32454767E-04
  1.62454323E-08 -2.51727340E-08  1.93915066E-05  4.52263231E-04  8.27478481E-04
 -8.30548190E-04 -8.38577382E-04 -1.07738061E-04  2.70955367E-04  1.45737319E-03
  3.04534065E-07  1.56705364E-04  9.25371386E-04  2.41289227E-07 -1.06927338E-04
 -8.71223010E-05  9.42456042E-08  2.17012327E-05 -5.96064546E-09 -1.75797058E-08
  3.57879042E-05 -6.55372849E-05  4.40478996E-06 -1.05534338E-08 -2.65378116E-08
  6.35072473E-05 -4.74956062E-05 -7.17034497E-09 -3.54373971E-06 -1.94591730E-05
 -3.58042574E-09  6.76676453E-09 -2.10870956E-05  9.36189064E-06 -3.84570173E-06
 -3.41201658E-05  1.09118867E-04  1.15703425E-04  5.43109613E-05 -1.59242387E-04
 -7.03744848E-04  1.39936448E-08 -1.24462818E-04 -5.56050522E-04  1.07591582E-08
 -1.78197136E-04 -4.41294534E-04 -3.81323216E-08 -9.16008006E-06  2.63827640E-09
 -5.13102759E-09 -6.51640481E-06 -1.47134150E-05 -2.38669103E-05  6.45306101E-09
 -1.34512191E-08 -9.67083377E-06 -4.24409657E-05 -2.70363308E-09 -4.73147693E-06
  4.46558127E-06 -2.14606475E-09 -2.90818425E-09 -1.22047399E-05 -2.94554110E-06
  3.15675833E-04  5.91135739E-04 -4.50369623E-04 -5.85495631E-04 -2.09060109E-05
 -8.35579845E-04 -1.16769376E-03  2.98651784E-07 -6.50908551E-04 -9.09386231E-04
  2.44736301E-07 -3.46446507E-04 -5.13202024E-04  1.94322030E-07  2.96232908E-05
  4.35855140E-10  1.38750287E-09  2.01375275E-05 -5.01804061E-05  7.44733433E-05
  4.21774589E-09  8.64925911E-09  4.86559777E-05 -1.32216216E-04  5.28715545E-11
  1.20260309E-05  7.81384690E-04  1.42965187E-03 -1.43496465E-03 -1.44860259E-03
 -1.85940854E-04  1.45734953E-03  1.94578336E-03  5.40777687E-07  9.25487446E-04
  1.22016795E-03  4.25632790E-07 -8.70500492E-05 -2.07002232E-04  1.62763411E-07
  3.75093930E-05 -1.69156229E-08 -2.91769310E-08  6.50329617E-05 -1.11347163E-04
  7.61662312E-06 -2.68132869E-08 -5.00245073E-08  4.69294879E-05 -1.18109012E-04
 -1.29527041E-08 -1.94588186E-05 -2.59059022E-05 -6.43344564E-09  1.16609910E-08
 -3.65020841E-05 -5.26361741E-06  5.04961352E-05  4.94516053E-05  1.14670600E-04
  1.08832986E-04  2.98737198E-04  1.74461031E-04 -2.57171543E-04  2.81713523E-09
  1.59194449E-04 -1.98324078E-04  2.74585595E-09  7.63666463E-05 -3.21313591E-04
 -6.72650707E-08 -1.44758572E-06  3.83954995E-09 -5.96500436E-09  1.33843870E-05
 -1.27551149E-05 -4.61326826E-06  1.02269421E-08 -1.63666567E-08  5.19433877E-05
 -4.78232374E-05 -3.40731115E-09 -4.45752923E-06 -7.69992728E-07 -1.97970228E-09
 -4.10423958E-09 -7.48581820E-06 -1.82868060E-05  5.45458420E-04  1.02142252E-03
 -7.78179020E-04 -1.01164929E-03 -3.61020527E-05 -1.16760743E-03 -2.17730293E-03
  5.75424011E-07 -9.09300030E-04 -1.69582651E-03  4.70536530E-07 -5.13130598E-04
 -9.36108221E-04  3.76334241E-07  5.11846195E-05  1.92915108E-09  2.75028336E-09
  4.98674018E-05 -7.80419990E-05  1.28677511E-04  1.05921678E-08  1.65248173E-08
  1.31431226E-04 -2.01226045E-04 -2.53355005E-10  1.74435529E-05  3.20702331E-05
  8.74067480E-08  1.63810744E-07 -1.77157433E-07 -1.98525684E-07 -9.44161888E-08
  3.02737069E-07  2.24010477E-07 -1.42956066E-03  2.10179906E-07  1.39162133E-07
 -1.16925157E-03  1.08267691E-07  9.14321001E-09 -5.04847589E-04  7.86104272E-09
  4.27409101E-05  4.46365216E-05 -1.41596295E-10 -2.41970268E-08  1.32008415E-08
  1.20431118E-04  1.25768360E-04 -1.49976387E-08 -4.54736373E-08  2.75637160E-05
 -7.21774253E-09 -6.37919352E-09  1.82842768E-05 -1.92180234E-05 -4.54321709E-09
  4.86259500E-09 -3.98161100E-08 -7.30333146E-08  5.74852302E-08  7.65900655E-08
  8.75493113E-08  2.27824736E-08 -9.63543268E-08 -2.45170173E-04  1.96723551E-08
 -7.47985124E-08 -2.01556138E-04 -1.59932572E-08 -1.00425557E-07  3.67668140E-05
 -2.16370991E-09 -8.73917023E-06  1.84552357E-05  1.44045489E-09 -3.98630323E-09
 -5.57985353E-09 -2.10516605E-05  5.51258804E-05  4.41983230E-09 -1.21329557E-08
  9.23403771E-06 -2.13020202E-09  1.96731170E-09  7.80821174E-06  9.79396722E-06
 -2.74450040E-09 -2.99404570E-09  5.15198824E-08  9.20436964E-08 -5.31823222E-08
 -7.57166957E-08  9.31202953E-08  2.54585208E-07 -3.56097973E-07 -2.10770631E-03
  2.09726474E-07 -2.77214838E-07 -1.70136160E-03  1.94235413E-07 -1.56526307E-07
 -1.27947992E-03  1.60999426E-09 -2.12226547E-05 -3.74749916E-05  1.00213417E-08
 -4.03979099E-09  8.81500090E-10 -6.61584741E-05 -1.18886859E-04  2.65638477E-08
 -7.89311545E-09  1.65031034E-05 -8.19984605E-10 -8.09710722E-10  1.51077607E-05
 -1.50500439E-07 -2.82764904E-07  3.08318115E-07  3.40160661E-07  1.64716502E-07
 -2.14606652E-07 -5.20150171E-07  2.48794795E-03 -1.40275532E-07 -3.41297965E-07
  2.03493536E-03 -1.96208963E-08 -1.28341965E-07  8.78701606E-04 -1.28406499E-08
 -4.50898277E-05 -9.46715258E-05 -2.28669691E-08  2.47219080E-08 -2.02122552E-08
 -1.27019157E-04 -2.66747404E-04 -4.59109793E-08  3.20222681E-08 -4.79704326E-05
  6.77202196E-09  1.42998363E-08 -1.92225582E-05  4.07005724E-05  7.66079860E-09
  3.29212113E-09  3.78371766E-09  1.06109338E-08 -1.55917192E-08 -2.46797302E-08
  1.09845167E-07  1.48869364E-08  2.06576672E-07 -2.79585901E-04  6.56658557E-09
  1.55452622E-07 -2.17940730E-04  8.66212689E-08  8.24456754E-08 -5.63121791E-04
  6.13541169E-09  1.13155221E-05 -2.44231995E-05  2.80036543E-09  7.40077689E-09
  1.46289743E-08  2.42129273E-05 -6.90687293E-05  4.07606614E-09  1.74427055E-08
 -1.33141734E-05  2.90851631E-09 -4.11819376E-09 -9.87335988E-06 -1.16836615E-05
  4.95154849E-09  1.26400474E-09 -8.87802179E-08 -1.59213091E-07  9.43438470E-08
  1.36325714E-07 -1.63014781E-07  3.61947345E-07  9.52828867E-08  3.66881051E-03
  2.82696820E-07  6.30712504E-08  2.96150178E-03  1.62295501E-07 -5.29739011E-08
  2.22719342E-03 -2.00749133E-09  3.77493993E-05  6.47579993E-05 -3.10384891E-09
  1.35953488E-08  4.11780441E-10  1.19737763E-04  2.04277574E-04 -5.82583608E-09
  3.27740475E-08 -2.87238984E-05  7.43637932E-10  2.44219709E-09 -2.53847416E-05
  4.47074777E-05  1.20348412E-03  2.18721637E-03 -2.14163142E-03 -2.28323728E-03
 -2.68334890E-04  2.30590623E-03  3.96828453E-03  3.34170803E-07  1.44889502E-03
  2.49194700E-03  2.49889982E-07 -3.08656421E-04 -5.38179530E-04  7.04689906E-08
  5.10589791E-05 -1.59134630E-08 -3.37884789E-08  1.42651987E-04 -2.49074848E-04
  6.52121572E-06 -1.08767584E-08 -2.83676800E-08  1.67948658E-04 -2.95071918E-04
 -1.02369939E-08 -3.03444656E-05 -5.22113554E-05 -7.44813927E-09  1.37578881E-08
 -5.35689452E-05  3.77431505E-07 -2.37194439E-04 -4.71844374E-04  4.79594770E-04
  5.85165532E-04  6.21446326E-04 -2.92356185E-04 -1.49778997E-03  4.35477211E-08
 -1.97617955E-04 -1.18193008E-03  3.33538779E-08 -3.15869220E-04 -1.13415611E-03
 -1.10880826E-08 -1.51441559E-05  4.21594005E-09 -6.79088712E-09 -9.23370288E-08
 -3.53832755E-05 -4.24585307E-05  1.22448638E-08 -1.72411885E-08  2.80677617E-05
 -1.20048900E-04 -3.97778165E-09 -1.21714766E-05  7.39872531E-06 -2.74627066E-09
 -4.93259723E-09 -2.78029718E-05 -2.06044026E-05  8.33716371E-04  1.54581078E-03
 -1.12014008E-03 -1.40592620E-03 -7.42705340E-05 -2.40548903E-03 -4.18912416E-03
  1.23674864E-07 -1.86257748E-03 -3.24463832E-03  1.13209092E-07 -1.13981237E-03
 -1.98988277E-03  1.21068919E-07  9.36818231E-05 -6.49855705E-09 -1.15645378E-08
  8.55495842E-05 -1.48326012E-04  2.32209324E-04 -1.14961352E-08 -2.12877034E-08
  2.21045001E-04 -3.82982772E-04  7.02742619E-09  3.31591983E-05  5.73430847E-05
  4.82711379E-09 -7.37147361E-09  1.08405231E-04 -3.90917741E-06 -7.10045889E-06
  6.95023594E-06  7.71998818E-06  1.10865875E-06  2.27408306E-03 -1.33269270E-03
 -1.68072435E-08  1.56830078E-03 -9.17955114E-04 -1.97675193E-08  6.48681317E-04
 -3.73215160E-04 -9.07426052E-09 -1.33456128E-07 -1.17682640E-08  7.59323954E-09
 -1.01553697E-04 -5.72440989E-05  1.36727938E-08 -1.44368285E-08  7.61417027E-09
 -3.96840300E-04 -2.26753930E-04 -3.34516358E-10 -3.10339834E-05  1.81825789E-05
  5.78117975E-09  2.26689950E-09  3.46645764E-07  5.89095684E-05  1.28960372E-05
 -7.26914696E-06  1.62567279E-04  1.97411762E-04  1.05966710E-03  5.13376331E-05
  1.12786476E-03  5.20234223E-09  2.28009791E-05  8.74005890E-04  4.42889209E-09
  1.82902337E-04  8.38191642E-05  4.72571379E-08  3.09302176E-05 -1.60571647E-09
  5.37287794E-09  4.64015367E-05  2.32159988E-05  7.95718734E-05 -3.85964842E-09
  1.10708667E-08  1.18037882E-04  4.01265356E-05  1.89853243E-09  2.98267163E-06
 -1.83382483E-05  3.01600393E-09  1.28195368E-09  2.06151695E-05 -2.60295509E-05
 -2.59324046E-06 -4.80469256E-06  3.46096628E-06  4.38783033E-06  3.56211521E-11
  4.42180090E-03 -2.54153012E-03 -1.88887162E-09  3.54994699E-03 -2.04089844E-03
 -1.96215901E-09  2.74065136E-03 -1.57789875E-03 -1.10360602E-10 -2.97148342E-07
  4.65710820E-09 -2.94528194E-09  7.90703491E-05  4.60529666E-05 -7.27525838E-07
  1.36796735E-08 -9.16187708E-09  2.33611681E-04  1.35850835E-04  3.47606715E-10
 -7.16531698E-06  3.90572765E-06  5.63972766E-09  3.51959501E-09 -9.12085701E-08
  7.95750686E-05  9.33314155E-04  1.84325622E-03 -4.92048473E-03  1.98559866E-02
 -5.61927576E-03 -1.21548090E-02  1.23755293E-05  4.31740642E-07  6.54575234E-03
 -6.67747433E-06  6.63647380E-08 -9.45632190E-03  9.62776285E-06  2.92314602E-07
  4.77469721E-04  6.80530214E-08 -6.94370586E-11 -1.72606836E-03  3.51523430E-06
 -1.00179283E-03 -3.79349737E-08  3.92352766E-11  1.27986871E-03 -2.59929921E-06
  1.55851879E-08 -2.04028615E-04  2.07939253E-07  1.79605376E-08 -3.67394129E-11
  1.17040126E-04 -3.58014191E-07 -3.09116998E-04 -7.23573147E-04  8.59332122E-04
  2.61726081E-03 -4.92897202E-03  7.82973560E-03 -8.43112693E-05 -2.89273027E-08
  6.09202931E-03  1.44954962E-04  1.33005668E-08  4.75188683E-03  2.95499155E-03
 -3.62888408E-07 -1.77339814E-04  4.79820459E-09 -3.44273248E-08 -4.51848537E-05
 -1.74279468E-04  2.40048857E-04  9.76800254E-08  2.51378390E-08 -7.82993909E-05
 -7.11777264E-04 -3.91191503E-09  4.56220644E-05 -2.19201720E-05  5.02207676E-09
 -3.08745267E-08 -2.37024386E-04  1.26098871E-05 -3.09116704E-04 -7.23572311E-04
  8.59330405E-04  2.61725654E-03 -4.92897809E-03  7.82988436E-03  6.83766406E-05
 -2.89264765E-08  6.09171585E-03 -1.57358156E-04  1.33013486E-08  4.74585187E-03
 -2.96465666E-03 -3.62888118E-07 -1.77339792E-04  4.86824218E-09  3.44174771E-08
 -4.44749400E-05  1.74461997E-04  2.40049382E-04  9.76286481E-08 -2.53368171E-08
 -7.53969753E-05  7.12088383E-04 -3.91198965E-09  4.56663130E-05  2.18270496E-05
  5.14781203E-09  3.08538618E-08 -2.37096753E-04 -1.11610370E-05  4.01176447E-01
  1.90200888E-03  3.74439930E-03 -8.58787189E-03  3.90318840E-02 -8.89067432E-03
 -2.78129322E-02  2.83171716E-05  1.00792646E-06  8.02346495E-03 -8.19690806E-06
  3.22659278E-07 -1.51168868E-02  1.53890464E-05  6.47077952E-07  1.28747244E-03
  1.83182296E-07 -1.86845879E-10 -4.28023179E-03  8.71705763E-06 -7.65383203E-04
  3.14563623E-08 -3.06391323E-11 -6.09224286E-04  1.25798990E-06  1.70394831E-08
 -7.87332706E-05  8.05923292E-08  7.35831366E-08 -1.50223582E-10  4.76478005E-06
 -1.54728385E-08 -7.23545846E-04 -1.69804023E-03  2.14287105E-03  4.80794247E-03
 -8.84397540E-03  1.88354216E-02 -1.27706640E-04 -7.97700802E-08  1.45218123E-02
  5.17713146E-04 -3.17040633E-08  1.09875501E-02  5.70608511E-03 -7.39097010E-07
 -3.44217471E-04  2.25521219E-08 -6.66948844E-08 -9.59476451E-05 -4.42910332E-04
  2.93249120E-04  1.81040675E-07  2.05782158E-08 -2.02833861E-04 -1.49361673E-03
 -1.42372217E-08  5.98225734E-05  4.78734436E-06  6.40343607E-09 -6.03756867E-08
 -4.71506357E-04 -7.79015617E-06 -7.23545169E-04 -1.69803839E-03  2.14286772E-03
  4.80793438E-03 -8.84399292E-03  1.88356274E-02  8.93740950E-05 -7.97683739E-08
  1.45207153E-02 -5.47278140E-04 -3.17023265E-08  1.09758915E-02 -5.72843587E-03
 -7.39096639E-07 -3.44217456E-04  2.26877345E-08  6.66488151E-08 -9.41435474E-05
  4.43297231E-04  2.93250764E-04  1.80998510E-07 -2.09471228E-08 -1.96742763E-04
  1.49442629E-03 -1.42373818E-08  5.98120892E-05 -4.90949800E-06  6.64933177E-09
  6.03492100E-08 -4.71449406E-04  1.06716566E-05  6.09715917E-01  9.43445180E-01
 -7.38280077E-06 -1.13700065E-04  6.25106670E-04 -4.26276373E-02  1.51142038E-03
  3.47634945E-02 -3.53849719E-05 -1.45737043E-06  4.24428871E-03 -4.28281826E-06
 -9.07064522E-07  3.80017956E-03 -3.85998295E-06 -8.72380787E-07 -2.21115309E-03
 -3.29041338E-07  3.35368694E-10  6.80965839E-03 -1.38690312E-05 -2.91424120E-03
 -3.89751424E-07  3.94605409E-10  1.03033086E-02 -2.10091412E-05  1.93360497E-08
 -8.50123844E-04  8.64976360E-07 -1.99032149E-07  4.05881783E-10  5.71938343E-04
 -1.74651759E-06  8.58638861E-04  2.14147163E-03 -3.21655820E-03 -3.29400701E-03
  6.58004450E-03 -3.07525028E-02 -6.38377705E-04  2.91061904E-07 -2.34032298E-02
 -1.80810187E-03  3.25393572E-07 -1.66200366E-02 -5.76072748E-03  9.16800595E-07
  3.33600834E-04 -6.49953770E-08  5.97684855E-08  7.43377061E-05  7.87376099E-04
  2.79286259E-04 -1.51004599E-07  5.90005987E-08  2.02203295E-04  1.87695934E-03
  3.41163363E-08  4.48120078E-05 -1.51682748E-04  7.10755907E-11  5.94101311E-08
  4.79221089E-04  1.62981002E-04  8.58639744E-04  2.14147298E-03 -3.21655889E-03
 -3.29400615E-03  6.58007946E-03 -3.07511314E-02  7.00965468E-04  2.91063945E-07
 -2.33994932E-02  1.85574686E-03  3.25394412E-07 -1.66082606E-02  5.79454716E-03
  9.16803937E-07  3.33601063E-04 -6.51166725E-08 -5.96360047E-08  7.11310937E-05
 -7.87672008E-04  2.79282963E-04 -1.51124721E-07 -5.86924531E-08  1.94549444E-04
 -1.87776240E-03  3.41165262E-08  4.51214942E-05  1.51591566E-04 -1.70914523E-10
 -5.94100590E-08  4.78215833E-04 -1.65906652E-04 -4.59430993E-02 -1.37153551E-01
  2.75448320E-01 -2.93575963E-03 -3.80153088E-03 -8.57604172E-04 -6.12087551E-02
  2.62033612E-03  3.90581430E-02 -3.97728006E-05 -2.06471720E-06 -9.01648549E-04
  9.54842404E-07 -1.24993741E-06  9.02614850E-03 -9.18738891E-06 -1.13351000E-06
 -2.89371387E-03 -3.16862137E-07  3.24000395E-10  8.36609598E-03 -1.70395857E-05
 -3.58583314E-03 -2.61163643E-07  2.65720345E-10  1.18481847E-02 -2.41652548E-05
  2.23279073E-08 -9.54534479E-04  9.71407309E-07 -1.96252392E-07  4.00012280E-10
  6.54096553E-04 -1.99637137E-06  2.61914597E-03  4.81258046E-03 -3.30339286E-03
 -3.87222305E-03  1.08127603E-02 -3.47138160E-02 -9.98358880E-04 -4.99110090E-07
 -2.63212940E-02 -2.49116731E-03 -3.06236250E-07 -1.78492225E-02 -8.14309818E-03
  6.14460844E-07  4.17899414E-04 -8.11239594E-08  8.64959692E-08  7.86277232E-05
  9.55713812E-04  1.98570117E-04 -2.11179012E-07  9.38037343E-08  1.40142844E-04
  2.33542135E-03  4.28437715E-08  3.64836186E-05 -1.54499333E-04  3.54466291E-09
  7.99179188E-08  5.84762186E-04  1.97778027E-04  2.61913760E-03  4.81256379E-03
 -3.30337744E-03 -3.87219868E-03  1.08127966E-02 -3.47116388E-02  1.06897879E-03
 -4.99145808E-07 -2.63161085E-02  2.54473163E-03 -3.06265864E-07 -1.78325537E-02
  8.17938785E-03  6.14436824E-07  4.17899320E-04 -8.12997324E-08 -8.63309251E-08
  7.47363786E-05 -9.56024751E-04  1.98565018E-04 -2.11370619E-07 -9.33740542E-08
  1.30621525E-04 -2.33596358E-03  4.28441318E-08  3.67988921E-05  1.54424979E-04
  3.21927605E-09 -7.99321045E-08  5.83541825E-04 -2.01347322E-04 -1.33537112E-01
 -2.89694938E-01  3.63491883E-01  4.93693054E-01  1.31749602E-02  3.16202514E-02
 -5.70224541E-02 -9.36259706E-02 -5.85774341E-03 -1.23230931E-02  1.25955840E-05
 -2.43109984E-07 -2.15596356E-02  2.20171446E-05 -1.68591741E-07 -1.09828697E-02
  1.12198186E-05 -1.02015370E-06 -3.34817582E-04 -8.67891579E-07  8.81700392E-10
  6.76374067E-03 -1.37773451E-05 -1.93846694E-03 -2.23972592E-06  2.26986192E-09
  1.46234722E-02 -2.98000268E-05 -7.81291505E-08 -6.31454642E-05  6.34318471E-08
 -6.32997712E-07  1.29086001E-09 -1.03356381E-03  3.16277953E-06 -4.92691429E-03
 -8.84023214E-03  6.57557729E-03  1.08153548E-02  1.38309131E-02 -7.84027081E-02
 -9.81801781E-03  8.29642074E-06 -6.06760449E-02 -1.04724571E-02  6.86128346E-06
 -4.47044461E-02 -1.10813142E-02  6.61738914E-06  5.78131308E-04 -9.14165359E-08
 -4.05128272E-08 -5.44904542E-04  1.66953270E-03  7.69162367E-04 -2.00950596E-07
 -3.36107934E-07 -1.84992410E-03  4.09061226E-03  1.49760192E-08  2.31578510E-04
 -1.96114420E-04 -1.08915532E-07  5.06289582E-08  6.20768224E-04  1.05967513E-03
 -4.92692491E-03 -8.84025730E-03  6.57561678E-03  1.08153844E-02  1.38310259E-02
 -7.83824370E-02  9.97750591E-03  8.29655574E-06 -6.06544976E-02  1.05958857E-02
  6.86139002E-06 -4.46817047E-02  1.11722472E-02  6.61749272E-06  5.78132514E-04
 -9.13326724E-08  4.06997187E-08 -5.51696380E-04 -1.66729790E-03  7.69158388E-04
 -2.00261910E-07  3.36520361E-07 -1.86656511E-03 -4.08303763E-03  1.49757794E-08
  2.31977921E-04  1.95642657E-04 -1.09120982E-07 -5.01839425E-08  6.14283183E-04
 -1.06344650E-03 -3.81397996E-02 -1.03867297E-01  1.90428534E-01  2.52470420E-01
  1.61439005E-01  2.94101323E-02  6.73726801E-02 -1.13506053E-01 -1.34438727E-01
 -1.36555336E-02 -2.08693891E-01  2.44882860E-04  3.97473521E-06 -1.39737973E-01
  1.71374054E-04  3.47420041E-06  3.59702653E-02  3.27234108E-05  2.33432637E-06
  1.94015721E-03  1.03954196E-06 -7.51334726E-10 -1.17242137E-02  3.99912869E-05
 -4.76460024E-04  5.96631728E-07 -2.84216902E-10 -1.41618578E-02  6.89300633E-05
 -1.96240978E-07  2.61915975E-03 -3.18899924E-06  4.39337742E-07 -1.31918702E-09
 -2.69828397E-03  1.67231436E-05 -3.97661826E-03 -9.50135719E-03  1.47794071E-02
  1.64452158E-02  3.05905479E-02  6.64512060E-02 -2.09965764E-02  2.01476572E-06
  5.18389885E-02 -1.82306518E-02  1.45422328E-06  5.50823342E-02 -1.63759475E-02
  7.24928923E-07 -5.45489982E-04  9.67740490E-08 -2.11176133E-07 -1.29553282E-03
 -5.41027226E-04 -1.86269637E-03  1.33341186E-07 -5.60731960E-07 -5.24872084E-03
 -9.30029750E-04 -1.13373673E-07 -3.71102948E-06  6.13915113E-04 -1.17783676E-07
 -1.34230814E-07 -1.15131758E-03  9.50223922E-04 -3.99034619E-03 -9.53445739E-03
  1.48343111E-02  1.65074458E-02  3.07388902E-02  6.66194290E-02  2.08994257E-02
  2.02115862E-06  5.19824828E-02  1.81476020E-02  1.45898886E-06  5.52532455E-02
  1.63230979E-02  7.32420666E-07 -5.45329232E-04  9.72189346E-08  2.11120509E-07
 -1.29517536E-03  5.46942346E-04 -1.86196774E-03  1.34865203E-07  5.60644332E-07
 -5.24977803E-03  9.55570656E-04 -1.13497447E-07 -4.42648616E-06 -6.14747957E-04
 -1.17450854E-07  1.34845843E-07 -1.15914622E-03 -9.44393041E-04 -1.62697640E-02
 -3.70938244E-02  5.60264315E-02  8.52119512E-02  7.20948166E-02  2.65164676E-01
 -2.99475195E-05 -6.86052786E-05  1.15620063E-04  1.36817587E-04  1.40541670E-05
  2.44887873E-04  3.17481820E-02 -4.03807569E-09  1.71462139E-04  2.85875286E-02
 -3.52443950E-09  3.25999201E-05  6.81176879E-02 -2.38910421E-09 -1.97781106E-06
 -7.50952083E-10  3.02443719E-07  4.41754194E-05  1.58247261E-02  5.32074829E-07
 -2.85776893E-10  3.16517590E-07  9.46020553E-05  3.93337074E-02  1.99060105E-10
 -3.19180956E-06 -5.12450544E-04 -1.29656933E-09 -4.16156285E-07  2.81775983E-05
  8.32706834E-03  6.74485550E-03  1.62632046E-02 -2.69756139E-02 -3.05808702E-02
 -7.28930413E-02 -6.17214279E-02  1.88655454E-02 -3.13638154E-06 -5.23330624E-02
  1.11718103E-02 -2.33723938E-06 -6.76181739E-02  2.92491539E-02 -3.67502653E-06
 -7.74809364E-05 -7.51158926E-09  7.02137408E-08  9.16564594E-04  3.12603462E-04
 -3.54009244E-04 -1.87518509E-07  9.23427334E-08  2.41974722E-03  2.03991672E-03
  6.07759643E-08 -2.64116245E-04 -4.12868175E-04  1.05913676E-07  6.66480796E-08
  1.00157085E-03 -6.07661169E-04 -6.73673781E-03 -1.62438045E-02  2.69453731E-02
  3.05475310E-02  7.28302591E-02  6.16241625E-02  1.86973464E-02  3.13226235E-06
  5.22500322E-02  1.10284142E-02  2.33427481E-06  6.75651904E-02  2.90781649E-02
  3.67353894E-06  7.85929036E-05  7.45550773E-09  6.97680210E-08 -9.12649284E-04
  3.15218208E-04  3.57777082E-04  1.87439536E-07  9.08237160E-08 -2.40071528E-03
  2.04784914E-03 -6.05457033E-08  2.63279882E-04 -4.12156799E-04 -1.05401839E-07
  6.68056027E-08 -1.00290860E-03 -5.99601101E-04  1.65695542E-05  3.77773599E-05
 -5.70620931E-05 -8.67951195E-05 -7.33221465E-05  2.00784546E-04  4.62338737E-01
 -1.35431250E-06 -3.09152294E-06  5.16972723E-06  6.21205978E-06  6.55975349E-06
  4.55824334E-06 -4.63354504E-09  1.17105593E-01  3.69098099E-06 -3.76498266E-09
  9.57922607E-02  2.03517865E-05 -2.08182182E-08  4.14041047E-02  1.72866544E-07
  1.30851484E-02 -1.33329251E-05  1.42820565E-07 -2.90439905E-10  6.22087471E-07
  3.68873250E-02 -3.75691372E-05  1.18360174E-06 -2.40454422E-09 -2.25776531E-03
 -6.31931602E-07  6.44811085E-10  5.61803968E-03 -1.14411391E-05 -4.03269693E-08
  1.23265498E-10 -2.73624307E-07 -6.67082179E-07  1.23459432E-06  5.61140658E-07
  1.05655708E-05  2.66128264E-06 -2.66758632E-06 -1.03225919E-01  2.69753445E-06
 -2.28256225E-06 -8.27825774E-02  1.55652094E-06 -7.34968197E-06 -9.01635971E-02
  5.94908380E-08  3.53281063E-04  1.43932114E-05  5.60525857E-08  7.84906769E-08
 -4.95548075E-09  1.34983553E-03  1.20854594E-03 -2.08052763E-07  7.90866441E-08
 -2.75209313E-04  2.74693167E-08 -3.66220015E-09  3.64494090E-04 -7.24629462E-05
  1.01959473E-08  1.86283680E-08 -2.73623911E-07 -6.67081118E-07  1.23459249E-06
  5.61150002E-07  1.05653969E-05  2.66670597E-06  2.66214166E-06 -1.03225818E-01
  2.70216330E-06  2.27703248E-06 -8.27824808E-02  1.57144253E-06  7.34644733E-06
 -9.01635163E-02  5.94905237E-08  3.53249872E-04 -1.51128529E-05  5.57330430E-08
 -7.87179394E-08 -4.95046491E-09  1.34737321E-03 -1.21128887E-03 -2.08373436E-07
 -7.82458254E-08 -2.75209110E-04  2.74771897E-08  3.60681070E-09  3.64784465E-04
  7.09778414E-05  1.00827412E-08 -1.86901974E-08  8.11056373E-07  1.91057452E-06
 -3.25449376E-06 -2.17798226E-06 -2.16970390E-05  8.58022780E-06 -8.73970711E-09
  3.69429019E-01  2.42241022E-02  5.32321953E-02 -8.36242157E-02 -9.69589988E-02
 -1.02514417E-02 -1.61916487E-01  1.92681378E-04  2.98057990E-06 -1.07401222E-01
  1.33810503E-04  2.59984766E-06  2.67912391E-02  2.75194340E-05  1.81810042E-06
  1.51960694E-03  8.43645291E-07 -6.09298332E-10 -9.17635442E-03  3.13661027E-05
 -2.81315061E-04  5.57528304E-07 -2.60385997E-10 -1.09242053E-02  5.39497284E-05
 -1.42522984E-07  2.03510100E-03 -2.51453808E-06  3.54766097E-07 -1.05724853E-09
 -1.99872579E-03  1.30505429E-05 -2.91321768E-03 -6.79498754E-03  1.01062683E-02
  1.09720932E-02  2.11864942E-02  5.17825072E-02 -1.82607556E-02  1.19079689E-06
  4.02892872E-02 -1.55045512E-02  8.20080580E-07  4.23881657E-02 -1.31268879E-02
  2.44389570E-07 -4.72452454E-04  7.59579826E-08 -1.65514432E-07 -1.04916332E-03
 -4.85759541E-04 -1.49999045E-03  1.05358509E-07 -4.22314688E-07 -4.14666555E-03
 -8.54242639E-04 -8.80063834E-08 -8.17329091E-06  4.88889121E-04 -9.00598044E-08
 -1.03400561E-07 -9.25048118E-04  7.44909119E-04 -2.92410408E-03 -6.82111627E-03
  1.01493789E-02  1.10210201E-02  2.13042182E-02  5.19260660E-02  1.81779862E-02
  1.19511275E-06  4.04109042E-02  1.54342827E-02  8.23264413E-07  4.25293026E-02
  1.30827339E-02  2.49841595E-07 -4.72266956E-04  7.63008742E-08  1.65450748E-07
 -1.04853722E-03  4.90482544E-04 -1.49926832E-03  1.06511327E-07  4.22184748E-07
 -4.14672679E-03  8.74304532E-04 -8.80948168E-08 -8.71048913E-06 -4.89512927E-04
 -8.97962708E-08  1.03865261E-07 -9.31136345E-04 -7.40160613E-04  1.40250687E-03
 -4.95074411E-03  3.17064431E-02  4.81773253E-02  4.69221257E-02  1.99168773E-01
  1.75313921E-04  7.39199025E-06  1.50438967E-01 -2.46656276E-05 -5.42044388E-05
  8.51843161E-05  9.86642849E-05  1.05553885E-05  1.92681049E-04  2.72583963E-02
 -3.02715879E-09  1.33877314E-04  2.40215667E-02 -2.63630185E-09  2.74151361E-05
  5.38215608E-02 -1.86127394E-09 -1.54927644E-06 -6.08680112E-10  2.46008774E-07
  3.47073528E-05  1.24499518E-02  3.24385767E-07 -2.60988674E-10  3.01081185E-07
  7.45294445E-05  3.11031230E-02  1.44496903E-10 -2.51662561E-06 -4.33935750E-04
 -1.03091030E-09 -3.28185693E-07  2.28646143E-05  6.82055200E-03  5.35240516E-03
  1.28450134E-02 -2.11876379E-02 -2.40512876E-02 -5.78439545E-02 -5.23617844E-02
  1.12298098E-02 -2.11723881E-06 -4.43266401E-02  5.87073871E-03 -1.56125775E-06
 -5.62551247E-02  2.07926688E-02 -2.67413759E-06 -8.97224118E-05 -3.10398169E-09
  4.52816766E-08  6.71758254E-04  2.21129481E-04 -3.51132922E-04 -1.43874070E-07
  4.31140943E-08  1.76960902E-03  1.55695315E-03  4.34305268E-08 -2.26221331E-04
 -3.14719071E-04  7.80386298E-08  4.82749658E-08  7.61642917E-04 -4.56190060E-04
 -5.34645563E-03 -1.28311314E-02  2.11669363E-02  2.40290573E-02  5.78004172E-02
  5.22788841E-02  1.10861988E-02  2.11479672E-06  4.42563552E-02  5.74914319E-03
  1.55958192E-06  5.62108306E-02  2.06514257E-02  2.67362787E-06  9.06854416E-05
  3.03990903E-09  4.49379902E-08 -6.68719047E-04  2.22862981E-04  3.54167446E-04
  1.43750998E-07  4.19648049E-08 -1.75479776E-03  1.56239849E-03 -4.32517884E-08
  2.25594513E-04 -3.14184899E-04 -7.76581859E-08  4.83818837E-08 -7.62522862E-04
 -4.50015770E-04 -1.43122268E-06  5.03555404E-06 -3.22848325E-05 -4.90640228E-05
 -4.76984976E-05  1.75314858E-04  3.71337494E-01 -7.52397796E-09  1.50598924E-04
  2.98341541E-01 -1.11981713E-06 -2.51008959E-06  4.07329876E-06  4.86158982E-06
  5.31219581E-06  3.26961752E-06 -3.32331996E-09  9.50325706E-02  2.68466572E-06
 -2.73932069E-09  7.77364982E-02  1.64988429E-05 -1.68763374E-08  3.35996794E-02
  1.37954454E-07  1.05365188E-02 -1.07359885E-05  8.73278149E-08 -1.77402544E-10
  4.95093964E-07  2.97027043E-02 -3.02516765E-05  9.07153599E-07 -1.84241171E-09
 -1.83220408E-03 -5.03112164E-07  5.13384800E-10  4.52380210E-03 -9.21273914E-06
 -3.46059549E-08  1.05974705E-10 -1.73269489E-07 -4.73324092E-07  1.01941913E-06
  4.66220761E-07  8.56572652E-06  2.37327145E-06 -2.16462927E-06 -8.27792493E-02
  2.35111079E-06 -1.85116577E-06 -6.63820086E-02  1.42507305E-06 -5.93680101E-06
 -7.24692879E-02  4.73559733E-08  2.91010003E-04  2.39869581E-07  4.34197785E-08
  6.06813500E-08 -6.01746167E-09  1.10637806E-03  9.39384275E-04 -1.75494581E-07
  5.87660193E-08 -2.27198425E-04  2.24033160E-08 -2.60192030E-09  2.89308183E-04
 -6.55779569E-05  5.76550157E-09  1.55609348E-08 -1.73269714E-07 -4.73324443E-07
  1.01941925E-06  4.66230381E-07  8.56558749E-06  2.37767881E-06  2.15977308E-06
 -8.27791686E-02  2.35487026E-06  1.84634608E-06 -6.63819311E-02  1.43713085E-06
  5.93384450E-06 -7.24692227E-02  4.73557037E-08  2.91007966E-04 -8.32724500E-07
  4.31728034E-08 -6.08573194E-08 -6.01344621E-09  1.10446402E-03 -9.41632709E-04
 -1.75732566E-07 -5.80563849E-08 -2.27198251E-04  2.24089465E-08  2.55671900E-09
  2.89571486E-04  6.43991108E-05  5.67093479E-09 -1.55957213E-08  2.66607244E-07
  9.09760653E-07 -2.40448282E-06 -1.38039123E-06 -1.73019415E-05  7.47525252E-06
 -7.60853894E-09  2.97815819E-01  6.36358826E-06 -6.47293848E-09  2.40086547E-01
  7.72785305E-03  1.77396229E-02 -2.99293844E-02 -4.10958399E-02 -3.38518776E-03
 -9.69806750E-02  1.04553002E-04  1.47557011E-06 -6.62290657E-02  7.61830858E-05
  1.47262295E-06  2.97230293E-02  1.39412957E-05  1.46819796E-06  2.36826959E-04
  8.20826994E-07 -7.20883441E-10 -7.66905431E-03  2.62448837E-05 -4.68277280E-04
  1.08887310E-06 -1.34233913E-09 -1.22977878E-02  5.03917676E-05 -5.12154594E-08
  1.15906589E-03 -1.31983181E-06  4.80814363E-07 -1.18236639E-09 -6.46244379E-04
  8.00249737E-06  1.92170803E-04 -5.32691654E-04  3.29555069E-03  1.84442779E-03
  1.26941786E-02  7.19734280E-02 -6.66334357E-03 -1.98482779E-06  5.61488668E-02
 -5.21565276E-03 -1.76312790E-06  5.14304564E-02 -5.56529257E-03 -1.89200203E-06
 -5.14572874E-04  8.76832870E-08 -8.76692144E-08 -3.88912461E-04 -9.67943706E-04
 -1.45273013E-03  1.42830215E-07 -1.63978924E-07 -1.84310393E-03 -2.17274753E-03
 -6.51453913E-08 -1.27656711E-04  4.12079040E-04 -1.33081321E-08 -9.14975684E-08
 -8.24482151E-04 -1.92596265E-05  1.80783726E-04 -5.57876400E-04  3.33072938E-03
  1.88419002E-03  1.27843279E-02  7.21046283E-02  6.54179280E-03 -1.97273216E-06
  5.62576944E-02  5.11549109E-03 -1.75367422E-06  5.15525363E-02  5.49483955E-03
 -1.88190130E-06 -5.14861835E-04  8.79865574E-08  8.77124609E-08 -3.86098949E-04
  9.70723777E-04 -1.45325087E-03  1.43771301E-07  1.64156409E-07 -1.83694962E-03
  2.18501378E-03 -6.52864410E-08 -1.28282726E-04 -4.12575914E-04 -1.31024432E-08
  9.17613234E-08 -8.26061677E-04  2.38995315E-05 -1.74214602E-02 -3.79485578E-02
  4.95150469E-02  7.28626461E-02  3.53941075E-02  1.37264643E-01  1.69214406E-04
  1.28032172E-05  1.02221813E-01  1.44232353E-04  1.06473939E-05  8.23998168E-02
 -7.86899578E-06 -1.80662498E-05  3.05096562E-05  4.18118753E-05  3.55778891E-06
  1.04556295E-04  5.69650890E-03 -1.49813773E-09  7.62340949E-05  8.62470471E-03
 -1.49216987E-09  1.38680986E-05  4.34302940E-02 -1.50223499E-09 -2.41986192E-07
 -7.20851760E-10  1.12685372E-07  2.90620170E-05  1.04321138E-02  5.08787084E-07
 -1.34550752E-09 -2.32734041E-07  6.32160709E-05  2.48674507E-02  5.16999313E-11
 -1.32153008E-06 -1.37263739E-04 -8.95233021E-10 -1.98689275E-07  1.87414343E-05
  5.92138825E-03  5.59209989E-03  1.23694658E-02 -1.72819824E-02 -1.95297463E-02
 -4.43067617E-02 -5.79125250E-02  1.23467943E-02 -5.95377356E-06 -4.83509996E-02
  7.02168915E-03 -4.65291682E-06 -5.44728416E-02  1.69009460E-02 -4.97057393E-06
  1.42525740E-04 -6.14416072E-08  1.09429722E-07  5.58980462E-04  5.90146728E-04
  2.58467008E-04 -2.98514966E-07  2.31556907E-07  1.34211218E-03  2.34290761E-03
  6.92813813E-08 -1.05583822E-04 -3.71867228E-04  8.24418615E-08  1.03141041E-07
  8.40019216E-04 -1.99997264E-04 -5.59247079E-03 -1.23683319E-02  1.72751591E-02
  1.95260719E-02  4.42805704E-02  5.77908136E-02  1.22155929E-02  5.95779247E-06
  4.82507777E-02  6.91291264E-03  4.65649506E-06  5.44022596E-02  1.67787977E-02
  4.97441206E-06 -1.41476969E-04  6.14844005E-08  1.09125537E-07 -5.55789060E-04
  5.90440675E-04 -2.55524382E-04  2.98698207E-07  2.30617471E-07 -1.32881372E-03
  2.34393215E-03 -6.91490780E-08  1.05084729E-04 -3.71244211E-04 -8.19942422E-08
  1.03290008E-07 -8.39546941E-04 -1.94906518E-04  1.77414068E-05  3.86453440E-05
 -5.04265036E-05 -7.42062019E-05 -3.59760997E-05  1.69237044E-04  3.03444168E-01
 -1.30335064E-08  1.44246412E-04  2.43870834E-01 -1.08351511E-08  1.20603404E-04
  2.00833213E-01 -3.22878583E-07 -7.39060163E-07  1.24114813E-06  1.49604432E-06
  2.46504628E-06  2.41861130E-06 -2.45788874E-09  4.56684666E-02  2.23596889E-06
 -2.28088919E-09  3.73593777E-02  1.46329310E-05 -1.49640155E-08  1.61587545E-02
  2.29674409E-07  9.24871150E-03 -9.42502681E-06  5.58502084E-08 -1.13831610E-10
  6.59697000E-07  2.60711670E-02 -2.65518588E-05  8.47237832E-07 -1.72293221E-09
 -8.80431902E-04 -4.61827492E-07  4.71173338E-10  3.97072761E-03 -8.08612854E-06
 -7.95393193E-08  2.42889756E-10 -4.57282745E-07 -9.77662489E-07  1.32931112E-06
  1.02219553E-06  7.81439623E-06  2.53391660E-06 -3.25511752E-06 -9.01565762E-02
  2.42777295E-06 -2.71443025E-06 -7.24655519E-02  1.39981156E-06 -5.86439234E-06
 -7.04287848E-02 -3.14056068E-08 -7.99331103E-05  5.82380311E-04  7.85343703E-09
  1.22822160E-08 -2.13514821E-07 -2.66774602E-05  2.55672252E-03 -2.36938315E-07
 -5.15402139E-08  8.74187451E-05 -1.97230360E-08  7.10214718E-08  4.68988433E-04
  3.13223059E-04 -3.26482873E-08  2.08048173E-08 -4.57282194E-07 -9.77661166E-07
  1.32930900E-06  1.02220056E-06  7.81428160E-06  2.54053747E-06  3.24993470E-06
 -9.01565337E-02  2.43328642E-06  2.70945851E-06 -7.24655073E-02  1.41172414E-06
  5.86149692E-06 -7.04287693E-02 -3.14055423E-08 -8.11189740E-05 -5.82214914E-04
  7.80396051E-09 -1.23140581E-08 -2.13511421E-07 -3.18819906E-05 -2.55665879E-03
 -2.36726482E-07  5.25002576E-08  8.74185527E-05 -1.98672385E-08 -7.09807372E-08
  4.67707355E-04 -3.15130255E-04 -3.27742065E-08 -2.06048194E-08  7.12848839E-07
  1.58809599E-06 -2.37466854E-06 -1.61747990E-06 -1.49235320E-05  6.69279776E-06
 -6.82629268E-09  2.43900086E-01  5.71142636E-06 -5.82113115E-09  1.96528298E-01
  9.15916940E-06 -9.33005508E-09  1.65671224E-01  7.21827302E-04  1.65895871E-03
 -2.81010623E-03 -3.07872267E-03 -3.44772896E-04 -4.09049883E-03  4.16585806E-06
  2.25753952E-07 -2.67134144E-03  2.71965203E-06  1.83790362E-07  3.27091127E-04
 -3.33342896E-07  8.42398044E-08  6.08617628E-05  2.17440221E-08 -2.21470311E-11
 -1.76462409E-04  3.59221883E-07  5.48461605E-06  1.92306450E-08 -1.95690686E-11
 -1.32938024E-04  2.71043457E-07 -7.57065399E-09  5.37600185E-05 -5.47404941E-08
  5.65325463E-09 -1.15228179E-11 -7.01267035E-05  2.14290036E-07 -1.77383025E-04
 -3.44302817E-04  3.33698091E-04  4.18093591E-04  5.78577133E-04  2.04356457E-04
 -5.11178609E-04  5.64982820E-08  1.57447968E-04 -4.54055641E-04  4.47777743E-08
  3.80000213E-04 -3.74864037E-04  9.62082399E-09 -4.05913893E-06  1.46385155E-09
 -5.12724452E-09 -3.12787527E-05  7.82418837E-06 -2.06388685E-05  2.77638330E-09
 -1.45778823E-08 -1.18612114E-04  2.68484268E-05 -2.45081518E-09  3.32382186E-06
  8.65496484E-06 -3.38193862E-09 -2.35831803E-09 -1.51437629E-05  3.09094605E-05
 -1.77382908E-04 -3.44302607E-04  3.33697952E-04  4.18092877E-04  5.78576238E-04
  2.05399104E-04  5.10760253E-04  5.64984884E-08  1.58373798E-04  4.53732781E-04
  4.47779499E-08  3.80763544E-04  3.74089094E-04  9.62109607E-09 -4.05910619E-06
  1.47428528E-09  5.12423240E-09 -3.13102199E-05 -7.69668416E-06 -2.06388629E-05
  2.80609046E-09  1.45721645E-08 -1.18720036E-04 -2.63650610E-05 -2.45081654E-09
  3.30615732E-06 -8.66173437E-06 -3.37229763E-09  2.37207497E-09 -1.53322954E-05
 -3.08162610E-05 -6.95323674E-05 -4.87915447E-05 -1.15752410E-04  2.29473842E-05
  9.59738724E-04  4.60834643E-03 -4.69395879E-06  2.42414462E-07  3.50327367E-03
 -3.56851525E-06  2.04094206E-07  2.03376913E-03 -2.07144209E-06  1.68578822E-07
  9.19794159E-05  8.85716644E-08  2.02212797E-07 -3.38428101E-07 -3.92851740E-07
 -2.69013805E-07 -4.11383291E-07  4.72163640E-10 -4.49330807E-03 -2.61739801E-07
  3.06102672E-10 -3.67530536E-03 -1.78816932E-07  2.40945617E-10 -1.58766241E-03
  8.68844061E-09 -1.59404368E-04  1.77552729E-07 -2.43534387E-08  5.56162331E-11
  1.10923209E-08 -4.49460100E-04  5.00772763E-07 -3.80188933E-08  9.36157907E-11
  8.66334651E-05  1.02592497E-08 -1.23550732E-11 -6.84525129E-05  1.32887806E-07
 -5.68698955E-09  2.10538826E-11 -1.64340303E-08 -3.46258012E-08  3.79846112E-08
  5.85836836E-08 -8.05672592E-08  1.45696628E-07 -1.32329357E-07 -1.63457261E-04
  1.05986284E-07 -1.03715820E-07 -1.44639975E-04  9.52560859E-08  8.39452080E-09
  5.44798529E-04 -8.39955734E-09 -3.15474074E-05  4.71168180E-05 -5.58594733E-09
 -6.75408758E-09 -2.14202338E-08 -9.74997972E-05  1.25986403E-04 -1.30285136E-08
 -1.44616509E-08  2.66549037E-05 -3.81172284E-09  7.35985074E-09  1.30283008E-05
  3.10027055E-05 -5.71325027E-09  1.48256969E-09 -1.63995175E-08 -3.45828849E-08
  3.80226377E-08  5.86177778E-08 -8.04389685E-08  1.46005977E-07  1.32050763E-07
 -1.64095649E-04  1.06232256E-07  1.03512860E-07 -1.45154276E-04  9.53094201E-08
 -8.54116631E-09  5.44345503E-04 -8.39935819E-09 -3.16474572E-05 -4.70588310E-05
 -5.55906942E-09  6.77584233E-09 -2.14206317E-08 -9.77714398E-05 -1.25809237E-04
 -1.29716141E-08  1.45142556E-08  2.66573510E-05 -3.82659862E-09 -7.35291183E-09
  1.29044250E-05 -3.10607884E-05 -5.72261359E-09 -1.44856199E-09 -4.44520690E-09
  4.76012140E-10 -1.47400454E-08 -2.81081944E-08  2.91694898E-07  2.45385646E-07
 -3.17701962E-11 -5.92339111E-03  1.78905141E-07 -6.55074939E-12 -4.78276924E-03
  7.44057922E-09  1.28427478E-10 -3.52662847E-03  2.21882222E-09  1.26717956E-04
 -9.02625751E-11 -2.06027777E-10  3.44705793E-10  4.00009927E-10  2.74048366E-10
  4.72411575E-10  5.24025283E-08  4.57582854E-06  3.06160544E-10  3.88106032E-08
  3.74277072E-06  2.39696814E-10  5.65563115E-08  1.61664261E-06 -8.85666087E-12
  1.77592804E-07  1.50218670E-05  3.69028210E-11  5.94330173E-09 -1.12859802E-11
  5.00744995E-07  4.23256864E-05  7.13684503E-11  1.60245631E-08 -8.82247850E-08
 -1.23426359E-11 -1.86017040E-09  5.65628217E-08 -6.44895305E-06  1.68324330E-11
  3.61423140E-09 -1.69208935E-08 -2.10207806E-08 -1.87318710E-08 -1.69029612E-08
 -6.16430265E-08 -1.97277352E-08  9.30738602E-09  3.13271356E-04 -1.70767802E-08
  6.49427874E-09  2.52274733E-04 -3.42956684E-08  2.29840392E-08  2.20714966E-04
 -7.18528152E-11  2.11785624E-06 -3.25260195E-06  3.45648455E-10 -4.43294267E-10
  1.93686710E-10  7.64134103E-06 -1.08695834E-05  1.07092814E-09 -2.16172890E-10
 -1.24912673E-06 -4.81837860E-11 -4.18438635E-10 -1.25773517E-06 -2.64211160E-06
  2.02643348E-10 -4.61521244E-10  1.69542624E-08  2.10911284E-08  1.86545765E-08
  1.67838642E-08  6.18069762E-08  1.94494786E-08  8.99814695E-09 -3.12937425E-04
  1.68738093E-08  6.24862564E-09 -2.51979302E-04  3.41484345E-08  2.29315159E-08
 -2.21823896E-04  8.89621576E-11 -2.06001763E-06 -3.15243158E-06 -3.36125156E-10
 -4.55682752E-10 -1.50069121E-10 -7.46433111E-06 -1.05977627E-05 -1.04536224E-09
 -2.41344960E-10  1.19483385E-06  5.51237689E-11 -4.03561493E-10  1.22067940E-06
 -2.58395127E-06 -1.93805232E-10 -4.57317122E-10  4.49433473E-12 -5.61495367E-13
  1.51181472E-11  2.87834766E-11 -2.97028198E-10 -3.14785436E-11  2.14533532E-07
  6.03149554E-06 -6.24144048E-12  1.72829579E-07  4.87005824E-06  1.28691469E-10
  1.33804637E-07  3.59095277E-06 -2.26233894E-12 -1.28613261E-07  4.14957996E-07
 -1.23291540E-03 -2.84694398E-03  4.86105548E-03  5.24086495E-03  6.02904035E-04
  7.21204068E-03 -1.28366069E-05 -1.64548249E-07  4.64352665E-03 -8.57419178E-06
 -1.33317720E-07 -7.99037949E-04 -1.04681916E-06 -7.22426983E-08 -1.08760257E-04
 -2.70264848E-08  4.19945922E-11  3.81037649E-04 -1.10121127E-06 -1.28843910E-05
  7.94207873E-10 -1.13402433E-11  3.92011395E-04 -1.94069995E-06  8.65303025E-09
 -9.55936421E-05  1.72304426E-07 -7.96618639E-09  2.51352878E-11  1.21921374E-04
 -5.22382556E-07  1.73346217E-04  4.31003415E-04 -7.17717001E-04 -8.65417579E-04
 -1.16882851E-03 -1.19132210E-03  6.05790186E-04 -1.44554620E-07 -9.30600071E-04
  5.57767549E-04 -1.13311932E-07 -1.20010734E-03  5.00220631E-04 -8.17950863E-08
  8.98793518E-06 -2.19779980E-09  7.22765218E-09  4.59127029E-05 -2.44970703E-06
  3.85019064E-05 -2.76184574E-09  2.09356405E-08  1.84904490E-04 -1.70784637E-05
  3.42095388E-09 -4.22555681E-06 -1.60277654E-05  4.93794253E-09  3.83966961E-09
  3.06797891E-05 -4.32761266E-05  1.73542598E-04  4.31569017E-04 -7.19061448E-04
 -8.67089456E-04 -1.17415588E-03 -1.18858030E-03 -6.01664967E-04 -1.44311635E-07
 -9.28723372E-04 -5.54488115E-04 -1.13121819E-07 -1.20076455E-03 -4.98685182E-04
 -8.18094869E-08  8.86173009E-06 -2.19374086E-09 -7.20534857E-09  4.59498557E-05
  2.47113602E-06  3.81770238E-05 -2.76345004E-09 -2.08894100E-08  1.85115913E-04
  1.68001983E-05  3.41250661E-09 -4.25273614E-06  1.59937712E-05  4.92403463E-09
 -3.84438183E-09  3.08723918E-05  4.32041373E-05 -1.41941723E-05 -2.91116849E-04
  9.08129823E-04  8.69416544E-04 -9.81358950E-04 -8.17113485E-03 -4.17352568E-06
 -5.38383408E-08 -6.23588059E-03 -3.67671845E-06 -5.86866646E-08 -3.70650093E-03
 -4.03574191E-06 -6.61059460E-08 -1.61588466E-04 -1.16147355E-08  5.30289678E-12
  2.88966313E-04  2.51126277E-06  5.79867858E-06 -9.90119876E-06 -1.06716113E-05
 -1.22780922E-06 -1.74363582E-05 -2.69550019E-03  3.34904835E-10 -1.13833733E-05
 -1.88824578E-03  2.71194944E-10  6.98319424E-07 -9.13636717E-04  1.47179720E-10
  2.21662277E-07  6.22911313E-11  7.10101966E-09 -1.10128529E-06 -1.59752841E-04
  2.57257159E-08 -6.82931233E-12 -5.13824116E-09 -1.94059295E-06 -5.60381606E-04
 -1.76108195E-11  2.32235784E-07  3.68002709E-05  2.51288976E-11  4.36271246E-09
 -4.73076466E-07 -7.35858419E-05 -4.85942544E-05 -1.39805631E-04  3.31613304E-04
  4.12546828E-04  1.31056272E-03 -9.71961317E-04  4.17506164E-04 -5.93239311E-08
 -7.36327389E-04  3.39675111E-04 -4.64168496E-08 -8.59131954E-05 -2.23886291E-04
  3.68976850E-09  3.09427735E-05 -4.59124319E-09  4.35892438E-09 -6.69808216E-06
  5.12002794E-05  7.96385806E-05 -1.00486394E-08  9.91739084E-09 -3.52654307E-05
  1.16736458E-04  2.06719384E-09  1.46849719E-05 -1.04507611E-05 -4.32588250E-10
  3.76571514E-09  1.75774815E-05  2.85490942E-05  4.78882550E-05  1.38049986E-04
 -3.28688132E-04 -4.09023097E-04 -1.30578959E-03  9.77656717E-04  4.17980647E-04
  5.99119281E-08  7.40803508E-04  3.40435673E-04  4.68776431E-08  9.03484673E-05
 -2.22030521E-04 -3.35673177E-09 -3.09791172E-05  4.60907971E-09  4.37894228E-09
  6.71938271E-06  5.11628261E-05 -7.97943426E-05  1.00799953E-08  9.98198480E-09
  3.49862119E-05  1.16523655E-04 -2.08110042E-09 -1.46889565E-05 -1.04860621E-05
  4.27858615E-10  3.77958789E-09 -1.75286117E-05  2.84799880E-05  2.87378298E-08
  5.92593939E-07 -1.84929647E-06 -1.76988122E-06  1.99816775E-06  1.03958862E-05
 -6.13496416E-03  1.09676395E-10  7.68759192E-06 -4.92349488E-03  1.19495054E-10
  3.64453432E-06 -3.83473477E-03  1.34815302E-10  3.29157253E-07  2.04018781E-11
 -3.20522771E-09 -3.73197004E-07  1.05751384E-04  2.43230873E-03  4.83465316E-03
 -6.16502287E-03 -6.34811850E-03 -8.02478611E-04 -1.02704505E-02  1.04651635E-05
  5.82985716E-07 -6.62765850E-03  6.75116306E-06  4.70333764E-07  7.01464645E-04
 -7.13386740E-07  2.28017003E-07  1.50528243E-04  6.79127475E-08 -6.91893716E-11
 -4.40235799E-04  8.96329232E-07  2.06373480E-05  8.49318129E-08 -8.64128512E-11
 -3.04417773E-04  6.21533524E-07 -1.76329628E-08  1.34412241E-04 -1.36967233E-07
  1.97071605E-08 -4.01804421E-11 -1.54749757E-04  4.72444077E-07  2.39702511E-04
  2.92500243E-04  2.80284402E-04  1.99766856E-04  7.70870019E-04  6.21179517E-04
 -1.79129653E-03  1.18533343E-08  4.43012572E-04 -1.47539066E-03  4.21276293E-09
  9.48542283E-04 -1.13049597E-03 -8.24212750E-08 -2.06568759E-05  3.86722983E-09
 -1.29219280E-08 -8.82741528E-05  6.83605039E-06 -6.06331327E-05  6.43340160E-09
 -3.19319019E-08 -3.11153234E-04  5.20907223E-05 -5.95401456E-09  7.93183728E-06
  2.29783566E-05 -7.92197105E-09 -5.34019236E-09 -4.24640301E-05  7.95427717E-05
  2.39704073E-04  2.92503775E-04  2.80279672E-04  1.99760102E-04  7.70869206E-04
  6.24805525E-04  1.79003607E-03  1.18523930E-08  4.45999154E-04  1.47449151E-03
  4.21205561E-09  9.50828499E-04  1.12857172E-03 -8.24214538E-08 -2.06566485E-05
  3.89348333E-09  1.29139514E-08 -8.83010924E-05 -6.47670805E-06 -6.06327891E-05
  6.49835317E-09  3.19186088E-08 -3.11362352E-04 -5.08237615E-05 -5.95400680E-09
  7.88498077E-06 -2.29944377E-05 -7.90014855E-09  5.37238436E-09 -4.29490498E-05
 -7.92818814E-05  2.08785100E-03  3.53931565E-03 -1.45887126E-03 -1.89111537E-03
  1.38643468E-03  1.07032027E-02 -1.09039443E-05  9.29854115E-07  8.26443587E-03
 -8.42008938E-06  7.67451616E-07  4.61068039E-03 -4.69832075E-06  6.43173750E-07
  2.18566456E-04  6.78152158E-10 -6.97991945E-13 -3.86351257E-04  7.86925588E-07
  5.42503234E-04  2.63859126E-07  5.51398669E-07 -7.85270277E-07 -8.79291811E-07
 -7.77213067E-07 -8.00833496E-07  1.03407967E-09 -1.33748334E-02 -4.93201050E-07
  6.73540136E-10 -1.09400021E-02 -7.19079160E-07  9.36469412E-10 -4.72606359E-03
  2.05880835E-08 -5.46034646E-04  6.42500640E-07 -5.10651486E-08  1.13559204E-10
  2.71536009E-08 -1.53954853E-03  1.81171278E-06 -9.51613131E-08  2.17757345E-10
  2.57873423E-04  2.86529328E-08 -3.89965698E-11 -2.34473381E-04  4.40474717E-07
 -1.09009165E-08  5.14105188E-11 -1.42403777E-08 -3.45352923E-08  4.40666753E-08
  9.20549108E-08 -3.79550604E-07  3.00052447E-07 -2.96456711E-07  3.75513622E-04
  2.06986401E-07 -2.25197304E-07  2.63631772E-04  1.76987935E-07  1.16285039E-07
  2.23091001E-03 -2.27787662E-08 -9.01414593E-05  1.30285660E-04 -1.30624429E-08
 -1.86856187E-08 -5.51248467E-08 -2.80653136E-04  3.38992374E-04 -2.31964879E-08
 -3.94369233E-08  7.59769981E-05 -1.06796847E-08  1.90765577E-08  3.31360000E-05
  8.63824654E-05 -1.38142106E-08  1.76042780E-09 -1.44589649E-08 -3.49085257E-08
  4.42695655E-08  9.23285626E-08 -3.79029557E-07  3.01107311E-07  2.95633597E-07
  3.71901285E-04  2.07828068E-07  2.24618524E-07  2.60722155E-04  1.77217082E-07
 -1.16671226E-07  2.22835190E-03 -2.27785440E-08 -9.04304352E-05 -1.30138265E-04
 -1.29834968E-08  1.87354968E-08 -5.51313259E-08 -2.81429760E-04 -3.38543272E-04
 -2.30313750E-08  3.95359677E-08  7.59909691E-05 -1.07188089E-08 -1.90592455E-08
  3.27981089E-05 -8.65467239E-05 -1.38252768E-08 -1.67542183E-09  2.14986463E-07
  3.81034616E-07 -2.09148086E-07 -3.72017698E-07  7.75041594E-07  1.15612257E-07
  5.84720681E-10 -1.93545591E-02  7.38479563E-08  4.95614970E-10 -1.56237942E-02
 -3.42492968E-07  7.85395179E-10 -1.17150809E-02 -4.15576001E-09  3.98187403E-04
 -4.03077407E-07 -1.72532616E-08  2.50685786E-11 -2.33861744E-08  1.25716916E-03
 -2.68424573E-10 -5.61091004E-10  7.99591431E-10  8.95047125E-10  7.91963369E-10
  1.03346357E-09  2.13903563E-07  1.36251037E-05  6.72543469E-10  1.67170291E-07
  1.11445290E-05  9.32242805E-10  1.95740591E-07  4.81349416E-06 -2.09768792E-11
  6.42917495E-07  8.50034812E-05  7.11919547E-11  9.38289559E-09 -2.75945165E-11
  1.81272226E-06  2.39506228E-04  1.45359215E-10  2.36644305E-08 -2.62700337E-07
 -3.89439983E-11 -9.57483468E-09  1.64600707E-07 -3.64918896E-05  6.55684076E-11
  1.78347409E-08  1.07421558E-07  1.83468011E-07 -9.98772247E-08 -1.34999305E-07
 -2.50712836E-07 -2.24029022E-07 -1.03923919E-07  1.77135695E-03 -1.89724376E-07
 -7.75681255E-08  1.42642307E-03 -2.28931502E-07 -1.44786338E-08  1.24980738E-03
 -2.69093571E-11  1.18941727E-05 -1.82664227E-05 -1.33851550E-09 -1.46472427E-09
  3.17944805E-09  4.29634997E-05 -6.11260747E-05 -2.09496003E-09  2.33019959E-09
 -6.99212387E-06  1.55907190E-10 -2.21802450E-09 -7.07570743E-06 -1.48600376E-05
  2.88596531E-10  2.97716956E-10 -1.07391957E-07 -1.83396530E-07  9.97864396E-08
  1.34810555E-07  2.51485083E-07  2.23202841E-07 -1.04981500E-07 -1.77212375E-03
  1.89142214E-07 -7.84113038E-08 -1.42696145E-03  2.28540240E-07 -1.47063673E-08
 -1.25435413E-03  7.33196454E-11 -1.17471309E-05 -1.79770768E-05  1.35897357E-09
 -1.50836126E-09 -3.06716472E-09 -4.25146088E-05 -6.03490247E-05  2.15131462E-09
  2.24109308E-09  6.83733265E-06 -1.38584837E-10 -2.17888212E-09  6.94834209E-06
 -1.47124600E-05 -2.58602823E-10  3.02876818E-10 -2.19045649E-10 -3.88278739E-10
  2.13290170E-10  3.79451234E-10 -7.89670454E-10  5.84376758E-10  6.89277004E-07
  1.97203278E-05  4.95601674E-10  5.60404683E-07  1.59190499E-05  7.85711127E-10
  4.28751835E-07  1.19370544E-05  4.24065629E-12 -4.03285185E-07  2.34776101E-06
 -2.54720916E-12 -9.87601753E-09  2.38403932E-11 -1.26729480E-06  1.32840661E-05
 -4.31379151E-03 -8.59613444E-03  1.10219053E-02  1.12399510E-02  1.42490572E-03
  1.81547922E-02 -3.81504597E-05 -3.13357895E-07  1.12993440E-02 -2.50656792E-05
 -2.51128759E-07 -2.04486366E-03 -2.46254209E-06 -1.64817734E-07 -2.77496025E-04
 -8.47475731E-08  1.78652737E-10  1.08552004E-03 -2.86580047E-06 -5.30199092E-05
 -3.79240658E-08  8.52679763E-11  1.19711565E-03 -5.32358524E-06  1.76104986E-08
 -2.40708197E-04  5.11503288E-07 -3.10042551E-08  6.52330692E-11  2.79897504E-04
 -1.31594738E-06  6.54910241E-04  1.39377450E-03 -1.72520111E-03 -2.09061377E-03
 -2.60575449E-03 -4.29997589E-03  1.50132460E-03 -1.68420354E-07 -3.34579881E-03
  1.33484522E-03 -1.24768993E-07 -3.73846983E-03  1.08569641E-03 -6.41196108E-08
  3.65351319E-05 -6.18794149E-09  1.65829713E-08  1.11353373E-04  2.58129780E-05
  1.11613848E-04 -8.48926032E-09  4.23543307E-08  4.45207162E-04  3.50055199E-05
  8.08257284E-09 -7.40629953E-06 -4.37471249E-05  1.00353848E-08  9.61594495E-09
  8.99372188E-05 -9.37455045E-05  6.56084939E-04  1.39610434E-03 -1.72831648E-03
 -2.09488137E-03 -2.62062721E-03 -4.29093860E-03 -1.48038827E-03 -1.68523710E-07
 -3.33942035E-03 -1.31842369E-03 -1.24891090E-07 -3.73968692E-03 -1.07628619E-03
 -6.47910299E-08  3.60621176E-05 -6.16320443E-09 -1.65070742E-08  1.11218337E-04
 -2.54902075E-05  1.10410800E-04 -8.45660791E-09 -4.22061886E-08  4.45229568E-04
 -3.49917433E-05  8.05002059E-09 -7.53416178E-06  4.35767053E-05  9.99509658E-09
 -9.60742157E-09  9.01661208E-05  9.35299937E-05 -4.79129066E-03 -8.76422339E-03
  6.08493851E-03  7.98483282E-03  7.12556694E-04 -1.90755741E-02 -1.53909221E-05
 -4.76338670E-07 -1.48524213E-02 -1.28766246E-05 -4.14508592E-07 -8.47468185E-03
 -1.29802368E-05 -4.17184581E-07 -3.88814290E-04 -2.58927227E-08  8.44488645E-12
  7.08582297E-04 -8.12450563E-07 -9.71216669E-04 -3.76897749E-08 -1.75970945E-11
  1.84609292E-03  8.78435544E-06  1.75051417E-05 -2.24479663E-05 -2.28814891E-05
 -2.89889568E-06 -4.68150188E-05 -9.64937049E-03  6.39179471E-10 -2.98038339E-05
 -6.65678386E-03  5.11800281E-10  1.89914261E-06 -2.23066930E-03  3.36302510E-10
  5.65625435E-07  2.18715591E-10  4.53041003E-08 -2.86645635E-06 -3.21578720E-04
  1.06472404E-07  1.00465838E-10  2.29795861E-08 -5.32373471E-06 -1.41460178E-03
 -3.58558340E-11  6.23648594E-07  1.30749092E-04  6.52133220E-11  9.85366338E-10
 -1.26129091E-06 -2.26313029E-04 -2.90393054E-04 -5.76137571E-04  7.69522683E-04
  1.05407677E-03  3.65692379E-03 -2.94807443E-03  2.99500323E-03  2.56911006E-08
 -2.21637568E-03  2.36146400E-03  3.01963438E-08 -2.31018655E-04  4.42082106E-04
  1.64848946E-07  1.15976634E-04 -1.43004726E-08  1.55074767E-08  7.59904905E-06
  1.90373447E-04  2.94941087E-04 -2.90991176E-08  3.20363458E-08 -4.07484706E-05
  4.48291622E-04  7.97747789E-09  5.32057010E-05 -4.55406697E-05  2.82566403E-10
  1.20824299E-08  8.42698199E-05  8.21032033E-05  2.87721656E-04  5.70452051E-04
 -7.62481990E-04 -1.04555202E-03 -3.64626944E-03  2.97168348E-03  2.99504559E-03
 -2.50024102E-08  2.23480789E-03  2.36233085E-03 -2.96861700E-08  2.47164933E-04
  4.45997775E-04 -1.64585077E-07 -1.16124541E-04  1.43572947E-08  1.55457454E-08
 -7.27680265E-06  1.90508201E-04 -2.95392453E-04  2.91987091E-08  3.21492073E-08
  4.07589275E-05  4.48267043E-04 -8.01035477E-09 -5.32679673E-05 -4.56102171E-05
 -2.74125300E-10  1.21227228E-08 -8.41347854E-05  8.22357633E-05  9.76103718E-06
  1.78556554E-05 -1.23998738E-05 -1.62700707E-05 -1.46038449E-06  2.14554865E-05
 -1.70907117E-02  9.69173824E-10  1.62582290E-05 -1.37458851E-02  8.43304837E-10
  6.46348243E-06 -1.06078996E-02  8.49234814E-10  7.92104993E-07  4.38051318E-11
 -8.80239305E-09 -8.12834380E-07  3.09631159E-04  1.97838012E-06  4.87574652E-11
 -2.74793317E-08 -1.87574659E-06  9.25279770E-04  6.39168976E-08  1.24640780E-07
 -1.50861406E-07 -1.73366734E-07 -1.16032647E-07 -1.71450113E-07  1.74684258E-10
 -1.91920639E-03 -1.04060210E-07  1.06063392E-10 -1.56980583E-03 -3.87188807E-08
  3.99027249E-11 -6.78081280E-04  4.56182059E-09 -5.10421847E-05  5.19290506E-08
 -1.35065159E-08  2.75043275E-11  6.43484330E-09 -1.43934660E-04  1.46549415E-07
 -2.15325912E-08  4.38402498E-11  3.70035427E-05  3.45632097E-09 -3.52543937E-12
 -2.19209239E-05  4.46663363E-08 -2.75040800E-09  8.39125147E-12 -8.35221807E-09
 -1.85872771E-08  2.40440859E-08  3.32742417E-08 -1.12907916E-08  1.05776288E-07
 -4.83038929E-08 -2.75096388E-04  8.04256734E-08 -3.78470536E-08 -2.27079183E-04
  6.86868264E-08 -3.50787073E-10  8.76174531E-05 -3.79828964E-09 -1.43705967E-05
  2.24972894E-05 -1.91056727E-09 -3.33611570E-09 -9.85386465E-09 -4.39216607E-05
  6.23898686E-05 -4.80090702E-09 -7.56535964E-09  1.21861167E-05 -1.78620969E-09
  3.39846271E-09  6.90892346E-06  1.46470202E-05 -2.66609777E-09  1.53351623E-10
 -8.35221539E-09 -1.85872542E-08  2.40440098E-08  3.32740915E-08 -1.12898341E-08
  1.05873909E-07  4.80886240E-08 -2.75096539E-04  8.05022178E-08  3.76835027E-08
 -2.27079389E-04  6.86873531E-08  2.11427602E-10  8.76164685E-05 -3.79827138E-09
 -1.44163375E-05 -2.24679008E-05 -1.89696171E-09  3.34384976E-09 -9.85386942E-09
 -4.40485608E-05 -6.23001953E-05 -4.77005616E-09  7.58487353E-09  1.21860973E-05
 -1.79312506E-09 -3.39481658E-09  6.84920238E-06 -1.46750142E-05 -2.66698504E-09
 -1.37064158E-10  3.36933366E-08  5.99742305E-08 -3.38062565E-08 -5.01680707E-08
  7.24589274E-08  1.25539231E-07 -1.27966441E-10 -2.11962283E-03  9.50465416E-08
 -9.69252097E-11 -1.71237004E-03  2.81461904E-08 -2.87738670E-11 -1.21625650E-03
  1.29200179E-09  4.91228251E-05 -5.00217536E-08 -5.42544738E-09  1.10513231E-11
  1.77896462E-09  1.52944338E-04 -1.55817094E-07 -1.35532202E-08  2.76099950E-11
  1.93797408E-05 -9.02325183E-04 -1.65105414E-03  1.65751101E-03  1.67461568E-03
  2.16108207E-04  2.78952550E-03 -3.42399932E-06 -2.46232356E-07  1.75658491E-03
 -2.17411507E-06 -1.99447571E-07 -2.57349700E-04  2.04616086E-07 -9.45916746E-08
 -4.32566049E-05 -2.15005294E-08  2.43432715E-11  1.48931158E-04 -3.01329947E-07
 -8.81577952E-06 -3.05664269E-08  3.03014996E-11  1.45461050E-04 -3.33537045E-07
  6.42525933E-09 -3.71674719E-05  4.57123372E-08 -7.70387655E-09  1.59761380E-11
  4.21261105E-05 -1.17706326E-07 -4.16374980E-05 -2.54347535E-05 -1.54152425E-04
 -1.52481600E-04 -2.85926607E-04 -4.62560709E-04  3.50495815E-04 -1.25949803E-08
 -3.52214713E-04  2.91383377E-04 -8.67273103E-09 -4.43914500E-04  2.30519709E-04
  2.89158239E-08  5.85748314E-06 -2.04377373E-09  4.45288398E-09  2.01178993E-05
  1.94523123E-06  1.59808626E-05 -4.58944485E-09  1.10955017E-08  7.43299377E-05
 -3.64962714E-06  2.21468422E-09 -1.76049180E-06 -6.18605540E-06  2.14681919E-09
  2.39525004E-09  1.25054610E-05 -1.73714493E-05 -4.16958580E-05 -2.55456051E-05
 -1.54076409E-04 -1.52387706E-04 -2.86134883E-04 -4.62195130E-04 -3.49463023E-04
 -1.25378219E-08 -3.51941155E-04 -2.90608425E-04 -8.62791770E-09 -4.43795532E-04
 -2.29731447E-04  2.89407907E-08  5.84278743E-06 -2.05025200E-09 -4.44620269E-09
  2.01111349E-05 -1.99891855E-06  1.59434737E-05 -4.60498727E-09 -1.10807125E-08
  7.43564741E-05  3.42055872E-06  2.21332597E-09 -1.75346545E-06  6.18202600E-06
  2.13686255E-09 -2.40151787E-09  1.25974726E-05  1.73081523E-05 -6.30060121E-04
 -1.17976363E-03  8.98501779E-04  1.16829070E-03  4.12339329E-05 -2.85307074E-03
  2.74442978E-06 -3.66688096E-07 -2.22214757E-03  2.13754031E-06 -3.00431203E-07
 -1.23345367E-03  1.20671084E-06 -2.42436989E-07 -5.91127790E-05  2.11495668E-09
 -2.32737670E-12  1.06839756E-04 -2.08775729E-07 -1.48634594E-04  1.33119647E-08
 -1.38842165E-11  2.77173132E-04 -5.36845329E-07  2.97013570E-10  4.21691753E-05
  9.18844494E-07  1.68123001E-06 -1.68764017E-06 -1.70474343E-06 -2.19633351E-07
 -3.42410603E-06 -5.72115205E-04  2.50677493E-10 -2.17511294E-06 -3.78611069E-04
  2.03035958E-10  2.04499990E-07 -5.65718223E-05  9.62930794E-11  4.40675482E-08
  2.43244866E-11  2.39555082E-09 -1.47855996E-07  1.85693617E-06  8.98988067E-09
  3.02773940E-11 -7.95217866E-10 -2.22117053E-07 -3.62881546E-05 -6.54082371E-12
  4.57175958E-08  7.71422403E-06  8.39199004E-12  2.70958216E-10 -1.01290391E-08
  1.07293919E-05  2.86097971E-05  5.42195333E-05 -3.67430798E-05 -4.53420874E-05
  1.03048914E-04 -5.27485691E-04  4.57565512E-05 -2.80690243E-08 -4.23669580E-04
  2.91382981E-05 -2.20197645E-08 -2.86972800E-04 -5.58892291E-05 -1.23570671E-08
  7.19313317E-06 -1.25940555E-09  1.22197201E-09 -6.41340436E-07  1.38535250E-05
  1.83181731E-05 -3.44697069E-09  2.64475169E-09 -6.05152438E-06  3.61680783E-05
  6.64849179E-10  2.74238567E-06 -3.73469036E-06  9.17779336E-11  1.20173720E-09
  6.83359833E-06  6.58195622E-06 -2.85249886E-05 -5.41677267E-05  3.70570417E-05
  4.56527823E-05 -1.02466669E-04  5.28520425E-04  4.53942948E-05  2.80948841E-08
  4.24445806E-04  2.88675676E-05  2.20375950E-08  2.87763182E-04 -5.60058722E-05
  1.22983621E-08 -7.20505324E-06  1.26606789E-09  1.22846463E-09  6.56775443E-07
  1.38548842E-05 -1.83506759E-05  3.46172364E-09  2.66030764E-09  6.04722561E-06
  3.61362186E-05 -6.69360256E-10 -2.74642125E-06 -3.74170953E-06 -9.12379707E-11
  1.20699564E-09 -6.81894342E-06  6.58832002E-06  6.41673124E-07  1.20148786E-06
 -9.14999896E-07 -1.18963204E-06 -4.19592733E-08  2.74283474E-06 -1.60052649E-04
  3.73048357E-10  2.13601585E-06 -1.24838772E-04  3.05653465E-10  1.20567915E-06
 -4.97059650E-05  2.46641621E-10  6.02077587E-08 -2.32356118E-12 -1.73309975E-10
 -9.10929055E-08  8.69978907E-06  1.51353724E-07 -1.38633771E-11 -3.15065243E-10
 -2.26566727E-07  2.73457223E-05 -3.00890896E-13 -4.09817830E-08  1.92832985E-06
 -8.37348115E-08 -1.62141027E-07  1.92446925E-07  2.24592416E-07  1.69029055E-07
  2.54398832E-07 -3.37655104E-10  2.86783623E-03  1.60359880E-07 -2.32848693E-10
  2.34576099E-03  1.40622845E-07 -2.85708835E-10  1.01337384E-03 -4.46847961E-09
  1.20405334E-04 -1.56929965E-07  1.68591888E-08 -5.34926620E-11 -5.11357645E-09
  3.39481149E-04 -4.42462774E-07  2.91821928E-08 -1.04401744E-10 -5.52932698E-05
 -7.33153525E-09  1.13472124E-11  5.17030694E-05 -9.05803384E-08  2.81498322E-09
 -1.75729367E-11  1.66143507E-08  3.05008191E-08 -2.09440182E-08 -3.54506988E-08
  6.90021619E-08 -1.08735215E-07  6.82839409E-08 -1.20860850E-04 -7.90926688E-08
  5.26202267E-08 -8.90139656E-05 -7.03348646E-08 -2.34845999E-08 -5.06864640E-04
  5.23176201E-09  1.91513993E-05 -2.74700337E-05  3.24331065E-09  4.64966898E-09
  1.28346053E-08  5.97263152E-05 -7.10033320E-05  6.78445385E-09  9.96180358E-09
 -1.61335695E-05  2.34965806E-09 -4.37587297E-09 -6.84163690E-06 -1.82455894E-05
  3.57074717E-09 -5.16402228E-10  1.67287834E-08  3.07013782E-08 -2.10720011E-08
 -3.56141657E-08  6.86761375E-08 -1.08979031E-07 -6.81782186E-08 -1.19428632E-04
 -7.92930847E-08 -5.25507036E-08 -8.78605012E-05 -7.04527565E-08  2.34776856E-08
 -5.05851381E-04  5.23253141E-09  1.92168083E-05  2.74455133E-05  3.22730102E-09
 -4.66273137E-09  1.28390003E-08  5.99053005E-05  7.09304897E-05  6.75321231E-09
 -9.99593098E-09 -1.61391320E-05  2.35888923E-09  4.37395750E-09 -6.77290700E-06
  1.82852334E-05  3.57694054E-09  4.96793026E-10 -3.98732082E-08 -6.69356204E-08
  2.13427670E-08  4.48366434E-08 -1.92639605E-07 -1.25993156E-07 -4.32949454E-10
  4.23006328E-03 -9.17562513E-08 -3.57814840E-10  3.41451953E-03  1.83467102E-08
 -3.72791450E-10  2.56852853E-03 -7.24812362E-10 -8.63550723E-05  8.69857032E-08
  6.70124372E-09 -5.67176271E-12  1.35575035E-09 -2.72904250E-04  2.72673771E-07
  1.51718462E-08 -9.30503223E-12 -3.31068289E-05 -1.86328817E-09  2.24496850E-12
  5.92530659E-05  1.70482203E-10  3.30130847E-10 -3.91902687E-10 -4.57314844E-10
 -3.44443001E-10 -5.57595612E-10 -3.85608482E-08 -5.84218721E-06 -3.61442067E-10
 -3.40894730E-08 -4.77860997E-06 -3.57182916E-10 -6.95097720E-08 -2.06418628E-06
  9.10402430E-12 -2.62408451E-07 -1.68607912E-05 -5.35360916E-11 -9.41674792E-09
  1.03997380E-11 -7.39859705E-07 -4.75070477E-05 -1.04548924E-10 -2.21171895E-08
  1.12640509E-07  1.68698146E-11  1.89933648E-09 -9.05686375E-08  7.23849397E-06
 -1.92129704E-11 -4.41437403E-09 -2.81392372E-08 -4.93251503E-08  3.14941956E-08
  4.02705589E-08  7.94456198E-08  2.60932792E-08 -2.85718609E-08 -3.51190358E-04
  2.31453216E-08 -2.25499525E-08 -2.82812647E-04  4.07655254E-08 -3.66976016E-08
 -2.47326029E-04 -2.05606939E-10 -2.38008757E-06  3.65290375E-06 -7.33021902E-10
  1.36662419E-11 -1.09824304E-09 -8.58705180E-06  1.22009221E-05 -2.32748624E-09
 -1.61150543E-09  1.40444904E-06 -8.29916556E-11  7.15789603E-10  1.41075822E-06
  2.96730193E-06 -7.65826274E-10  5.49032385E-10  2.80711980E-08  4.92002520E-08
 -3.14083852E-08 -4.01256315E-08 -7.97258171E-08 -2.57073660E-08 -2.82411342E-08
  3.51679371E-04 -2.28681723E-08 -2.22889003E-08  2.83172545E-04 -4.05533105E-08
 -3.67104909E-08  2.49388773E-04  1.84283742E-10  2.30924041E-06  3.53624474E-06
  7.19926516E-10  2.96871166E-11  1.04594441E-09  8.36786656E-06  1.18944932E-05
  2.29339020E-09 -1.58025837E-09 -1.33870294E-06  7.48387926E-11  6.97802488E-10
 -1.37107271E-06  2.89854328E-06  7.54595862E-10  5.42320651E-10  8.12445868E-11
  1.36404929E-10 -4.35646319E-11 -9.14656204E-11  3.92334331E-10 -2.41704519E-11
 -2.75803381E-07 -8.61638960E-06 -3.89010047E-11 -2.21780982E-07 -6.95517661E-06
 -2.14586201E-10 -1.74044565E-07 -5.23189909E-06  1.47754724E-12  1.75431686E-07
 -4.65789117E-07 -5.66860197E-12  3.91960711E-09 -2.75947142E-12  5.53221605E-07
 -2.63527844E-06 -9.28432668E-12  1.06154277E-08  6.74393419E-08  3.96951435E-12
  1.72488244E-10 -1.19633843E-07  5.22856209E-07  1.20260599E-03  2.18592651E-03
 -2.14122998E-03 -2.28497468E-03 -2.70582075E-04 -4.58924103E-03  1.27220033E-05
  8.19957428E-08 -2.88324262E-03  8.48310901E-06  7.08051350E-08  6.20149000E-04
  1.65491323E-06  5.11933079E-08  5.09412055E-05  2.09329308E-08 -5.09824717E-11
 -2.86892297E-04  9.39952581E-07  6.56778355E-06  6.13631441E-09 -7.00982412E-12
 -3.39636495E-04  2.08870775E-06 -3.52583115E-09  6.03761595E-05 -1.71316528E-07
  8.65688277E-09 -2.49964602E-11 -5.35299928E-05  3.43376986E-07 -2.37262403E-04
 -4.71796806E-04  4.78653829E-04  5.84065884E-04  6.15253869E-04  1.44824961E-03
 -5.02053635E-04  7.65777855E-08  1.12607578E-03 -4.24855607E-04  5.80145540E-08
  1.14046330E-03 -2.95375317E-04  3.27959962E-08 -1.53383743E-05  2.55073314E-09
 -5.48507141E-09 -3.06475065E-05 -1.79713027E-05 -4.29418305E-05  4.34647469E-09
 -1.39936287E-08 -1.18015876E-04 -3.60040314E-05 -2.74406410E-09 -3.84962291E-07
  1.43163012E-05 -2.80659579E-09 -3.38921752E-09 -2.78102034E-05  2.06073322E-05
 -2.37188604E-04 -4.71850857E-04  4.79655948E-04  5.85281917E-04  6.21737975E-04
  1.44317386E-03  4.95943700E-04  7.63798999E-08  1.12226701E-03  4.20023017E-04
  5.78649694E-08  1.14008168E-03  2.93772960E-04  3.29152756E-08 -1.51497407E-05
  2.53540376E-09  5.45364476E-09 -3.05934875E-05  1.77800388E-05 -4.24565739E-05
  4.31706311E-09  1.39267872E-08 -1.18018340E-04  3.57382254E-05 -2.73086100E-09
 -3.26289387E-07 -1.42440219E-05 -2.79390580E-09  3.37830370E-09 -2.78102437E-05
 -2.05963387E-05  8.33509442E-04  1.54527057E-03 -1.11916405E-03 -1.40511344E-03
 -7.32863972E-05  4.83003697E-03  1.06605154E-05  1.12723032E-07  3.74086811E-03
  8.69826728E-06  9.94393623E-08  2.29338147E-03  7.32688042E-06  9.45379418E-08
  9.36308435E-05  6.18153960E-09  1.87869462E-12 -1.71132294E-04  6.92848797E-08
  2.32124710E-04  8.31668212E-09  1.63330484E-11 -4.42035039E-04  7.54189658E-08
  3.24186669E-09 -6.62409558E-05  4.25529161E-08 -3.66959087E-09 -2.39504349E-12
  1.08394321E-04 -3.67400453E-06 -6.67798127E-06  6.54149621E-06  6.97773826E-06
  8.26104285E-07  1.67061355E-05  2.63369885E-03 -2.50600904E-10  1.06608711E-05
  1.81561656E-03 -2.16270301E-10 -1.13385012E-06  7.48379192E-04 -1.56532298E-10
 -1.55752230E-07 -7.38343543E-11 -9.70165603E-09  1.11361949E-06  1.16420451E-04
 -1.96333323E-08 -1.89847184E-11 -2.59466705E-10  1.96922773E-06  4.56917705E-04
  1.07648185E-11 -2.21131555E-07 -3.59432776E-05 -3.13616920E-11 -2.40553592E-09
  3.43334671E-07  5.88687262E-05 -1.12535838E-05  1.04660790E-05 -1.65578576E-04
 -2.00996001E-04 -1.06315956E-03  9.91472693E-04 -5.17928157E-04  3.21791517E-08
  7.59766897E-04 -4.15895154E-04  2.43292308E-08  1.56897919E-04  1.18091374E-04
 -1.95868675E-08 -3.08120126E-05  4.31699335E-09 -4.28007503E-09  3.07745440E-06
 -5.16511742E-05 -7.92528827E-05  9.44246027E-09 -9.45605026E-09  2.44712799E-05
 -1.22064555E-04 -2.15288182E-09 -1.43518278E-05  1.16820592E-05  1.80135571E-10
 -3.64227584E-09 -2.05799924E-05 -2.60111012E-05  1.27030524E-05 -7.58304207E-06
  1.62649940E-04  1.97425088E-04  1.05937859E-03 -1.00136256E-03 -5.18948394E-04
 -3.26468523E-08 -7.67483093E-04 -4.16920770E-04 -2.46834871E-08 -1.63627394E-04
  1.16617485E-04  1.93858950E-08  3.09051740E-05 -4.34127967E-09 -4.30468749E-09
 -3.10085726E-06 -5.17477756E-05  7.95135125E-05 -9.48814683E-09 -9.52204927E-09
 -2.42469606E-05 -1.22184059E-04  2.16960914E-09  1.43778073E-05  1.17400825E-05
 -1.77885707E-10 -3.66221506E-09  2.05910296E-05 -2.60108145E-05 -2.54694348E-06
 -4.72198351E-06  3.42035315E-06  4.29391343E-06  2.25586496E-07 -9.56558831E-06
  5.09884524E-03 -3.44182448E-10 -7.26114928E-06  4.09369487E-03 -3.03599910E-10
 -3.78715046E-06  3.16229631E-03 -2.88779108E-10 -2.86106516E-07 -1.61700100E-11
  2.67576285E-09  3.36731353E-07 -9.14021920E-05 -7.09226398E-07 -1.71318562E-11
  8.11798239E-09  8.00495391E-07 -2.70033692E-04 -9.90543297E-12  1.94112354E-07
 -8.15245718E-06  4.63715583E-12 -3.23083057E-09 -8.82352006E-08  7.95161194E-05
Mulliken Charges                           R   N=           4
  4.25279465E-01 -4.75023559E-01 -4.75024233E-01 -4.75231674E-01
ONIOM Charges                              I   N=          16
          -1           0           0           0           0           0
           0           0           0           0           0           0
           0           0           0           0
ONIOM Multiplicities                       I   N=          16
           1           0           0           0           0           0
           0           0           0           0           0           0
           0           0           0           0
Atom Layers                                I   N=           4
           1           1           1           1
Atom Modifiers                             I   N=           4
           0           0           0           0
Force Field                                I                0
Atom Modified Types                        C   N=           4
                                                
Int Atom Modified Types                    I   N=           4
           0           0           0           0
Link Atoms                                 I   N=           4
           0           0           0           0
Atom Modified MM Charges                   R   N=           4
  0.00000000E+00  0.00000000E+00  0.00000000E+00  0.00000000E+00
Link Distances                             R   N=          16
  0.00000000E+00  0.00000000E+00  0.00000000E+00  0.00000000E+00  0.00000000E+00
  0.00000000E+00  0.00000000E+00  0.00000000E+00  0.00000000E+00  0.00000000E+00
  0.00000000E+00  0.00000000E+00  0.00000000E+00  0.00000000E+00  0.00000000E+00
  0.00000000E+00
Cartesian Gradient                         R   N=          12
  0.00000000E+00  0.00000000E+00  0.00000000E+00  0.00000000E+00  0.00000000E+00
  0.00000000E+00  0.00000000E+00  0.00000000E+00  0.00000000E+00  0.00000000E+00
  0.00000000E+00  0.00000000E+00
Nonadiabatic coupling                      R   N=          12
  0.00000000E+00  0.00000000E+00  0.00000000E+00  0.00000000E+00  0.00000000E+00
  0.00000000E+00  0.00000000E+00  0.00000000E+00  0.00000000E+00  0.00000000E+00
  0.00000000E+00  0.00000000E+00
Dipole Moment                              R   N=           3
 -5.57252303E-04  2.75283789E-06  4.11434249E-05
Quadrupole Moment                          R   N=           6
 -1.91320085E+00 -1.91119043E+00  3.82439127E+00 -9.11272764E-07 -1.18993354E-04
  1.21289880E-07
QEq coupling tensors                       R   N=          24
  7.86022124E-02  1.66794525E-08  7.87366741E-02  4.92334252E-06 -5.12267632E-09
 -1.57338887E-01  1.04369290E+00  1.88363100E+00 -1.14045298E+00 -9.95641283E-05
  2.45961375E-04  9.67600774E-02  1.03601109E+00 -1.88806666E+00 -1.13277490E+00
 -1.00065070E-04 -2.45758833E-04  9.67638164E-02 -2.22703666E+00  4.43592081E-03
  2.12914455E+00  1.90723281E-04 -1.94249800E-07  9.78921074E-02
ClPar MaxAn                                I              200
ClPar NIntPar                              I                4
ClPar NRealPar                             I               16
ClPar NBits                                I               30
ClPar LenBitVec                            I                1
ClPar Read BitMap                          I   N=         200
           0           0           0           0           0           0
           0           0           0           0           0           0
           0           0           0           0           0           0
           0           0           0           0           0           0
           0           0           0           0           0           0
           0           0           0           0           0           0
           0           0           0           0           0           0
           0           0           0           0           0           0
           0           0           0           0           0           0
           0           0           0           0           0           0
           0           0           0           0           0           0
           0           0           0           0           0           0
           0           0           0           0           0           0
           0           0           0           0           0           0
           0           0           0           0           0           0
           0           0           0           0           0           0
           0           0           0           0           0           0
           0           0           0           0           0           0
           0           0           0           0           0           0
           0           0           0           0           0           0
           0           0           0           0           0           0
           0           0           0           0           0           0
           0           0           0           0           0           0
           0           0           0           0           0           0
           0           0           0           0           0           0
           0           0           0           0           0           0
           0           0           0           0           0           0
           0           0           0           0           0           0
           0           0           0           0           0           0
           0           0           0           0           0           0
           0           0           0           0           0           0
           0           0           0           0           0           0
           0           0           0           0           0           0
           0           0
ClPar Default BitMap                       I   N=         200
        2016        2016        2016        2016        2016        2016
        2016        2016        2016        2016        2016        2016
        2016        2016        2016        2016        2016        2016
        2016        2016        2016        2016        2016        2016
        2016        2016        2016        2016        2016        2016
        2016        2016        2016        2016        2016        2016
        2016        2016        2016        2016        2016        2016
        2016        2016        2016        2016        2016        2016
        2016        2016        2016        2016        2016        2016
        2016        2016        2016        2016        2016        2016
        2016        2016        2016        2016        2016        2016
        2016        2016        2016        2016        2016        2016
        2016        2016        2016        2016        2016        2016
        2016        2016        2016        2016        2016        2016
        2016        2016         480         480         480         480
         480         480         480         480         480         480
         480         480         480         480         480         480
         480         480         480         480         480         480
         480         480         480         480         480         480
         480         480         480         480         480         480
         480         480         480         480         480         480
         480         480         480         480         480         480
         480         480         480         480         480         480
         480         480         480         480         480         480
         480         480         480         480         480         480
         480         480         480         480         480         480
         480         480         480         480         480         480
         480         480         480         480         480         480
         480         480         480         480         480         480
         480         480         480         480         480         480
         480         480         480         480         480         480
         480         480         480         480         480         480
         480         480         480         480         480         480
         480         480
ClPar Int Params                           I   N=         800
           0           0           0           0           0           0
           0           0           0           0           0           0
           0           0           0           0           0           0
           0           0           0           0           0           0
           0           0           0           0           0           0
           0           0           0           0           0           0
           0           0           0           0           0           0
           0           0           0           0           0           0
           0           0           0           0           0           0
           0           0           0           0           0           0
           0           0           0           0           0           0
           0           0           0           0           0           0
           0           0           0           0           0           0
           0           0           0           0           0           0
           0           0           0           0           0           0
           0           0           0           0           0           0
           0           0           0           0           0           0
           0           0           0           0           0           0
           0           0           0           0           0           0
           0           0           0           0           0           0
           0           0           0           0           0           0
           0           0           0           0           0           0
           0           0           0           0           0           0
           0           0           0           0           0           0
           0           0           0           0           0           0
           0           0           0           0           0           0
           0           0           0           0           0           0
           0           0           0           0           0           0
           0           0           0           0           0           0
           0           0           0           0           0           0
           0           0           0           0           0           0
           0           0           0           0           0           0
           0           0           0           0           0           0
           0           0           0           0           0           0
           0           0           0           0           0           0
           0           0           0           0           0           0
           0           0           0           0           0           0
           0           0           0           0           0           0
           0           0           0           0           0           0
           0           0           0           0           0           0
           0           0           0           0           0           0
           0           0           0           0           0           0
           0           0           0           0           0           0
           0           0           0           0           0           0
           0           0           0           0           0           0
           0           0           0           0           0           0
           0           0           0           0           0           0
           0           0           0           0           0           0
           0           0           0           0           0           0
           0           0           0           0           0           0
           0           0           0           0           0           0
           0           0           0           0           0           0
           0           0           0           0           0           0
           0           0           0           0           0           0
           0           0           0           0           0           0
           0           0           0           0           0           0
           0           0           0           0           0           0
           0           0           0           0           0           0
           0           0           0           0           0           0
           0           0           0           0           0           0
           0           0           0           0           0           0
           0           0           0           0           0           0
           0           0           0           0           0           0
           0           0           0           0           0           0
           0           0           0           0           0           0
           0           0           0           0           0           0
           0           0           0           0           0           0
           0           0           0           0           0           0
           0           0           0           0           0           0
           0           0           0           0           0           0
           0           0           0           0           0           0
           0           0           0           0           0           0
           0           0           0           0           0           0
           0           0           0           0           0           0
           0           0           0           0           0           0
           0           0           0           0           0           0
           0           0           0           0           0           0
           0           0           0           0           0           0
           0           0           0           0           0           0
           0           0           0           0           0           0
           0           0           0           0           0           0
           0           0           0           0           0           0
           0           0           0           0           0           0
           0           0           0           0           0           0
           0           0           0           0           0           0
           0           0           0           0           0           0
           0           0           0           0           0           0
           0           0           0           0           0           0
           0           0           0           0           0           0
           0           0           0           0           0           0
           0           0           0           0           0           0
           0           0           0           0           0           0
           0           0           0           0           0           0
           0           0           0           0           0           0
           0           0           0           0           0           0
           0           0           0           0           0           0
           0           0           0           0           0           0
           0           0           0           0           0           0
           0           0           0           0           0           0
           0           0           0           0           0           0
           0           0           0           0           0           0
           0           0           0           0           0           0
           0           0           0           0           0           0
           0           0           0           0           0           0
           0           0           0           0           0           0
           0           0           0           0           0           0
           0           0           0           0           0           0
           0           0           0           0           0           0
           0           0           0           0           0           0
           0           0           0           0           0           0
           0           0           0           0           0           0
           0           0           0           0           0           0
           0           0           0           0           0           0
           0           0           0           0           0           0
           0           0           0           0           0           0
           0           0           0           0           0           0
           0           0           0           0           0           0
           0           0           0           0           0           0
           0           0           0           0           0           0
           0           0           0           0           0           0
           0           0           0           0           0           0
           0           0           0           0           0           0
           0           0           0           0           0           0
           0           0           0           0           0           0
           0           0           0           0           0           0
           0           0           0           0           0           0
           0           0           0           0           0           0
           0           0           0           0           0           0
           0           0           0           0           0           0
           0           0           0           0           0           0
           0           0           0           0           0           0
           0           0           0           0           0           0
           0           0           0           0           0           0
           0           0
ClPar Real Params                          R   N=        3200
  0.00000000E+00  0.00000000E+00  0.00000000E+00  0.00000000E+00  0.00000000E+00
  0.00000000E+00  0.00000000E+00  0.00000000E+00  0.00000000E+00  0.00000000E+00
  0.00000000E+00  0.00000000E+00  0.00000000E+00  0.00000000E+00  0.00000000E+00
  0.00000000E+00  0.00000000E+00  0.00000000E+00  0.00000000E+00  0.00000000E+00
  0.00000000E+00  0.00000000E+00  0.00000000E+00  0.00000000E+00  0.00000000E+00
  0.00000000E+00  0.00000000E+00  0.00000000E+00  0.00000000E+00  0.00000000E+00
  0.00000000E+00  0.00000000E+00  0.00000000E+00  0.00000000E+00  0.00000000E+00
  0.00000000E+00  0.00000000E+00  0.00000000E+00  0.00000000E+00  0.00000000E+00
  0.00000000E+00  0.00000000E+00  0.00000000E+00  0.00000000E+00  0.00000000E+00
  0.00000000E+00  0.00000000E+00  0.00000000E+00  0.00000000E+00  0.00000000E+00
  0.00000000E+00  0.00000000E+00  0.00000000E+00  0.00000000E+00  0.00000000E+00
  0.00000000E+00  0.00000000E+00  0.00000000E+00  0.00000000E+00  0.00000000E+00
  0.00000000E+00  0.00000000E+00  0.00000000E+00  0.00000000E+00  0.00000000E+00
  0.00000000E+00  0.00000000E+00  0.00000000E+00  0.00000000E+00  0.00000000E+00
  0.00000000E+00  0.00000000E+00  0.00000000E+00  0.00000000E+00  0.00000000E+00
  0.00000000E+00  0.00000000E+00  0.00000000E+00  0.00000000E+00  0.00000000E+00
  0.00000000E+00  0.00000000E+00  0.00000000E+00  0.00000000E+00  0.00000000E+00
  0.00000000E+00  0.00000000E+00  0.00000000E+00  0.00000000E+00  0.00000000E+00
  0.00000000E+00  0.00000000E+00  0.00000000E+00  0.00000000E+00  0.00000000E+00
  0.00000000E+00  0.00000000E+00  0.00000000E+00  0.00000000E+00  0.00000000E+00
  0.00000000E+00  0.00000000E+00  0.00000000E+00  0.00000000E+00  0.00000000E+00
  0.00000000E+00  0.00000000E+00  0.00000000E+00  0.00000000E+00  0.00000000E+00
  0.00000000E+00  0.00000000E+00  0.00000000E+00  0.00000000E+00  0.00000000E+00
  0.00000000E+00  0.00000000E+00  0.00000000E+00  0.00000000E+00  0.00000000E+00
  0.00000000E+00  0.00000000E+00  0.00000000E+00  0.00000000E+00  0.00000000E+00
  0.00000000E+00  0.00000000E+00  0.00000000E+00  0.00000000E+00  0.00000000E+00
  0.00000000E+00  0.00000000E+00  0.00000000E+00  0.00000000E+00  0.00000000E+00
  0.00000000E+00  0.00000000E+00  0.00000000E+00  0.00000000E+00  0.00000000E+00
  0.00000000E+00  0.00000000E+00  0.00000000E+00  0.00000000E+00  0.00000000E+00
  0.00000000E+00  0.00000000E+00  0.00000000E+00  0.00000000E+00  0.00000000E+00
  0.00000000E+00  0.00000000E+00  0.00000000E+00  0.00000000E+00  0.00000000E+00
  0.00000000E+00  0.00000000E+00  0.00000000E+00  0.00000000E+00  0.00000000E+00
  0.00000000E+00  0.00000000E+00  0.00000000E+00  0.00000000E+00  0.00000000E+00
  0.00000000E+00  0.00000000E+00  0.00000000E+00  0.00000000E+00  0.00000000E+00
  0.00000000E+00  0.00000000E+00  0.00000000E+00  0.00000000E+00  0.00000000E+00
  0.00000000E+00  0.00000000E+00  0.00000000E+00  0.00000000E+00  0.00000000E+00
  0.00000000E+00  0.00000000E+00  0.00000000E+00  0.00000000E+00  0.00000000E+00
  0.00000000E+00  0.00000000E+00  0.00000000E+00  0.00000000E+00  0.00000000E+00
  0.00000000E+00  0.00000000E+00  0.00000000E+00  0.00000000E+00  0.00000000E+00
  0.00000000E+00  0.00000000E+00  0.00000000E+00  0.00000000E+00  0.00000000E+00
  2.26000000E-01  4.43000000E-01  1.01000000E-01  1.47000000E-01  1.92000000E-01
  2.40000000E-01  2.75000000E-01  3.03000000E-01  3.25000000E-01  4.13000000E-01
  9.60000000E-02  1.35000000E-01  1.73000000E-01  2.11000000E-01  2.48000000E-01
  2.86000000E-01  3.23000000E-01  3.60000000E-01  8.20000000E-02  1.04000000E-01
  1.17000000E-01  1.23000000E-01  1.29000000E-01  1.34000000E-01  1.40000000E-01
  1.44000000E-01  1.48000000E-01  1.52000000E-01  1.55000000E-01  1.76000000E-01
  1.98000000E-01  2.19000000E-01  2.39000000E-01  2.60000000E-01  2.80000000E-01
  3.00000000E-01  7.90000000E-02  9.90000000E-02  1.19000000E-01  1.26000000E-01
  1.33000000E-01  1.40000000E-01  1.47000000E-01  1.53000000E-01  1.58000000E-01
  1.63000000E-01  1.57000000E-01  1.70000000E-01  1.87000000E-01  2.03000000E-01
  2.19000000E-01  2.34000000E-01  2.50000000E-01  2.65000000E-01  7.40000000E-02
  9.20000000E-02  1.05000000E-01  1.06000000E-01  1.07000000E-01  1.08000000E-01
  1.09000000E-01  1.10000000E-01  1.11000000E-01  1.12000000E-01  1.13000000E-01
  1.14000000E-01  1.15000000E-01  1.16000000E-01  1.17000000E-01  1.17000000E-01
  1.26000000E-01  1.36000000E-01  1.46000000E-01  1.55000000E-01  1.65000000E-01
  1.73000000E-01  1.82000000E-01  1.90000000E-01  1.62000000E-01  1.78000000E-01
  1.10000000E-01  1.35000000E-01  1.59000000E-01  1.83000000E-01  2.07000000E-01
  2.31000000E-01  6.90000000E-02  9.40000000E-02  1.02000000E-01  1.03000000E-01
  1.05000000E-01  1.07000000E-01  1.09000000E-01  1.11000000E-01  1.13000000E-01
  1.15000000E-01  1.17000000E-01  1.19000000E-01  1.20000000E-01  1.22000000E-01
  1.24000000E-01  1.26000000E-01  1.28000000E-01  1.28000000E-01  1.28000000E-01
  1.28000000E-01  1.28000000E-01  1.28000000E-01  1.28000000E-01  1.28000000E-01
  1.28000000E-01  1.28000000E-01  1.28000000E-01  1.28000000E-01  1.28000000E-01
  1.28000000E-01  1.28000000E-01  1.28000000E-01  1.28000000E-01  1.28000000E-01
  1.28000000E-01  1.28000000E-01  1.28000000E-01  1.28000000E-01  1.28000000E-01
  1.28000000E-01  1.28000000E-01  1.28000000E-01  1.28000000E-01  1.28000000E-01
  1.28000000E-01  1.28000000E-01  1.28000000E-01  1.28000000E-01  1.28000000E-01
  1.28000000E-01  1.28000000E-01  1.28000000E-01  1.28000000E-01  1.28000000E-01
  1.28000000E-01  1.28000000E-01  1.28000000E-01  1.28000000E-01  1.28000000E-01
  1.28000000E-01  1.28000000E-01  1.28000000E-01  1.28000000E-01  1.28000000E-01
  1.28000000E-01  1.28000000E-01  1.28000000E-01  1.28000000E-01  1.28000000E-01
  1.28000000E-01  1.28000000E-01  1.28000000E-01  1.28000000E-01  1.28000000E-01
  1.28000000E-01  1.28000000E-01  1.28000000E-01  1.28000000E-01  1.28000000E-01
  1.28000000E-01  1.28000000E-01  1.28000000E-01  1.28000000E-01  1.28000000E-01
  1.28000000E-01  1.28000000E-01  1.28000000E-01  1.28000000E-01  1.28000000E-01
  1.28000000E-01  1.28000000E-01  1.28000000E-01  1.28000000E-01  1.28000000E-01
  1.28000000E-01  1.28000000E-01  1.28000000E-01  1.28000000E-01  1.28000000E-01
  1.28000000E-01  1.28000000E-01  1.28000000E-01  1.28000000E-01  1.28000000E-01
  1.28000000E-01  1.28000000E-01  1.28000000E-01  1.28000000E-01  1.28000000E-01
  1.28000000E-01  1.28000000E-01  1.28000000E-01  1.28000000E-01  1.28000000E-01
  5.47000000E-01  5.92000000E-01  5.99000000E-01  6.68000000E-01  6.98000000E-01
  7.18000000E-01  7.26000000E-01  7.36000000E-01  7.43000000E-01  7.45000000E-01
  6.07000000E-01  6.66000000E-01  6.93000000E-01  7.09000000E-01  7.20000000E-01
  7.29000000E-01  7.35000000E-01  7.40000000E-01  6.08000000E-01  7.34000000E-01
  7.46000000E-01  7.55000000E-01  7.61000000E-01  7.65000000E-01  7.67000000E-01
  7.60000000E-01  7.49000000E-01  7.33000000E-01  7.08000000E-01  6.48000000E-01
  6.88000000E-01  7.09000000E-01  7.22000000E-01  7.31000000E-01  7.38000000E-01
  7.44000000E-01  6.09000000E-01  7.30000000E-01  7.41000000E-01  7.52000000E-01
  7.58000000E-01  7.63000000E-01  7.66000000E-01  7.58000000E-01  7.48000000E-01
  7.33000000E-01  7.01000000E-01  6.45000000E-01  6.86000000E-01  7.08000000E-01
  7.22000000E-01  7.31000000E-01  7.38000000E-01  7.44000000E-01  6.08000000E-01
  7.28000000E-01  7.32000000E-01  7.32000000E-01  7.32000000E-01  7.32000000E-01
  7.32000000E-01  7.32000000E-01  7.32000000E-01  7.32000000E-01  7.32000000E-01
  7.31000000E-01  7.31000000E-01  7.31000000E-01  7.31000000E-01  7.46000000E-01
  7.37000000E-01  7.46000000E-01  7.51000000E-01  7.55000000E-01  7.58000000E-01
  7.47000000E-01  7.32000000E-01  7.11000000E-01  7.41000000E-01  7.07000000E-01
  7.47000000E-01  7.43000000E-01  7.42000000E-01  7.42000000E-01  7.43000000E-01
  7.44000000E-01  6.05000000E-01  7.24000000E-01  7.26000000E-01  7.26000000E-01
  7.27000000E-01  7.27000000E-01  7.27000000E-01  7.28000000E-01  7.28000000E-01
  7.28000000E-01  7.28000000E-01  7.28000000E-01  7.29000000E-01  7.29000000E-01
  7.29000000E-01  7.29000000E-01  7.29000000E-01  7.29000000E-01  7.29000000E-01
  7.29000000E-01  7.29000000E-01  7.29000000E-01  7.29000000E-01  7.29000000E-01
  7.29000000E-01  7.29000000E-01  7.29000000E-01  7.29000000E-01  7.29000000E-01
  7.29000000E-01  7.29000000E-01  7.29000000E-01  7.29000000E-01  7.29000000E-01
  7.29000000E-01  7.29000000E-01  7.29000000E-01  7.29000000E-01  7.29000000E-01
  7.29000000E-01  7.29000000E-01  7.29000000E-01  7.29000000E-01  7.29000000E-01
  7.29000000E-01  7.29000000E-01  7.29000000E-01  7.29000000E-01  7.29000000E-01
  7.29000000E-01  7.29000000E-01  7.29000000E-01  7.29000000E-01  7.29000000E-01
  7.29000000E-01  7.29000000E-01  7.29000000E-01  7.29000000E-01  7.29000000E-01
  7.29000000E-01  7.29000000E-01  7.29000000E-01  7.29000000E-01  7.29000000E-01
  7.29000000E-01  7.29000000E-01  7.29000000E-01  7.29000000E-01  7.29000000E-01
  7.29000000E-01  7.29000000E-01  7.29000000E-01  7.29000000E-01  7.29000000E-01
  7.29000000E-01  7.29000000E-01  7.29000000E-01  7.29000000E-01  7.29000000E-01
  7.29000000E-01  7.29000000E-01  7.29000000E-01  7.29000000E-01  7.29000000E-01
  7.29000000E-01  7.29000000E-01  7.29000000E-01  7.29000000E-01  7.29000000E-01
  7.29000000E-01  7.29000000E-01  7.29000000E-01  7.29000000E-01  7.29000000E-01
  7.29000000E-01  7.29000000E-01  7.29000000E-01  7.29000000E-01  7.29000000E-01
  7.29000000E-01  7.29000000E-01  7.29000000E-01  7.29000000E-01  7.29000000E-01
  7.29000000E-01  7.29000000E-01  7.29000000E-01  7.29000000E-01  7.29000000E-01
  7.29000000E-01  7.29000000E-01  7.29000000E-01  7.29000000E-01  7.29000000E-01
  1.00000000E+00  1.70400000E+00  3.23000000E-01  3.89000000E-01  4.67000000E-01
  5.67000000E-01  6.36000000E-01  6.64000000E-01  6.96000000E-01  8.79000000E-01
  3.07000000E-01  3.48000000E-01  4.00000000E-01  4.54000000E-01  5.09000000E-01
  5.65000000E-01  6.21000000E-01  6.77000000E-01  2.56000000E-01  3.50000000E-01
  3.64000000E-01  3.62000000E-01  3.62000000E-01  3.62000000E-01  3.62000000E-01
  3.65000000E-01  3.69000000E-01  3.75000000E-01  3.86000000E-01  4.46000000E-01
  4.55000000E-01  4.74000000E-01  4.96000000E-01  5.20000000E-01  5.45000000E-01
  5.70000000E-01  2.45000000E-01  3.22000000E-01  3.55000000E-01  3.59000000E-01
  3.64000000E-01  3.70000000E-01  3.76000000E-01  3.85000000E-01  3.95000000E-01
  4.08000000E-01  3.76000000E-01  4.23000000E-01  4.22000000E-01  4.32000000E-01
  4.45000000E-01  4.59000000E-01  4.75000000E-01  4.91000000E-01  2.28000000E-01
  2.92000000E-01  2.89000000E-01  2.92000000E-01  2.95000000E-01  2.98000000E-01
  3.00000000E-01  3.03000000E-01  3.06000000E-01  3.09000000E-01  3.12000000E-01
  3.15000000E-01  3.18000000E-01  3.21000000E-01  3.24000000E-01  3.61000000E-01
  3.69000000E-01  3.70000000E-01  3.72000000E-01  3.75000000E-01  3.78000000E-01
  3.85000000E-01  3.94000000E-01  4.07000000E-01  5.26000000E-01  6.21000000E-01
  3.36000000E-01  3.54000000E-01  3.71000000E-01  3.86000000E-01  4.02000000E-01
  4.17000000E-01  2.09000000E-01  2.94000000E-01  2.65000000E-01  2.72000000E-01
  2.78000000E-01  2.84000000E-01  2.91000000E-01  2.97000000E-01  3.03000000E-01
  3.10000000E-01  3.16000000E-01  3.22000000E-01  3.29000000E-01  3.35000000E-01
  3.41000000E-01  3.48000000E-01  3.54000000E-01  3.54000000E-01  3.54000000E-01
  3.54000000E-01  3.54000000E-01  3.54000000E-01  3.54000000E-01  3.54000000E-01
  3.54000000E-01  3.54000000E-01  3.54000000E-01  3.54000000E-01  3.54000000E-01
  3.54000000E-01  3.54000000E-01  3.54000000E-01  3.54000000E-01  3.54000000E-01
  3.54000000E-01  3.54000000E-01  3.54000000E-01  3.54000000E-01  3.54000000E-01
  3.54000000E-01  3.54000000E-01  3.54000000E-01  3.54000000E-01  3.54000000E-01
  3.54000000E-01  3.54000000E-01  3.54000000E-01  3.54000000E-01  3.54000000E-01
  3.54000000E-01  3.54000000E-01  3.54000000E-01  3.54000000E-01  3.54000000E-01
  3.54000000E-01  3.54000000E-01  3.54000000E-01  3.54000000E-01  3.54000000E-01
  3.54000000E-01  3.54000000E-01  3.54000000E-01  3.54000000E-01  3.54000000E-01
  3.54000000E-01  3.54000000E-01  3.54000000E-01  3.54000000E-01  3.54000000E-01
  3.54000000E-01  3.54000000E-01  3.54000000E-01  3.54000000E-01  3.54000000E-01
  3.54000000E-01  3.54000000E-01  3.54000000E-01  3.54000000E-01  3.54000000E-01
  3.54000000E-01  3.54000000E-01  3.54000000E-01  3.54000000E-01  3.54000000E-01
  3.54000000E-01  3.54000000E-01  3.54000000E-01  3.54000000E-01  3.54000000E-01
  3.54000000E-01  3.54000000E-01  3.54000000E-01  3.54000000E-01  3.54000000E-01
  3.54000000E-01  3.54000000E-01  3.54000000E-01  3.54000000E-01  3.54000000E-01
  3.54000000E-01  3.54000000E-01  3.54000000E-01  3.54000000E-01  3.54000000E-01
  3.54000000E-01  3.54000000E-01  3.54000000E-01  3.54000000E-01  3.54000000E-01
  3.54000000E-01  3.54000000E-01  3.54000000E-01  3.54000000E-01  3.54000000E-01
  2.74000000E-01  2.96000000E-01  5.80000000E-02  4.40000000E-02  3.90000000E-02
  3.90000000E-02  3.60000000E-02  3.20000000E-02  2.90000000E-02  3.30000000E-02
  5.50000000E-02  3.90000000E-02  3.30000000E-02  3.00000000E-02  2.80000000E-02
  2.60000000E-02  2.50000000E-02  2.50000000E-02  4.50000000E-02  4.40000000E-02
  3.30000000E-02  2.50000000E-02  2.10000000E-02  1.80000000E-02  1.50000000E-02
  1.80000000E-02  2.10000000E-02  2.50000000E-02  3.30000000E-02  5.00000000E-02
  3.80000000E-02  3.10000000E-02  2.70000000E-02  2.40000000E-02  2.20000000E-02
  2.10000000E-02  4.30000000E-02  4.00000000E-02  3.20000000E-02  2.50000000E-02
  2.10000000E-02  1.80000000E-02  1.60000000E-02  1.90000000E-02  2.20000000E-02
  2.80000000E-02  3.10000000E-02  4.70000000E-02  3.40000000E-02  2.80000000E-02
  2.40000000E-02  2.10000000E-02  1.90000000E-02  1.80000000E-02  3.90000000E-02
  3.60000000E-02  2.50000000E-02  2.50000000E-02  2.50000000E-02  2.60000000E-02
  2.60000000E-02  2.60000000E-02  2.70000000E-02  2.70000000E-02  2.70000000E-02
  2.70000000E-02  2.80000000E-02  2.80000000E-02  2.80000000E-02  3.30000000E-02
  3.30000000E-02  2.60000000E-02  2.10000000E-02  1.80000000E-02  1.60000000E-02
  1.80000000E-02  2.20000000E-02  2.60000000E-02  4.90000000E-02  8.20000000E-02
  3.00000000E-02  2.40000000E-02  2.10000000E-02  1.80000000E-02  1.60000000E-02
  1.50000000E-02  3.50000000E-02  3.60000000E-02  2.20000000E-02  2.30000000E-02
  2.40000000E-02  2.40000000E-02  2.50000000E-02  2.50000000E-02  2.60000000E-02
  2.70000000E-02  2.70000000E-02  2.80000000E-02  2.80000000E-02  2.90000000E-02
  3.00000000E-02  3.00000000E-02  3.10000000E-02  3.10000000E-02  3.10000000E-02
  3.10000000E-02  3.10000000E-02  3.10000000E-02  3.10000000E-02  3.10000000E-02
  3.10000000E-02  3.10000000E-02  3.10000000E-02  3.10000000E-02  3.10000000E-02
  3.10000000E-02  3.10000000E-02  3.10000000E-02  3.10000000E-02  3.10000000E-02
  3.10000000E-02  3.10000000E-02  3.10000000E-02  3.10000000E-02  3.10000000E-02
  3.10000000E-02  3.10000000E-02  3.10000000E-02  3.10000000E-02  3.10000000E-02
  3.10000000E-02  3.10000000E-02  3.10000000E-02  3.10000000E-02  3.10000000E-02
  3.10000000E-02  3.10000000E-02  3.10000000E-02  3.10000000E-02  3.10000000E-02
  3.10000000E-02  3.10000000E-02  3.10000000E-02  3.10000000E-02  3.10000000E-02
  3.10000000E-02  3.10000000E-02  3.10000000E-02  3.10000000E-02  3.10000000E-02
  3.10000000E-02  3.10000000E-02  3.10000000E-02  3.10000000E-02  3.10000000E-02
  3.10000000E-02  3.10000000E-02  3.10000000E-02  3.10000000E-02  3.10000000E-02
  3.10000000E-02  3.10000000E-02  3.10000000E-02  3.10000000E-02  3.10000000E-02
  3.10000000E-02  3.10000000E-02  3.10000000E-02  3.10000000E-02  3.10000000E-02
  3.10000000E-02  3.10000000E-02  3.10000000E-02  3.10000000E-02  3.10000000E-02
  3.10000000E-02  3.10000000E-02  3.10000000E-02  3.10000000E-02  3.10000000E-02
  3.10000000E-02  3.10000000E-02  3.10000000E-02  3.10000000E-02  3.10000000E-02
  3.10000000E-02  3.10000000E-02  3.10000000E-02  3.10000000E-02  3.10000000E-02
  3.10000000E-02  3.10000000E-02  3.10000000E-02  3.10000000E-02  3.10000000E-02
  3.10000000E-02  3.10000000E-02  3.10000000E-02  3.10000000E-02  3.10000000E-02
 -5.92770000E-01 -9.17860000E-01 -2.48668000E+00 -8.36430000E-01 -3.18470000E-01
 -4.55790000E-01 -5.70730000E-01 -6.77940000E-01 -7.69860000E-01 -8.51140000E-01
 -1.51908000E+00 -3.18830000E-01 -2.17900000E-01 -3.01260000E-01 -3.72750000E-01
 -4.15890000E-01 -4.45930000E-01 -5.91320000E-01 -9.56370000E-01 -2.88450000E-01
 -4.87320000E-01 -6.34280000E-01 -7.17490000E-01 -7.91980000E-01 -8.68490000E-01
 -9.17520000E-01 -9.54890000E-01 -9.88460000E-01 -1.50055000E+00 -2.92560000E-01
 -2.14960000E-01 -2.91180000E-01 -3.42080000E-01 -3.84480000E-01 -4.34940000E-01
 -5.24310000E-01 -8.10070000E-01 -2.58460000E-01 -4.35550000E-01 -5.32740000E-01
 -6.08450000E-01 -6.10260000E-01 -7.58920000E-01 -8.90130000E-01 -8.45780000E-01
 -8.69340000E-01 -1.38234000E+00 -2.64850000E-01 -1.97280000E-01 -2.65040000E-01
 -2.94470000E-01 -3.16570000E-01 -3.63590000E-01 -4.57840000E-01 -8.61830000E-01
 -1.33004000E+00 -6.82880000E-01 -6.25540000E-01 -6.35430000E-01 -8.79690000E-01
 -9.02690000E-01 -9.59650000E-01 -1.01869000E+00 -6.81170000E-01 -7.96500000E-01
 -9.04950000E-01 -8.34790000E-01 -9.01560000E-01 -9.74130000E-01 -1.03326000E+00
 -7.15490000E-01 -7.83960000E-01 -8.28380000E-01 -5.61040000E-01 -1.03841000E+00
 -8.62500000E-01 -9.59300000E-01 -1.01755000E+00 -7.64900000E-01 -1.29467000E+00
 -1.92740000E-01 -2.56010000E-01 -3.19820000E-01 -1.94660000E-01 -2.60090000E-01
 -4.27990000E-01  0.00000000E+00  0.00000000E+00  0.00000000E+00  0.00000000E+00
  0.00000000E+00  0.00000000E+00  0.00000000E+00  0.00000000E+00  0.00000000E+00
  0.00000000E+00  0.00000000E+00  0.00000000E+00  0.00000000E+00  0.00000000E+00
  0.00000000E+00  0.00000000E+00  0.00000000E+00  0.00000000E+00  0.00000000E+00
  0.00000000E+00  0.00000000E+00  0.00000000E+00  0.00000000E+00  0.00000000E+00
  0.00000000E+00  0.00000000E+00  0.00000000E+00  0.00000000E+00  0.00000000E+00
  0.00000000E+00  0.00000000E+00  0.00000000E+00  0.00000000E+00  0.00000000E+00
  0.00000000E+00  0.00000000E+00  0.00000000E+00  0.00000000E+00  0.00000000E+00
  0.00000000E+00  0.00000000E+00  0.00000000E+00  0.00000000E+00  0.00000000E+00
  0.00000000E+00  0.00000000E+00  0.00000000E+00  0.00000000E+00  0.00000000E+00
  0.00000000E+00  0.00000000E+00  0.00000000E+00  0.00000000E+00  0.00000000E+00
  0.00000000E+00  0.00000000E+00  0.00000000E+00  0.00000000E+00  0.00000000E+00
  0.00000000E+00  0.00000000E+00  0.00000000E+00  0.00000000E+00  0.00000000E+00
  0.00000000E+00  0.00000000E+00  0.00000000E+00  0.00000000E+00  0.00000000E+00
  0.00000000E+00  0.00000000E+00  0.00000000E+00  0.00000000E+00  0.00000000E+00
  0.00000000E+00  0.00000000E+00  0.00000000E+00  0.00000000E+00  0.00000000E+00
  0.00000000E+00  0.00000000E+00  0.00000000E+00  0.00000000E+00  0.00000000E+00
  0.00000000E+00  0.00000000E+00  0.00000000E+00  0.00000000E+00  0.00000000E+00
  0.00000000E+00  0.00000000E+00  0.00000000E+00  0.00000000E+00  0.00000000E+00
  0.00000000E+00  0.00000000E+00  0.00000000E+00  0.00000000E+00  0.00000000E+00
  0.00000000E+00  0.00000000E+00  0.00000000E+00  0.00000000E+00  0.00000000E+00
  0.00000000E+00  0.00000000E+00  0.00000000E+00  0.00000000E+00  0.00000000E+00
  0.00000000E+00  0.00000000E+00  0.00000000E+00  0.00000000E+00  0.00000000E+00
  1.90440000E+00  1.36430000E+00  4.84000000E-01  7.31600000E+00  9.24030000E+00
  8.78200000E+00  5.61290000E+00  4.83340000E+00  3.24870000E+00  2.71090000E+00
  2.01130000E+00  1.50282000E+01  1.46788000E+01  2.13546000E+01  2.38290000E+01
  1.98022000E+01  1.50468000E+01  1.09745000E+01  1.27219000E+01  1.51949000E+01
  1.57342000E+01  2.79222000E+01  1.61366000E+01  2.21252000E+01  2.45676000E+01
  1.96016000E+01  1.79818000E+01  1.72396000E+01  5.01500000E+00  1.92898000E+01
  2.34477000E+01  2.23993000E+01  2.96586000E+01  2.60081000E+01  2.15580000E+01
  1.69594000E+01  1.56479000E+01  1.86897000E+01  1.93530000E+01  3.43444000E+01
  1.98480000E+01  2.72140000E+01  3.02182000E+01  2.41099000E+01  2.21176000E+01
  2.12047000E+01  7.56690000E+00  2.37264000E+01  2.93879000E+01  3.01278000E+01
  4.19382000E+01  3.85203000E+01  3.39511000E+01  2.75774000E+01  1.56460000E+01
  1.04460000E+01  2.01830000E+01  4.99540000E+01  4.76430000E+01  1.18690000E+01
  1.08670000E+01  9.96100000E+00  9.18700000E+00  3.67980000E+01  1.34070000E+01
  9.38200000E+00  9.81700000E+00  8.90800000E+00  8.40700000E+00  8.05800000E+00
  1.29600000E+01  2.67920000E+01  2.49300000E+01  3.45630000E+01  1.11860000E+01
  1.09440000E+01  1.01270000E+01  9.40400000E+00  1.36660000E+01  7.81000000E+00
  6.93600000E+01  5.86630000E+01  4.79690000E+01  4.52740000E+01  3.92290000E+01
  3.30660000E+01  0.00000000E+00  0.00000000E+00  0.00000000E+00  0.00000000E+00
  0.00000000E+00  0.00000000E+00  0.00000000E+00  0.00000000E+00  0.00000000E+00
  0.00000000E+00  0.00000000E+00  0.00000000E+00  0.00000000E+00  0.00000000E+00
  0.00000000E+00  0.00000000E+00  0.00000000E+00  0.00000000E+00  0.00000000E+00
  0.00000000E+00  0.00000000E+00  0.00000000E+00  0.00000000E+00  0.00000000E+00
  0.00000000E+00  0.00000000E+00  0.00000000E+00  0.00000000E+00  0.00000000E+00
  0.00000000E+00  0.00000000E+00  0.00000000E+00  0.00000000E+00  0.00000000E+00
  0.00000000E+00  0.00000000E+00  0.00000000E+00  0.00000000E+00  0.00000000E+00
  0.00000000E+00  0.00000000E+00  0.00000000E+00  0.00000000E+00  0.00000000E+00
  0.00000000E+00  0.00000000E+00  0.00000000E+00  0.00000000E+00  0.00000000E+00
  0.00000000E+00  0.00000000E+00  0.00000000E+00  0.00000000E+00  0.00000000E+00
  0.00000000E+00  0.00000000E+00  0.00000000E+00  0.00000000E+00  0.00000000E+00
  0.00000000E+00  0.00000000E+00  0.00000000E+00  0.00000000E+00  0.00000000E+00
  0.00000000E+00  0.00000000E+00  0.00000000E+00  0.00000000E+00  0.00000000E+00
  0.00000000E+00  0.00000000E+00  0.00000000E+00  0.00000000E+00  0.00000000E+00
  0.00000000E+00  0.00000000E+00  0.00000000E+00  0.00000000E+00  0.00000000E+00
  0.00000000E+00  0.00000000E+00  0.00000000E+00  0.00000000E+00  0.00000000E+00
  0.00000000E+00  0.00000000E+00  0.00000000E+00  0.00000000E+00  0.00000000E+00
  0.00000000E+00  0.00000000E+00  0.00000000E+00  0.00000000E+00  0.00000000E+00
  0.00000000E+00  0.00000000E+00  0.00000000E+00  0.00000000E+00  0.00000000E+00
  0.00000000E+00  0.00000000E+00  0.00000000E+00  0.00000000E+00  0.00000000E+00
  0.00000000E+00  0.00000000E+00  0.00000000E+00  0.00000000E+00  0.00000000E+00
  0.00000000E+00  0.00000000E+00  0.00000000E+00  0.00000000E+00  0.00000000E+00
  0.00000000E+00  0.00000000E+00  0.00000000E+00  0.00000000E+00  0.00000000E+00
  0.00000000E+00  0.00000000E+00  0.00000000E+00  0.00000000E+00  0.00000000E+00
  0.00000000E+00  0.00000000E+00  0.00000000E+00  0.00000000E+00  0.00000000E+00
  0.00000000E+00  0.00000000E+00  0.00000000E+00  0.00000000E+00  0.00000000E+00
  0.00000000E+00  0.00000000E+00  0.00000000E+00  0.00000000E+00  0.00000000E+00
  0.00000000E+00  0.00000000E+00  0.00000000E+00  0.00000000E+00  0.00000000E+00
  0.00000000E+00  0.00000000E+00  0.00000000E+00  0.00000000E+00  0.00000000E+00
  0.00000000E+00  0.00000000E+00  0.00000000E+00  0.00000000E+00  0.00000000E+00
  0.00000000E+00  0.00000000E+00  0.00000000E+00  0.00000000E+00  0.00000000E+00
  0.00000000E+00  0.00000000E+00  0.00000000E+00  0.00000000E+00  0.00000000E+00
  0.00000000E+00  0.00000000E+00  0.00000000E+00  0.00000000E+00  0.00000000E+00
  0.00000000E+00  0.00000000E+00  0.00000000E+00  0.00000000E+00  0.00000000E+00
  0.00000000E+00  0.00000000E+00  0.00000000E+00  0.00000000E+00  0.00000000E+00
  0.00000000E+00  0.00000000E+00  0.00000000E+00  0.00000000E+00  0.00000000E+00
  0.00000000E+00  0.00000000E+00  0.00000000E+00  0.00000000E+00  0.00000000E+00
  0.00000000E+00  0.00000000E+00  0.00000000E+00  0.00000000E+00  0.00000000E+00
  0.00000000E+00  0.00000000E+00  0.00000000E+00  0.00000000E+00  0.00000000E+00
  0.00000000E+00  0.00000000E+00  0.00000000E+00  0.00000000E+00  0.00000000E+00
  0.00000000E+00  0.00000000E+00  0.00000000E+00  0.00000000E+00  0.00000000E+00
  0.00000000E+00  0.00000000E+00  0.00000000E+00  0.00000000E+00  0.00000000E+00
  0.00000000E+00  0.00000000E+00  0.00000000E+00  0.00000000E+00  0.00000000E+00
  0.00000000E+00  0.00000000E+00  0.00000000E+00  0.00000000E+00  0.00000000E+00
  0.00000000E+00  0.00000000E+00  0.00000000E+00  0.00000000E+00  0.00000000E+00
  0.00000000E+00  0.00000000E+00  0.00000000E+00  0.00000000E+00  0.00000000E+00
  0.00000000E+00  0.00000000E+00  0.00000000E+00  0.00000000E+00  0.00000000E+00
  0.00000000E+00  0.00000000E+00  0.00000000E+00  0.00000000E+00  0.00000000E+00
  0.00000000E+00  0.00000000E+00  0.00000000E+00  0.00000000E+00  0.00000000E+00
  0.00000000E+00  0.00000000E+00  0.00000000E+00  0.00000000E+00  0.00000000E+00
  0.00000000E+00  0.00000000E+00  0.00000000E+00  0.00000000E+00  0.00000000E+00
  0.00000000E+00  0.00000000E+00  0.00000000E+00  0.00000000E+00  0.00000000E+00
  0.00000000E+00  0.00000000E+00  0.00000000E+00  0.00000000E+00  0.00000000E+00
  0.00000000E+00  0.00000000E+00  0.00000000E+00  0.00000000E+00  0.00000000E+00
  0.00000000E+00  0.00000000E+00  0.00000000E+00  0.00000000E+00  0.00000000E+00
  0.00000000E+00  0.00000000E+00  0.00000000E+00  0.00000000E+00  0.00000000E+00
  0.00000000E+00  0.00000000E+00  0.00000000E+00  0.00000000E+00  0.00000000E+00
  0.00000000E+00  0.00000000E+00  0.00000000E+00  0.00000000E+00  0.00000000E+00
  0.00000000E+00  0.00000000E+00  0.00000000E+00  0.00000000E+00  0.00000000E+00
  0.00000000E+00  0.00000000E+00  0.00000000E+00  0.00000000E+00  0.00000000E+00
  0.00000000E+00  0.00000000E+00  0.00000000E+00  0.00000000E+00  0.00000000E+00
  0.00000000E+00  0.00000000E+00  0.00000000E+00  0.00000000E+00  0.00000000E+00
  0.00000000E+00  0.00000000E+00  0.00000000E+00  0.00000000E+00  0.00000000E+00
  0.00000000E+00  0.00000000E+00  0.00000000E+00  0.00000000E+00  0.00000000E+00
  0.00000000E+00  0.00000000E+00  0.00000000E+00  0.00000000E+00  0.00000000E+00
  0.00000000E+00  0.00000000E+00  0.00000000E+00  0.00000000E+00  0.00000000E+00
  0.00000000E+00  0.00000000E+00  0.00000000E+00  0.00000000E+00  0.00000000E+00
  0.00000000E+00  0.00000000E+00  0.00000000E+00  0.00000000E+00  0.00000000E+00
  0.00000000E+00  0.00000000E+00  0.00000000E+00  0.00000000E+00  0.00000000E+00
  0.00000000E+00  0.00000000E+00  0.00000000E+00  0.00000000E+00  0.00000000E+00
  0.00000000E+00  0.00000000E+00  0.00000000E+00  0.00000000E+00  0.00000000E+00
  0.00000000E+00  0.00000000E+00  0.00000000E+00  0.00000000E+00  0.00000000E+00
  0.00000000E+00  0.00000000E+00  0.00000000E+00  0.00000000E+00  0.00000000E+00
  0.00000000E+00  0.00000000E+00  0.00000000E+00  0.00000000E+00  0.00000000E+00
  0.00000000E+00  0.00000000E+00  0.00000000E+00  0.00000000E+00  0.00000000E+00
  0.00000000E+00  0.00000000E+00  0.00000000E+00  0.00000000E+00  0.00000000E+00
  0.00000000E+00  0.00000000E+00  0.00000000E+00  0.00000000E+00  0.00000000E+00
  0.00000000E+00  0.00000000E+00  0.00000000E+00  0.00000000E+00  0.00000000E+00
  0.00000000E+00  0.00000000E+00  0.00000000E+00  0.00000000E+00  0.00000000E+00
  0.00000000E+00  0.00000000E+00  0.00000000E+00  0.00000000E+00  0.00000000E+00
  0.00000000E+00  0.00000000E+00  0.00000000E+00  0.00000000E+00  0.00000000E+00
  0.00000000E+00  0.00000000E+00  0.00000000E+00  0.00000000E+00  0.00000000E+00
  0.00000000E+00  0.00000000E+00  0.00000000E+00  0.00000000E+00  0.00000000E+00
  0.00000000E+00  0.00000000E+00  0.00000000E+00  0.00000000E+00  0.00000000E+00
  0.00000000E+00  0.00000000E+00  0.00000000E+00  0.00000000E+00  0.00000000E+00
  0.00000000E+00  0.00000000E+00  0.00000000E+00  0.00000000E+00  0.00000000E+00
  0.00000000E+00  0.00000000E+00  0.00000000E+00  0.00000000E+00  0.00000000E+00
  0.00000000E+00  0.00000000E+00  0.00000000E+00  0.00000000E+00  0.00000000E+00
  0.00000000E+00  0.00000000E+00  0.00000000E+00  0.00000000E+00  0.00000000E+00
  0.00000000E+00  0.00000000E+00  0.00000000E+00  0.00000000E+00  0.00000000E+00
  0.00000000E+00  0.00000000E+00  0.00000000E+00  0.00000000E+00  0.00000000E+00
  0.00000000E+00  0.00000000E+00  0.00000000E+00  0.00000000E+00  0.00000000E+00
  0.00000000E+00  0.00000000E+00  0.00000000E+00  0.00000000E+00  0.00000000E+00
  0.00000000E+00  0.00000000E+00  0.00000000E+00  0.00000000E+00  0.00000000E+00
  0.00000000E+00  0.00000000E+00  0.00000000E+00  0.00000000E+00  0.00000000E+00
  0.00000000E+00  0.00000000E+00  0.00000000E+00  0.00000000E+00  0.00000000E+00
  0.00000000E+00  0.00000000E+00  0.00000000E+00  0.00000000E+00  0.00000000E+00
  0.00000000E+00  0.00000000E+00  0.00000000E+00  0.00000000E+00  0.00000000E+00
  0.00000000E+00  0.00000000E+00  0.00000000E+00  0.00000000E+00  0.00000000E+00
  0.00000000E+00  0.00000000E+00  0.00000000E+00  0.00000000E+00  0.00000000E+00
  0.00000000E+00  0.00000000E+00  0.00000000E+00  0.00000000E+00  0.00000000E+00
  0.00000000E+00  0.00000000E+00  0.00000000E+00  0.00000000E+00  0.00000000E+00
  0.00000000E+00  0.00000000E+00  0.00000000E+00  0.00000000E+00  0.00000000E+00
  0.00000000E+00  0.00000000E+00  0.00000000E+00  0.00000000E+00  0.00000000E+00
  0.00000000E+00  0.00000000E+00  0.00000000E+00  0.00000000E+00  0.00000000E+00
  0.00000000E+00  0.00000000E+00  0.00000000E+00  0.00000000E+00  0.00000000E+00
  0.00000000E+00  0.00000000E+00  0.00000000E+00  0.00000000E+00  0.00000000E+00
  0.00000000E+00  0.00000000E+00  0.00000000E+00  0.00000000E+00  0.00000000E+00
  0.00000000E+00  0.00000000E+00  0.00000000E+00  0.00000000E+00  0.00000000E+00
  0.00000000E+00  0.00000000E+00  0.00000000E+00  0.00000000E+00  0.00000000E+00
  0.00000000E+00  0.00000000E+00  0.00000000E+00  0.00000000E+00  0.00000000E+00
  0.00000000E+00  0.00000000E+00  0.00000000E+00  0.00000000E+00  0.00000000E+00
  0.00000000E+00  0.00000000E+00  0.00000000E+00  0.00000000E+00  0.00000000E+00
  0.00000000E+00  0.00000000E+00  0.00000000E+00  0.00000000E+00  0.00000000E+00
  0.00000000E+00  0.00000000E+00  0.00000000E+00  0.00000000E+00  0.00000000E+00
  0.00000000E+00  0.00000000E+00  0.00000000E+00  0.00000000E+00  0.00000000E+00
  0.00000000E+00  0.00000000E+00  0.00000000E+00  0.00000000E+00  0.00000000E+00
  0.00000000E+00  0.00000000E+00  0.00000000E+00  0.00000000E+00  0.00000000E+00
  0.00000000E+00  0.00000000E+00  0.00000000E+00  0.00000000E+00  0.00000000E+00
  0.00000000E+00  0.00000000E+00  0.00000000E+00  0.00000000E+00  0.00000000E+00
  0.00000000E+00  0.00000000E+00  0.00000000E+00  0.00000000E+00  0.00000000E+00
  0.00000000E+00  0.00000000E+00  0.00000000E+00  0.00000000E+00  0.00000000E+00
  0.00000000E+00  0.00000000E+00  0.00000000E+00  0.00000000E+00  0.00000000E+00
  0.00000000E+00  0.00000000E+00  0.00000000E+00  0.00000000E+00  0.00000000E+00
  0.00000000E+00  0.00000000E+00  0.00000000E+00  0.00000000E+00  0.00000000E+00
  0.00000000E+00  0.00000000E+00  0.00000000E+00  0.00000000E+00  0.00000000E+00
  0.00000000E+00  0.00000000E+00  0.00000000E+00  0.00000000E+00  0.00000000E+00
  0.00000000E+00  0.00000000E+00  0.00000000E+00  0.00000000E+00  0.00000000E+00
  0.00000000E+00  0.00000000E+00  0.00000000E+00  0.00000000E+00  0.00000000E+00
  0.00000000E+00  0.00000000E+00  0.00000000E+00  0.00000000E+00  0.00000000E+00
  0.00000000E+00  0.00000000E+00  0.00000000E+00  0.00000000E+00  0.00000000E+00
  0.00000000E+00  0.00000000E+00  0.00000000E+00  0.00000000E+00  0.00000000E+00
  0.00000000E+00  0.00000000E+00  0.00000000E+00  0.00000000E+00  0.00000000E+00
  0.00000000E+00  0.00000000E+00  0.00000000E+00  0.00000000E+00  0.00000000E+00
  0.00000000E+00  0.00000000E+00  0.00000000E+00  0.00000000E+00  0.00000000E+00
  0.00000000E+00  0.00000000E+00  0.00000000E+00  0.00000000E+00  0.00000000E+00
  0.00000000E+00  0.00000000E+00  0.00000000E+00  0.00000000E+00  0.00000000E+00
  0.00000000E+00  0.00000000E+00  0.00000000E+00  0.00000000E+00  0.00000000E+00
  0.00000000E+00  0.00000000E+00  0.00000000E+00  0.00000000E+00  0.00000000E+00
  0.00000000E+00  0.00000000E+00  0.00000000E+00  0.00000000E+00  0.00000000E+00
  0.00000000E+00  0.00000000E+00  0.00000000E+00  0.00000000E+00  0.00000000E+00
  0.00000000E+00  0.00000000E+00  0.00000000E+00  0.00000000E+00  0.00000000E+00
  0.00000000E+00  0.00000000E+00  0.00000000E+00  0.00000000E+00  0.00000000E+00
  0.00000000E+00  0.00000000E+00  0.00000000E+00  0.00000000E+00  0.00000000E+00
  0.00000000E+00  0.00000000E+00  0.00000000E+00  0.00000000E+00  0.00000000E+00
  0.00000000E+00  0.00000000E+00  0.00000000E+00  0.00000000E+00  0.00000000E+00
  0.00000000E+00  0.00000000E+00  0.00000000E+00  0.00000000E+00  0.00000000E+00
  0.00000000E+00  0.00000000E+00  0.00000000E+00  0.00000000E+00  0.00000000E+00
  0.00000000E+00  0.00000000E+00  0.00000000E+00  0.00000000E+00  0.00000000E+00
  0.00000000E+00  0.00000000E+00  0.00000000E+00  0.00000000E+00  0.00000000E+00
  0.00000000E+00  0.00000000E+00  0.00000000E+00  0.00000000E+00  0.00000000E+00
  0.00000000E+00  0.00000000E+00  0.00000000E+00  0.00000000E+00  0.00000000E+00
  0.00000000E+00  0.00000000E+00  0.00000000E+00  0.00000000E+00  0.00000000E+00
  0.00000000E+00  0.00000000E+00  0.00000000E+00  0.00000000E+00  0.00000000E+00
  0.00000000E+00  0.00000000E+00  0.00000000E+00  0.00000000E+00  0.00000000E+00
  0.00000000E+00  0.00000000E+00  0.00000000E+00  0.00000000E+00  0.00000000E+00
  0.00000000E+00  0.00000000E+00  0.00000000E+00  0.00000000E+00  0.00000000E+00
  0.00000000E+00  0.00000000E+00  0.00000000E+00  0.00000000E+00  0.00000000E+00
  0.00000000E+00  0.00000000E+00  0.00000000E+00  0.00000000E+00  0.00000000E+00
  0.00000000E+00  0.00000000E+00  0.00000000E+00  0.00000000E+00  0.00000000E+00
  0.00000000E+00  0.00000000E+00  0.00000000E+00  0.00000000E+00  0.00000000E+00
  0.00000000E+00  0.00000000E+00  0.00000000E+00  0.00000000E+00  0.00000000E+00
  0.00000000E+00  0.00000000E+00  0.00000000E+00  0.00000000E+00  0.00000000E+00
  0.00000000E+00  0.00000000E+00  0.00000000E+00  0.00000000E+00  0.00000000E+00
  0.00000000E+00  0.00000000E+00  0.00000000E+00  0.00000000E+00  0.00000000E+00
  0.00000000E+00  0.00000000E+00  0.00000000E+00  0.00000000E+00  0.00000000E+00
  0.00000000E+00  0.00000000E+00  0.00000000E+00  0.00000000E+00  0.00000000E+00
  0.00000000E+00  0.00000000E+00  0.00000000E+00  0.00000000E+00  0.00000000E+00
  0.00000000E+00  0.00000000E+00  0.00000000E+00  0.00000000E+00  0.00000000E+00
  0.00000000E+00  0.00000000E+00  0.00000000E+00  0.00000000E+00  0.00000000E+00
  0.00000000E+00  0.00000000E+00  0.00000000E+00  0.00000000E+00  0.00000000E+00
  0.00000000E+00  0.00000000E+00  0.00000000E+00  0.00000000E+00  0.00000000E+00
  0.00000000E+00  0.00000000E+00  0.00000000E+00  0.00000000E+00  0.00000000E+00
  0.00000000E+00  0.00000000E+00  0.00000000E+00  0.00000000E+00  0.00000000E+00
  0.00000000E+00  0.00000000E+00  0.00000000E+00  0.00000000E+00  0.00000000E+00
  0.00000000E+00  0.00000000E+00  0.00000000E+00  0.00000000E+00  0.00000000E+00
  0.00000000E+00  0.00000000E+00  0.00000000E+00  0.00000000E+00  0.00000000E+00
  0.00000000E+00  0.00000000E+00  0.00000000E+00  0.00000000E+00  0.00000000E+00
  0.00000000E+00  0.00000000E+00  0.00000000E+00  0.00000000E+00  0.00000000E+00
  0.00000000E+00  0.00000000E+00  0.00000000E+00  0.00000000E+00  0.00000000E+00
  0.00000000E+00  0.00000000E+00  0.00000000E+00  0.00000000E+00  0.00000000E+00
  0.00000000E+00  0.00000000E+00  0.00000000E+00  0.00000000E+00  0.00000000E+00
  0.00000000E+00  0.00000000E+00  0.00000000E+00  0.00000000E+00  0.00000000E+00
  0.00000000E+00  0.00000000E+00  0.00000000E+00  0.00000000E+00  0.00000000E+00
  0.00000000E+00  0.00000000E+00  0.00000000E+00  0.00000000E+00  0.00000000E+00
  0.00000000E+00  0.00000000E+00  0.00000000E+00  0.00000000E+00  0.00000000E+00
  0.00000000E+00  0.00000000E+00  0.00000000E+00  0.00000000E+00  0.00000000E+00
  0.00000000E+00  0.00000000E+00  0.00000000E+00  0.00000000E+00  0.00000000E+00
  0.00000000E+00  0.00000000E+00  0.00000000E+00  0.00000000E+00  0.00000000E+00
  0.00000000E+00  0.00000000E+00  0.00000000E+00  0.00000000E+00  0.00000000E+00
  0.00000000E+00  0.00000000E+00  0.00000000E+00  0.00000000E+00  0.00000000E+00
  0.00000000E+00  0.00000000E+00  0.00000000E+00  0.00000000E+00  0.00000000E+00
  0.00000000E+00  0.00000000E+00  0.00000000E+00  0.00000000E+00  0.00000000E+00
  0.00000000E+00  0.00000000E+00  0.00000000E+00  0.00000000E+00  0.00000000E+00
  0.00000000E+00  0.00000000E+00  0.00000000E+00  0.00000000E+00  0.00000000E+00
  0.00000000E+00  0.00000000E+00  0.00000000E+00  0.00000000E+00  0.00000000E+00
  0.00000000E+00  0.00000000E+00  0.00000000E+00  0.00000000E+00  0.00000000E+00
  0.00000000E+00  0.00000000E+00  0.00000000E+00  0.00000000E+00  0.00000000E+00
  0.00000000E+00  0.00000000E+00  0.00000000E+00  0.00000000E+00  0.00000000E+00
  0.00000000E+00  0.00000000E+00  0.00000000E+00  0.00000000E+00  0.00000000E+00
  0.00000000E+00  0.00000000E+00  0.00000000E+00  0.00000000E+00  0.00000000E+00
  0.00000000E+00  0.00000000E+00  0.00000000E+00  0.00000000E+00  0.00000000E+00
  0.00000000E+00  0.00000000E+00  0.00000000E+00  0.00000000E+00  0.00000000E+00
  0.00000000E+00  0.00000000E+00  0.00000000E+00  0.00000000E+00  0.00000000E+00
  0.00000000E+00  0.00000000E+00  0.00000000E+00  0.00000000E+00  0.00000000E+00
  0.00000000E+00  0.00000000E+00  0.00000000E+00  0.00000000E+00  0.00000000E+00
  0.00000000E+00  0.00000000E+00  0.00000000E+00  0.00000000E+00  0.00000000E+00
  0.00000000E+00  0.00000000E+00  0.00000000E+00  0.00000000E+00  0.00000000E+00
  0.00000000E+00  0.00000000E+00  0.00000000E+00  0.00000000E+00  0.00000000E+00
  0.00000000E+00  0.00000000E+00  0.00000000E+00  0.00000000E+00  0.00000000E+00
  0.00000000E+00  0.00000000E+00  0.00000000E+00  0.00000000E+00  0.00000000E+00
  0.00000000E+00  0.00000000E+00  0.00000000E+00  0.00000000E+00  0.00000000E+00
  0.00000000E+00  0.00000000E+00  0.00000000E+00  0.00000000E+00  0.00000000E+00
  0.00000000E+00  0.00000000E+00  0.00000000E+00  0.00000000E+00  0.00000000E+00
  0.00000000E+00  0.00000000E+00  0.00000000E+00  0.00000000E+00  0.00000000E+00
  0.00000000E+00  0.00000000E+00  0.00000000E+00  0.00000000E+00  0.00000000E+00
  0.00000000E+00  0.00000000E+00  0.00000000E+00  0.00000000E+00  0.00000000E+00
  0.00000000E+00  0.00000000E+00  0.00000000E+00  0.00000000E+00  0.00000000E+00
  0.00000000E+00  0.00000000E+00  0.00000000E+00  0.00000000E+00  0.00000000E+00
  0.00000000E+00  0.00000000E+00  0.00000000E+00  0.00000000E+00  0.00000000E+00
  0.00000000E+00  0.00000000E+00  0.00000000E+00  0.00000000E+00  0.00000000E+00
  0.00000000E+00  0.00000000E+00  0.00000000E+00  0.00000000E+00  0.00000000E+00
  0.00000000E+00  0.00000000E+00  0.00000000E+00  0.00000000E+00  0.00000000E+00
  0.00000000E+00  0.00000000E+00  0.00000000E+00  0.00000000E+00  0.00000000E+00
  0.00000000E+00  0.00000000E+00  0.00000000E+00  0.00000000E+00  0.00000000E+00
  0.00000000E+00  0.00000000E+00  0.00000000E+00  0.00000000E+00  0.00000000E+00
  0.00000000E+00  0.00000000E+00  0.00000000E+00  0.00000000E+00  0.00000000E+00
  0.00000000E+00  0.00000000E+00  0.00000000E+00  0.00000000E+00  0.00000000E+00
  0.00000000E+00  0.00000000E+00  0.00000000E+00  0.00000000E+00  0.00000000E+00
  0.00000000E+00  0.00000000E+00  0.00000000E+00  0.00000000E+00  0.00000000E+00
  0.00000000E+00  0.00000000E+00  0.00000000E+00  0.00000000E+00  0.00000000E+00
  0.00000000E+00  0.00000000E+00  0.00000000E+00  0.00000000E+00  0.00000000E+00
  0.00000000E+00  0.00000000E+00  0.00000000E+00  0.00000000E+00  0.00000000E+00
  0.00000000E+00  0.00000000E+00  0.00000000E+00  0.00000000E+00  0.00000000E+00
  0.00000000E+00  0.00000000E+00  0.00000000E+00  0.00000000E+00  0.00000000E+00
  0.00000000E+00  0.00000000E+00  0.00000000E+00  0.00000000E+00  0.00000000E+00
  0.00000000E+00  0.00000000E+00  0.00000000E+00  0.00000000E+00  0.00000000E+00
  0.00000000E+00  0.00000000E+00  0.00000000E+00  0.00000000E+00  0.00000000E+00
  0.00000000E+00  0.00000000E+00  0.00000000E+00  0.00000000E+00  0.00000000E+00
  0.00000000E+00  0.00000000E+00  0.00000000E+00  0.00000000E+00  0.00000000E+00
  0.00000000E+00  0.00000000E+00  0.00000000E+00  0.00000000E+00  0.00000000E+00
  0.00000000E+00  0.00000000E+00  0.00000000E+00  0.00000000E+00  0.00000000E+00
  0.00000000E+00  0.00000000E+00  0.00000000E+00  0.00000000E+00  0.00000000E+00
  0.00000000E+00  0.00000000E+00  0.00000000E+00  0.00000000E+00  0.00000000E+00
  0.00000000E+00  0.00000000E+00  0.00000000E+00  0.00000000E+00  0.00000000E+00
  0.00000000E+00  0.00000000E+00  0.00000000E+00  0.00000000E+00  0.00000000E+00
  0.00000000E+00  0.00000000E+00  0.00000000E+00  0.00000000E+00  0.00000000E+00
  0.00000000E+00  0.00000000E+00  0.00000000E+00  0.00000000E+00  0.00000000E+00
  0.00000000E+00  0.00000000E+00  0.00000000E+00  0.00000000E+00  0.00000000E+00
  0.00000000E+00  0.00000000E+00  0.00000000E+00  0.00000000E+00  0.00000000E+00
  0.00000000E+00  0.00000000E+00  0.00000000E+00  0.00000000E+00  0.00000000E+00
  0.00000000E+00  0.00000000E+00  0.00000000E+00  0.00000000E+00  0.00000000E+00
  0.00000000E+00  0.00000000E+00  0.00000000E+00  0.00000000E+00  0.00000000E+00
  0.00000000E+00  0.00000000E+00  0.00000000E+00  0.00000000E+00  0.00000000E+00
  0.00000000E+00  0.00000000E+00  0.00000000E+00  0.00000000E+00  0.00000000E+00
  0.00000000E+00  0.00000000E+00  0.00000000E+00  0.00000000E+00  0.00000000E+00
  0.00000000E+00  0.00000000E+00  0.00000000E+00  0.00000000E+00  0.00000000E+00
  0.00000000E+00  0.00000000E+00  0.00000000E+00  0.00000000E+00  0.00000000E+00
  0.00000000E+00  0.00000000E+00  0.00000000E+00  0.00000000E+00  0.00000000E+00
  0.00000000E+00  0.00000000E+00  0.00000000E+00  0.00000000E+00  0.00000000E+00
  0.00000000E+00  0.00000000E+00  0.00000000E+00  0.00000000E+00  0.00000000E+00
  0.00000000E+00  0.00000000E+00  0.00000000E+00  0.00000000E+00  0.00000000E+00
  0.00000000E+00  0.00000000E+00  0.00000000E+00  0.00000000E+00  0.00000000E+00
  0.00000000E+00  0.00000000E+00  0.00000000E+00  0.00000000E+00  0.00000000E+00
  0.00000000E+00  0.00000000E+00  0.00000000E+00  0.00000000E+00  0.00000000E+00
  0.00000000E+00  0.00000000E+00  0.00000000E+00  0.00000000E+00  0.00000000E+00
  0.00000000E+00  0.00000000E+00  0.00000000E+00  0.00000000E+00  0.00000000E+00
  0.00000000E+00  0.00000000E+00  0.00000000E+00  0.00000000E+00  0.00000000E+00
  0.00000000E+00  0.00000000E+00  0.00000000E+00  0.00000000E+00  0.00000000E+00
  0.00000000E+00  0.00000000E+00  0.00000000E+00  0.00000000E+00  0.00000000E+00
  0.00000000E+00  0.00000000E+00  0.00000000E+00  0.00000000E+00  0.00000000E+00
  0.00000000E+00  0.00000000E+00  0.00000000E+00  0.00000000E+00  0.00000000E+00
  0.00000000E+00  0.00000000E+00  0.00000000E+00  0.00000000E+00  0.00000000E+00
  0.00000000E+00  0.00000000E+00  0.00000000E+00  0.00000000E+00  0.00000000E+00
  0.00000000E+00  0.00000000E+00  0.00000000E+00  0.00000000E+00  0.00000000E+00
  0.00000000E+00  0.00000000E+00  0.00000000E+00  0.00000000E+00  0.00000000E+00
  0.00000000E+00  0.00000000E+00  0.00000000E+00  0.00000000E+00  0.00000000E+00
  0.00000000E+00  0.00000000E+00  0.00000000E+00  0.00000000E+00  0.00000000E+00
  0.00000000E+00  0.00000000E+00  0.00000000E+00  0.00000000E+00  0.00000000E+00
  0.00000000E+00  0.00000000E+00  0.00000000E+00  0.00000000E+00  0.00000000E+00
  0.00000000E+00  0.00000000E+00  0.00000000E+00  0.00000000E+00  0.00000000E+00
  0.00000000E+00  0.00000000E+00  0.00000000E+00  0.00000000E+00  0.00000000E+00
  0.00000000E+00  0.00000000E+00  0.00000000E+00  0.00000000E+00  0.00000000E+00
  0.00000000E+00  0.00000000E+00  0.00000000E+00  0.00000000E+00  0.00000000E+00
  0.00000000E+00  0.00000000E+00  0.00000000E+00  0.00000000E+00  0.00000000E+00
  0.00000000E+00  0.00000000E+00  0.00000000E+00  0.00000000E+00  0.00000000E+00
  0.00000000E+00  0.00000000E+00  0.00000000E+00  0.00000000E+00  0.00000000E+00
  0.00000000E+00  0.00000000E+00  0.00000000E+00  0.00000000E+00  0.00000000E+00
  0.00000000E+00  0.00000000E+00  0.00000000E+00  0.00000000E+00  0.00000000E+00
  0.00000000E+00  0.00000000E+00  0.00000000E+00  0.00000000E+00  0.00000000E+00
  0.00000000E+00  0.00000000E+00  0.00000000E+00  0.00000000E+00  0.00000000E+00
  0.00000000E+00  0.00000000E+00  0.00000000E+00  0.00000000E+00  0.00000000E+00
  0.00000000E+00  0.00000000E+00  0.00000000E+00  0.00000000E+00  0.00000000E+00
  0.00000000E+00  0.00000000E+00  0.00000000E+00  0.00000000E+00  0.00000000E+00
  0.00000000E+00  0.00000000E+00  0.00000000E+00  0.00000000E+00  0.00000000E+00
  0.00000000E+00  0.00000000E+00  0.00000000E+00  0.00000000E+00  0.00000000E+00
  0.00000000E+00  0.00000000E+00  0.00000000E+00  0.00000000E+00  0.00000000E+00
  0.00000000E+00  0.00000000E+00  0.00000000E+00  0.00000000E+00  0.00000000E+00
  0.00000000E+00  0.00000000E+00  0.00000000E+00  0.00000000E+00  0.00000000E+00
  0.00000000E+00  0.00000000E+00  0.00000000E+00  0.00000000E+00  0.00000000E+00
  0.00000000E+00  0.00000000E+00  0.00000000E+00  0.00000000E+00  0.00000000E+00
  0.00000000E+00  0.00000000E+00  0.00000000E+00  0.00000000E+00  0.00000000E+00
  0.00000000E+00  0.00000000E+00  0.00000000E+00  0.00000000E+00  0.00000000E+00
  0.00000000E+00  0.00000000E+00  0.00000000E+00  0.00000000E+00  0.00000000E+00
  0.00000000E+00  0.00000000E+00  0.00000000E+00  0.00000000E+00  0.00000000E+00
  0.00000000E+00  0.00000000E+00  0.00000000E+00  0.00000000E+00  0.00000000E+00
  0.00000000E+00  0.00000000E+00  0.00000000E+00  0.00000000E+00  0.00000000E+00
  0.00000000E+00  0.00000000E+00  0.00000000E+00  0.00000000E+00  0.00000000E+00
  0.00000000E+00  0.00000000E+00  0.00000000E+00  0.00000000E+00  0.00000000E+00
  0.00000000E+00  0.00000000E+00  0.00000000E+00  0.00000000E+00  0.00000000E+00
  0.00000000E+00  0.00000000E+00  0.00000000E+00  0.00000000E+00  0.00000000E+00
  0.00000000E+00  0.00000000E+00  0.00000000E+00  0.00000000E+00  0.00000000E+00
  0.00000000E+00  0.00000000E+00  0.00000000E+00  0.00000000E+00  0.00000000E+00
  0.00000000E+00  0.00000000E+00  0.00000000E+00  0.00000000E+00  0.00000000E+00
  0.00000000E+00  0.00000000E+00  0.00000000E+00  0.00000000E+00  0.00000000E+00
  0.00000000E+00  0.00000000E+00  0.00000000E+00  0.00000000E+00  0.00000000E+00
  0.00000000E+00  0.00000000E+00  0.00000000E+00  0.00000000E+00  0.00000000E+00
  0.00000000E+00  0.00000000E+00  0.00000000E+00  0.00000000E+00  0.00000000E+00
  0.00000000E+00  0.00000000E+00  0.00000000E+00  0.00000000E+00  0.00000000E+00
  0.00000000E+00  0.00000000E+00  0.00000000E+00  0.00000000E+00  0.00000000E+00
  0.00000000E+00  0.00000000E+00  0.00000000E+00  0.00000000E+00  0.00000000E+00
  0.00000000E+00  0.00000000E+00  0.00000000E+00  0.00000000E+00  0.00000000E+00
  0.00000000E+00  0.00000000E+00  0.00000000E+00  0.00000000E+00  0.00000000E+00
  0.00000000E+00  0.00000000E+00  0.00000000E+00  0.00000000E+00  0.00000000E+00
  0.00000000E+00  0.00000000E+00  0.00000000E+00  0.00000000E+00  0.00000000E+00
  0.00000000E+00  0.00000000E+00  0.00000000E+00  0.00000000E+00  0.00000000E+00
  0.00000000E+00  0.00000000E+00  0.00000000E+00  0.00000000E+00  0.00000000E+00
  0.00000000E+00  0.00000000E+00  0.00000000E+00  0.00000000E+00  0.00000000E+00
  0.00000000E+00  0.00000000E+00  0.00000000E+00  0.00000000E+00  0.00000000E+00
  0.00000000E+00  0.00000000E+00  0.00000000E+00  0.00000000E+00  0.00000000E+00
  0.00000000E+00  0.00000000E+00  0.00000000E+00  0.00000000E+00  0.00000000E+00
  0.00000000E+00  0.00000000E+00  0.00000000E+00  0.00000000E+00  0.00000000E+00
  0.00000000E+00  0.00000000E+00  0.00000000E+00  0.00000000E+00  0.00000000E+00
  0.00000000E+00  0.00000000E+00  0.00000000E+00  0.00000000E+00  0.00000000E+00
  0.00000000E+00  0.00000000E+00  0.00000000E+00  0.00000000E+00  0.00000000E+00
  0.00000000E+00  0.00000000E+00  0.00000000E+00  0.00000000E+00  0.00000000E+00
  0.00000000E+00  0.00000000E+00  0.00000000E+00  0.00000000E+00  0.00000000E+00
  0.00000000E+00  0.00000000E+00  0.00000000E+00  0.00000000E+00  0.00000000E+00
  0.00000000E+00  0.00000000E+00  0.00000000E+00  0.00000000E+00  0.00000000E+00
  0.00000000E+00  0.00000000E+00  0.00000000E+00  0.00000000E+00  0.00000000E+00
  0.00000000E+00  0.00000000E+00  0.00000000E+00  0.00000000E+00  0.00000000E+00
  0.00000000E+00  0.00000000E+00  0.00000000E+00  0.00000000E+00  0.00000000E+00
  0.00000000E+00  0.00000000E+00  0.00000000E+00  0.00000000E+00  0.00000000E+00
  0.00000000E+00  0.00000000E+00  0.00000000E+00  0.00000000E+00  0.00000000E+00
  0.00000000E+00  0.00000000E+00  0.00000000E+00  0.00000000E+00  0.00000000E+00
  0.00000000E+00  0.00000000E+00  0.00000000E+00  0.00000000E+00  0.00000000E+00
  0.00000000E+00  0.00000000E+00  0.00000000E+00  0.00000000E+00  0.00000000E+00
  0.00000000E+00  0.00000000E+00  0.00000000E+00  0.00000000E+00  0.00000000E+00
  0.00000000E+00  0.00000000E+00  0.00000000E+00  0.00000000E+00  0.00000000E+00
  0.00000000E+00  0.00000000E+00  0.00000000E+00  0.00000000E+00  0.00000000E+00
  0.00000000E+00  0.00000000E+00  0.00000000E+00  0.00000000E+00  0.00000000E+00
  0.00000000E+00  0.00000000E+00  0.00000000E+00  0.00000000E+00  0.00000000E+00
  0.00000000E+00  0.00000000E+00  0.00000000E+00  0.00000000E+00  0.00000000E+00
  0.00000000E+00  0.00000000E+00  0.00000000E+00  0.00000000E+00  0.00000000E+00
  0.00000000E+00  0.00000000E+00  0.00000000E+00  0.00000000E+00  0.00000000E+00
  0.00000000E+00  0.00000000E+00  0.00000000E+00  0.00000000E+00  0.00000000E+00
  0.00000000E+00  0.00000000E+00  0.00000000E+00  0.00000000E+00  0.00000000E+00
  0.00000000E+00  0.00000000E+00  0.00000000E+00  0.00000000E+00  0.00000000E+00
  0.00000000E+00  0.00000000E+00  0.00000000E+00  0.00000000E+00  0.00000000E+00
  0.00000000E+00  0.00000000E+00  0.00000000E+00  0.00000000E+00  0.00000000E+00
  0.00000000E+00  0.00000000E+00  0.00000000E+00  0.00000000E+00  0.00000000E+00
  0.00000000E+00  0.00000000E+00  0.00000000E+00  0.00000000E+00  0.00000000E+00
  0.00000000E+00  0.00000000E+00  0.00000000E+00  0.00000000E+00  0.00000000E+00
  0.00000000E+00  0.00000000E+00  0.00000000E+00  0.00000000E+00  0.00000000E+00
  0.00000000E+00  0.00000000E+00  0.00000000E+00  0.00000000E+00  0.00000000E+00
  0.00000000E+00  0.00000000E+00  0.00000000E+00  0.00000000E+00  0.00000000E+00
  0.00000000E+00  0.00000000E+00  0.00000000E+00  0.00000000E+00  0.00000000E+00
  0.00000000E+00  0.00000000E+00  0.00000000E+00  0.00000000E+00  0.00000000E+00
  0.00000000E+00  0.00000000E+00  0.00000000E+00  0.00000000E+00  0.00000000E+00
  0.00000000E+00  0.00000000E+00  0.00000000E+00  0.00000000E+00  0.00000000E+00
  0.00000000E+00  0.00000000E+00  0.00000000E+00  0.00000000E+00  0.00000000E+00
  0.00000000E+00  0.00000000E+00  0.00000000E+00  0.00000000E+00  0.00000000E+00
  0.00000000E+00  0.00000000E+00  0.00000000E+00  0.00000000E+00  0.00000000E+00
  0.00000000E+00  0.00000000E+00  0.00000000E+00  0.00000000E+00  0.00000000E+00
  0.00000000E+00  0.00000000E+00  0.00000000E+00  0.00000000E+00  0.00000000E+00
  0.00000000E+00  0.00000000E+00  0.00000000E+00  0.00000000E+00  0.00000000E+00
  0.00000000E+00  0.00000000E+00  0.00000000E+00  0.00000000E+00  0.00000000E+00
  0.00000000E+00  0.00000000E+00  0.00000000E+00  0.00000000E+00  0.00000000E+00
  0.00000000E+00  0.00000000E+00  0.00000000E+00  0.00000000E+00  0.00000000E+00
  0.00000000E+00  0.00000000E+00  0.00000000E+00  0.00000000E+00  0.00000000E+00
  0.00000000E+00  0.00000000E+00  0.00000000E+00  0.00000000E+00  0.00000000E+00
  0.00000000E+00  0.00000000E+00  0.00000000E+00  0.00000000E+00  0.00000000E+00
Gaussian Version                           C   N=           2
ES64L-G16RevA.03        
