 Entering Gaussian System, Link 0=g16
 Initial command:
 /home/hush/g16/l1.exe "/home/hush/g16/Scratch/Gau-681059.inp" -scrdir="/home/hush/g16/Scratch/"
 Default CPUs for threads: 0
 Entering Link 1 = /home/hush/g16/l1.exe PID=    681061.
  
 Copyright (c) 1988,1990,1992,1993,1995,1998,2003,2009,2016,
            Gaussian, Inc.  All Rights Reserved.
  
 This is part of the Gaussian(R) 16 program.  It is based on
 the Gaussian(R) 09 system (copyright 2009, Gaussian, Inc.),
 the Gaussian(R) 03 system (copyright 2003, Gaussian, Inc.),
 the Gaussian(R) 98 system (copyright 1998, Gaussian, Inc.),
 the Gaussian(R) 94 system (copyright 1995, Gaussian, Inc.),
 the Gaussian 92(TM) system (copyright 1992, Gaussian, Inc.),
 the Gaussian 90(TM) system (copyright 1990, Gaussian, Inc.),
 the Gaussian 88(TM) system (copyright 1988, Gaussian, Inc.),
 the Gaussian 86(TM) system (copyright 1986, Carnegie Mellon
 University), and the Gaussian 82(TM) system (copyright 1983,
 Carnegie Mellon University). Gaussian is a federally registered
 trademark of Gaussian, Inc.
  
 This software contains proprietary and confidential information,
 including trade secrets, belonging to Gaussian, Inc.
  
 This software is provided under written license and may be
 used, copied, transmitted, or stored only in accord with that
 written license.
  
 The following legend is applicable only to US Government
 contracts under FAR:
  
                    RESTRICTED RIGHTS LEGEND
  
 Use, reproduction and disclosure by the US Government is
 subject to restrictions as set forth in subparagraphs (a)
 and (c) of the Commercial Computer Software - Restricted
 Rights clause in FAR 52.227-19.
  
 Gaussian, Inc.
 340 Quinnipiac St., Bldg. 40, Wallingford CT 06492
  
  
 ---------------------------------------------------------------
 Warning -- This program may not be used in any manner that
 competes with the business of Gaussian, Inc. or will provide
 assistance to any competitor of Gaussian, Inc.  The licensee
 of this program is prohibited from giving any competitor of
 Gaussian, Inc. access to this program.  By using this program,
 the user acknowledges that Gaussian, Inc. is engaged in the
 business of creating and licensing software in the field of
 computational chemistry and represents and warrants to the
 licensee that it is not a competitor of Gaussian, Inc. and that
 it will not use this program in any manner prohibited above.
 ---------------------------------------------------------------
  

 Cite this work as:
 Gaussian 16, Revision A.03,
 M. J. Frisch, G. W. Trucks, H. B. Schlegel, G. E. Scuseria, 
 M. A. Robb, J. R. Cheeseman, G. Scalmani, V. Barone, 
 G. A. Petersson, H. Nakatsuji, X. Li, M. Caricato, A. V. Marenich, 
 J. Bloino, B. G. Janesko, R. Gomperts, B. Mennucci, H. P. Hratchian, 
 J. V. Ortiz, A. F. Izmaylov, J. L. Sonnenberg, D. Williams-Young, 
 F. Ding, F. Lipparini, F. Egidi, J. Goings, B. Peng, A. Petrone, 
 T. Henderson, D. Ranasinghe, V. G. Zakrzewski, J. Gao, N. Rega, 
 G. Zheng, W. Liang, M. Hada, M. Ehara, K. Toyota, R. Fukuda, 
 J. Hasegawa, M. Ishida, T. Nakajima, Y. Honda, O. Kitao, H. Nakai, 
 T. Vreven, K. Throssell, J. A. Montgomery, Jr., J. E. Peralta, 
 F. Ogliaro, M. J. Bearpark, J. J. Heyd, E. N. Brothers, K. N. Kudin, 
 V. N. Staroverov, T. A. Keith, R. Kobayashi, J. Normand, 
 K. Raghavachari, A. P. Rendell, J. C. Burant, S. S. Iyengar, 
 J. Tomasi, M. Cossi, J. M. Millam, M. Klene, C. Adamo, R. Cammi, 
 J. W. Ochterski, R. L. Martin, K. Morokuma, O. Farkas, 
 J. B. Foresman, and D. J. Fox, Gaussian, Inc., Wallingford CT, 2016.
 
 ******************************************
 Gaussian 16:  ES64L-G16RevA.03 25-Dec-2016
                30-Jul-2026 
 ******************************************
 %mem=5GB
 %nprocshared=8
 Will use up to    8 processors via shared memory.
 %chk=NO3_opt.chk
 -------------------
 # b3lyp/def2TZVP SP
 -------------------
 1/38=1,172=1/1;
 2/12=2,17=6,18=5,40=1/2;
 3/5=44,7=101,11=2,25=1,30=1,74=-5/1,2,3;
 4//1;
 5/5=2,38=5/2;
 6/7=2,8=2,9=2,10=2,28=1/1;
 99/5=1,9=1/99;
 -------
 NO3_opt
 -------
 Symbolic Z-matrix:
 Charge = -1 Multiplicity = 1
 N                    -0.00005  0.        -0.00004 
 O                    -0.62897  -1.0918    0.00003 
 O                    -0.63119   1.09051   0.00003 
 O                     1.26019   0.00128  -0.00001 
 
                          Input orientation:                          
 ---------------------------------------------------------------------
 Center     Atomic      Atomic             Coordinates (Angstroms)
 Number     Number       Type             X           Y           Z
 ---------------------------------------------------------------------
      1          7           0       -0.000046   -0.000000   -0.000043
      2          8           0       -0.628967   -1.091796    0.000026
      3          8           0       -0.631186    1.090515    0.000026
      4          8           0        1.260193    0.001281   -0.000014
 ---------------------------------------------------------------------
                    Distance matrix (angstroms):
                    1          2          3          4
     1  N    0.000000
     2  O    1.259984   0.000000
     3  O    1.259985   2.182312   0.000000
     4  O    1.260239   2.182599   2.182600   0.000000
 Stoichiometry    NO3(1-)
 Framework group  C1[X(NO3)]
 Deg. of freedom     6
 Full point group                 C1      NOp   1
 Largest Abelian subgroup         C1      NOp   1
 Largest concise Abelian subgroup C1      NOp   1
                         Standard orientation:                         
 ---------------------------------------------------------------------
 Center     Atomic      Atomic             Coordinates (Angstroms)
 Number     Number       Type             X           Y           Z
 ---------------------------------------------------------------------
      1          7           0       -0.000046    0.000000    0.000043
      2          8           0       -0.628965    1.091797   -0.000026
      3          8           0       -0.631188   -1.090514   -0.000026
      4          8           0        1.260193   -0.001283    0.000014
 ---------------------------------------------------------------------
 Rotational constants (GHZ):          13.2688006          13.2641331           6.6332332
 Standard basis: def2TZVP (5D, 7F)
 There are   144 symmetry adapted cartesian basis functions of A   symmetry.
 There are   124 symmetry adapted basis functions of A   symmetry.
   124 basis functions,   204 primitive gaussians,   144 cartesian basis functions
    16 alpha electrons       16 beta electrons
       nuclear repulsion energy       117.1060574180 Hartrees.
 NAtoms=    4 NActive=    4 NUniq=    4 SFac= 1.00D+00 NAtFMM=   60 NAOKFM=F Big=F
 Integral buffers will be    131072 words long.
 Raffenetti 2 integral format.
 Two-electron integral symmetry is turned on.
 One-electron integrals computed using PRISM.
   1 Symmetry operations used in ECPInt.
 ECPInt:  NShTT=     990 NPrTT=    3328 LenC2=     979 LenP2D=    2797.
 LDataN:  DoStor=T MaxTD1= 6 Len=  172
 NBasis=   124 RedAO= T EigKep=  1.44D-03  NBF=   124
 NBsUse=   124 1.00D-06 EigRej= -1.00D+00 NBFU=   124
 ExpMin= 1.36D-01 ExpMax= 2.70D+04 ExpMxC= 9.22D+02 IAcc=3 IRadAn=         5 AccDes= 0.00D+00
 Harris functional with IExCor=  402 and IRadAn=       5 diagonalized for initial guess.
 HarFok:  IExCor=  402 AccDes= 0.00D+00 IRadAn=         5 IDoV= 1 UseB2=F ITyADJ=14
 ICtDFT=  3500011 ScaDFX=  1.000000  1.000000  1.000000  1.000000
 FoFCou: FMM=F IPFlag=           0 FMFlag=      100000 FMFlg1=           0
         NFxFlg=           0 DoJE=T BraDBF=F KetDBF=T FulRan=T
         wScrn=  0.000000 ICntrl=       500 IOpCl=  0 I1Cent=   200000004 NGrid=           0
         NMat0=    1 NMatS0=      1 NMatT0=    0 NMatD0=    1 NMtDS0=    0 NMtDT0=    0
 Petite list used in FoFCou.
 Keep R1 ints in memory in canonical form, NReq=37801813.
 Requested convergence on RMS density matrix=1.00D-08 within 128 cycles.
 Requested convergence on MAX density matrix=1.00D-06.
 Requested convergence on             energy=1.00D-06.
 No special actions if energy rises.
 Integral accuracy reduced to 1.0D-05 until final iterations.
 Initial convergence to 1.0D-05 achieved.  Increase integral accuracy.
 SCF Done:  E(RB3LYP) =  -280.484759289     A.U. after   12 cycles
            NFock= 12  Conv=0.40D-08     -V/T= 2.0037

 **********************************************************************

            Population analysis using the SCF density.

 **********************************************************************

 Orbital symmetries:
       Occupied  (A) (A) (A) (A) (A) (A) (A) (A) (A) (A) (A) (A)
                 (A) (A) (A) (A)
       Virtual   (A) (A) (A) (A) (A) (A) (A) (A) (A) (A) (A) (A)
                 (A) (A) (A) (A) (A) (A) (A) (A) (A) (A) (A) (A)
                 (A) (A) (A) (A) (A) (A) (A) (A) (A) (A) (A) (A)
                 (A) (A) (A) (A) (A) (A) (A) (A) (A) (A) (A) (A)
                 (A) (A) (A) (A) (A) (A) (A) (A) (A) (A) (A) (A)
                 (A) (A) (A) (A) (A) (A) (A) (A) (A) (A) (A) (A)
                 (A) (A) (A) (A) (A) (A) (A) (A) (A) (A) (A) (A)
                 (A) (A) (A) (A) (A) (A) (A) (A) (A) (A) (A) (A)
                 (A) (A) (A) (A) (A) (A) (A) (A) (A) (A) (A) (A)
 The electronic state is 1-A.
 Alpha  occ. eigenvalues --  -18.90937 -18.90936 -18.90932 -14.34897  -1.00952
 Alpha  occ. eigenvalues --   -0.79492  -0.79482  -0.38331  -0.31611  -0.29316
 Alpha  occ. eigenvalues --   -0.29316  -0.10152  -0.10149  -0.08194  -0.08190
 Alpha  occ. eigenvalues --   -0.03102
 Alpha virt. eigenvalues --    0.18404   0.34093   0.46358   0.46360   0.48038
 Alpha virt. eigenvalues --    0.54069   0.58465   0.58475   0.64141   0.68197
 Alpha virt. eigenvalues --    0.68199   0.70142   0.70144   0.74674   0.74677
 Alpha virt. eigenvalues --    0.76877   0.77148   0.83527   1.14080   1.14080
 Alpha virt. eigenvalues --    1.22598   1.22606   1.46682   1.52787   1.52787
 Alpha virt. eigenvalues --    1.74316   1.74323   1.75928   1.86525   1.86528
 Alpha virt. eigenvalues --    1.91074   1.97421   2.07253   2.19034   2.24899
 Alpha virt. eigenvalues --    2.24905   2.34317   2.34464   2.34465   2.39110
 Alpha virt. eigenvalues --    2.47495   2.47498   2.82076   2.82088   2.83841
 Alpha virt. eigenvalues --    2.91810   2.91811   2.95274   3.01141   3.21166
 Alpha virt. eigenvalues --    3.21171   3.35073   3.35095   3.83938   3.83944
 Alpha virt. eigenvalues --    4.09655   4.09659   4.19014   4.37053   4.39072
 Alpha virt. eigenvalues --    4.78399   4.80242   4.80261   4.81150   4.81157
 Alpha virt. eigenvalues --    5.23596   5.23619   5.31518   5.34754   5.35977
 Alpha virt. eigenvalues --    5.35994   5.35998   5.36210   5.39647   5.39648
 Alpha virt. eigenvalues --    5.66782   5.66799   5.67366   5.67383   5.84201
 Alpha virt. eigenvalues --    6.14179   6.14211   6.40215   6.45350   6.45367
 Alpha virt. eigenvalues --    6.47558   6.58486   6.58576   6.58593   6.60008
 Alpha virt. eigenvalues --    6.60020   6.79838   7.03750   7.04389   7.04403
 Alpha virt. eigenvalues --    7.06902   7.06935   7.32588   7.32604   7.35495
 Alpha virt. eigenvalues --    7.49726   7.65679   7.68813   7.68846  32.13481
 Alpha virt. eigenvalues --   44.02410  44.04484  44.04490
          Condensed to atoms (all electrons):
               1          2          3          4
     1  N    5.191117   0.461216   0.461216   0.461172
     2  O    0.461216   8.337062  -0.161676  -0.161578
     3  O    0.461216  -0.161676   8.337062  -0.161578
     4  O    0.461172  -0.161578  -0.161578   8.337216
 Mulliken charges:
               1
     1  N    0.425279
     2  O   -0.475024
     3  O   -0.475024
     4  O   -0.475232
 Sum of Mulliken charges =  -1.00000
 Mulliken charges with hydrogens summed into heavy atoms:
               1
     1  N    0.425279
     2  O   -0.475024
     3  O   -0.475024
     4  O   -0.475232
 Electronic spatial extent (au):  <R**2>=            197.2836
 Charge=             -1.0000 electrons
 Dipole moment (field-independent basis, Debye):
    X=             -0.0014    Y=              0.0000    Z=              0.0001  Tot=              0.0014
 Quadrupole moment (field-independent basis, Debye-Ang):
   XX=            -30.0132   YY=            -30.0105   ZZ=            -22.2959
   XY=             -0.0000   XZ=             -0.0002   YZ=              0.0000
 Traceless Quadrupole moment (field-independent basis, Debye-Ang):
   XX=             -2.5733   YY=             -2.5706   ZZ=              5.1439
   XY=             -0.0000   XZ=             -0.0002   YZ=              0.0000
 Octapole moment (field-independent basis, Debye-Ang**2):
  XXX=             -3.1654  YYY=             -0.0096  ZZZ=             -0.0000  XYY=              3.1597
  XXY=              0.0097  XXZ=             -0.0002  XZZ=             -0.0013  YZZ=              0.0000
  YYZ=             -0.0000  XYZ=              0.0000
 Hexadecapole moment (field-independent basis, Debye-Ang**3):
 XXXX=           -115.1208 YYYY=           -115.0835 ZZZZ=            -18.3032 XXXY=             -0.0000
 XXXZ=             -0.0012 YYYX=             -0.0000 YYYZ=              0.0000 ZZZX=             -0.0009
 ZZZY=              0.0000 XXYY=            -38.3674 XXZZ=            -21.2074 YYZZ=            -21.2012
 XXYZ=              0.0000 YYXZ=             -0.0002 ZZXY=             -0.0000
 N-N= 1.171060574180D+02 E-N=-9.048219996756D+02  KE= 2.794469547501D+02
 1\1\GINC-HUSH-MIND\SP\RB3LYP\def2TZVP\N1O3(1-)\HUSH\30-Jul-2026\0\\# b
 3lyp/def2TZVP SP\\NO3_opt\\-1,1\N,0,-0.00004587,-0.00000033,-0.0000429
 2\O,0,-0.62896657,-1.09179582,0.00002558\O,0,-0.63118599,1.09051485,0.
 00002558\O,0,1.26019269,0.00128125,-0.00001361\\Version=ES64L-G16RevA.
 03\State=1-A\HF=-280.4847593\RMSD=3.950e-09\Dipole=-0.0005573,-0.00000
 28,-0.0000411\Quadrupole=-1.9132008,-1.9111904,3.8243913,0.0000009,0.0
 00119,0.0000001\PG=C01 [X(N1O3)]\\@


 ORIGINALITY CONSISTS NOT IN SAYING WHAT NO ONE HAS EVER SAID BEFORE, 
 BUT IN SAYING WHAT YOU THINK YOUR SELF.

                                    -- JAMES F. STEPHEN
 Job cpu time:       0 days  0 hours  0 minutes 16.9 seconds.
 Elapsed time:       0 days  0 hours  0 minutes  2.4 seconds.
 File lengths (MBytes):  RWF=     10 Int=      0 D2E=      0 Chk=      2 Scr=      1
 Normal termination of Gaussian 16 at Thu Jul 30 23:39:42 2026.
