%chk=PP.chk
# opt freq b3lyp/6-311+g(d,p)

PP

0 1
 C        -2.38553388    1.62259401    0.35842320
 O        -1.87219136    2.34611105    1.61723317
 O        -1.65900727    1.11414876   -0.53444470
 C        -3.92553379    1.62214224    0.35869462
 H        -4.28189810    1.11726353    1.23219446
 H        -4.28249598    2.63084326    0.35918595
 C        -4.43887623    0.89656299   -0.89892786
 H        -4.08059921   -0.11167106   -0.90022497
 H        -5.50887440    0.89485392   -0.89793443
 H        -4.08382789    1.40237012   -1.77242647
 C        -0.44219136    2.34609343    1.61723317
 H        -0.08553744    1.33728850    1.61397751
 H        -0.08551826    2.85330858    0.74521420
 C         0.07115041    3.06798875    2.87697416
 H        -0.28390643    4.07735957    2.87925369
 H        -0.28711859    2.56190423    3.74899583
 C         1.61114781    3.06552774    2.87837464
 H         1.96782127    3.56755020    3.75339320
 H         1.96620333    2.05615543    2.87660871
 H         1.96941656    3.57116770    2.00609502
