%chk=TFOP.chk
# opt freq b3lyp/6-311+g(d,p)

TFOP

-1 1
 P         2.21536136    0.81328634    0.17644538
 C         0.06251700    2.14831708    0.05644762
 C         1.19271585    3.13067424    0.05253069
 F         1.99591529    1.05939347   -1.41985494
 F         2.06807616   -0.79727544   -0.02677331
 F         2.40837830    0.59761693    1.78054362
 F         3.82992428    0.73410475   -0.03287935
 O         0.49448248    0.85655187    0.43718109
 O         2.41322242    2.52430079    0.43053131
 O         1.07294470    4.34429239   -0.25788263
 O        -1.12380792    2.43489772   -0.25026935
