%chk=TFSI.chk
# opt freq b3lyp/6-311+g(d,p)

TFSI

-1 1
 N                 -0.90842238   -0.95284593   -0.00000133
 S                 -0.81671133   -0.10278233    1.48090413
 S                 -0.81671443   -0.10277498   -1.48090276
 O                 -1.59068077   -0.81812459    2.50510182
 O                 -1.36775519    1.24821620    1.30518334
 O                 -1.36775792    1.24822268   -1.30517412
 O                 -1.59068600   -0.81811215   -2.50510239
 C                  0.88362854    0.01216345    1.99474437
 C                  0.88362437    0.01217335   -1.99474599
 F                  0.95603199    0.68326629    3.16388026
 F                  1.38982696   -1.22888719    2.15616453
 F                  1.59461026    0.66928923    1.05389864
 F                  1.59460806    0.66929446   -1.05389847
 F                  1.38982246   -1.22887649   -2.15617335
 F                  0.95602538    0.68328199   -3.16387869
