%chk=TFSM.chk
# opt freq b3lyp/6-311+g(d,p)

TFSM

-1 1
 C         1.67437752   -0.32757047   -1.82602326
 S         2.50831604   -1.80875786   -1.29778993
 S         2.51958686    0.84899806   -2.86028999
 S        -0.00477034   -0.02295161   -1.31998987
 C         2.24449092    0.44060342   -4.57082676
 C         1.87471835   -2.31323593    0.28728289
 C        -1.12131869   -0.72199613   -2.51709326
 O         2.27809009   -2.87736617   -2.28003045
 O         3.95016628   -1.54653832   -1.18809507
 O        -0.24140308   -0.64302906   -0.00879459
 O        -0.23262988    1.42576839   -1.22504479
 O         3.96015230    0.80824922   -2.57247942
 O         2.00396562    2.19832098   -2.58975986
 F        -2.39482971   -0.49096497   -2.13330389
 F        -0.91200298   -2.05281540   -2.60431145
 F        -0.90394376   -0.15238224   -3.72157994
 F         2.71814952   -0.79890797   -4.81934043
 F         0.92116257    0.47803601   -4.83521454
 F         2.88552048    1.33294472   -5.35524254
 F         0.55020976   -2.55411533    0.18651530
 F         2.50719981   -3.43660838    0.68790930
 F         2.08620790   -1.33159383    1.18958604
