%chk=TTE.chk
# opt freq b3lyp/6-311+g(d,p)

TTE

0 1
 C                 -2.67710757   -0.28200477   -0.29875719
 C                 -2.16376535    0.44395151    0.95864778
 C                 -0.11042547    1.16792047    2.21719040
 H                 -0.46876228    0.66502617    3.09102794
 H                 -0.46541385    2.17731698    2.21579547
 C                  1.42957170    1.16536106    2.21865871
 F                  1.87745451   -0.10817647    2.22042969
 F                  1.88167781    1.79984410    1.11614733
 F                  1.87957975    1.80217186    3.32068628
 O                 -0.62376796    0.44149516    0.96005645
 F                 -2.61173364    1.71745961    0.95741446
 F                 -2.61578713   -0.19101334    2.06091633
 F                 -2.22712302   -1.55480243   -0.29875719
 H                 -3.74710757   -0.28199158   -0.29875719
 F                 -2.22709978    0.35438547   -1.40102778
